@RELATION gaze_labels

%@METADATA width_px 1920
%@METADATA height_px 1080
%@METADATA width_mm 540.00
%@METADATA height_mm 254.00
%@METADATA distance_mm 620.00


@ATTRIBUTE time INTEGER
@ATTRIBUTE x NUMERIC
@ATTRIBUTE y NUMERIC
@ATTRIBUTE confidence NUMERIC
@ATTRIBUTE handlabeller1 INTEGER
@ATTRIBUTE handlabeller2 INTEGER
@ATTRIBUTE handlabeller_final INTEGER
@ATTRIBUTE speed_1 numeric
@ATTRIBUTE direction_1 numeric
@ATTRIBUTE acceleration_1 numeric
@ATTRIBUTE speed_2 numeric
@ATTRIBUTE direction_2 numeric
@ATTRIBUTE acceleration_2 numeric
@ATTRIBUTE speed_4 numeric
@ATTRIBUTE direction_4 numeric
@ATTRIBUTE acceleration_4 numeric
@ATTRIBUTE speed_8 numeric
@ATTRIBUTE direction_8 numeric
@ATTRIBUTE acceleration_8 numeric
@ATTRIBUTE speed_16 numeric
@ATTRIBUTE direction_16 numeric
@ATTRIBUTE acceleration_16 numeric

%The number after speed, direction denotes the step size that was used for the calculation.
%Acceleration was calculated between two adjacent samples of the already low pass filtered velocity

@DATA
0,141.21,902.84,1.00,1,1,1,0.00,0.00,0.00,4340.75,-0.14,0.00,2820.28,-0.10,0.00,915.09,0.04,0.00,303.96,0.23,0.00
14900,205.28,893.98,1.00,1,1,1,4340.75,-0.14,291325.59,2820.28,-0.10,102376.58,429.82,0.25,162518.43,226.73,2.13,70310.93,93.65,1.74,20995.05
30600,227.06,894.02,1.00,1,1,1,1387.35,0.00,189369.05,429.82,0.25,154237.24,915.09,0.04,32080.25,502.06,2.70,21210.95,46.16,1.85,3062.01
60400,224.23,898.83,1.00,1,1,1,187.32,2.10,50032.76,453.01,2.55,27064.42,226.73,2.13,35155.46,572.57,2.77,2729.59,199.87,-0.25,7610.03
75400,210.17,905.27,1.00,1,1,1,1030.81,2.71,58908.17,735.86,2.75,20307.74,502.06,2.70,22200.80,303.96,0.23,56107.60,425.61,-0.34,15147.14
104100,194.50,911.09,1.00,1,1,1,582.46,2.79,15748.41,551.68,2.80,6499.98,572.57,2.77,2834.21,93.65,1.74,10899.87,613.59,-0.38,6590.76
126700,183.53,914.83,1.00,1,1,1,512.70,2.81,3155.51,383.89,2.82,7436.47,299.83,2.80,12076.76,46.16,1.85,2127.15,832.46,-0.39,9692.42
141800,180.78,915.69,1.00,1,1,1,191.15,2.84,21300.75,141.13,-0.34,34768.66,133.18,-0.32,28674.26,199.87,-0.25,15018.47,975.50,-0.40,9498.90
156000,187.43,913.45,1.00,1,1,1,494.39,-0.33,48275.54,819.58,-0.32,47780.28,750.57,-0.32,43478.14,425.61,-0.34,16000.50,648.60,-0.24,24748.95
170200,202.85,908.32,1.00,1,1,1,1144.77,-0.32,45802.18,1364.22,-0.32,38355.10,1274.37,-0.33,36887.61,613.59,-0.38,13320.77,517.94,-0.27,9260.88
185100,225.08,900.87,1.00,1,1,1,1573.37,-0.32,28765.19,1704.92,-0.33,22869.37,1310.17,-0.34,2747.09,832.46,-0.39,14701.26,580.26,-0.26,4189.43
200200,251.30,891.91,1.00,2,2,2,1834.74,-0.33,17323.30,1267.99,-0.36,29077.78,1003.43,-0.39,20608.85,975.50,-0.40,9498.90,766.86,-0.24,12404.36
222100,269.05,884.52,1.00,2,2,2,878.32,-0.39,43835.42,599.52,-0.49,30955.32,892.99,-0.43,5431.98,1079.15,-0.38,4831.45,970.95,-0.21,9362.57
251700,278.60,877.50,1.00,1,1,1,400.32,-0.63,16840.63,591.24,-0.57,1722.72,765.27,-0.50,4693.62,1107.64,-0.35,1617.78,1178.88,-0.19,7056.67
266800,291.30,870.25,1.00,1,1,1,968.36,-0.52,37915.58,1058.79,-0.51,31108.23,875.57,-0.44,7968.84,1211.98,-0.29,8031.90,1406.43,-0.17,15231.57
280800,305.45,862.38,1.00,1,1,1,1156.37,-0.51,13454.23,1320.52,-0.35,23087.51,1237.74,-0.31,27625.38,1297.07,-0.23,8136.91,1576.39,-0.15,12341.99
296200,327.74,856.85,1.00,1,1,1,1491.34,-0.24,31304.64,1405.14,-0.19,15306.12,1623.29,-0.20,26968.42,1535.58,-0.18,16327.61,1669.66,-0.14,6099.65
317900,356.64,852.50,1.00,1,1,1,1346.55,-0.15,9041.50,1883.95,-0.12,22753.45,1964.43,-0.11,17247.74,1774.05,-0.13,11589.58,1616.79,-0.14,2479.53
333000,396.60,848.79,1.00,1,1,1,2658.06,-0.09,87147.52,2624.59,-0.07,49579.07,2292.96,-0.07,22616.25,1942.28,-0.08,12444.23,1606.52,-0.12,1448.85
349700,439.91,846.87,1.00,1,1,1,2595.78,-0.04,8472.41,2768.84,-0.04,10101.70,2257.33,-0.05,4074.27,2115.97,-0.05,11200.76,1560.30,-0.11,3001.83
364900,484.87,845.70,1.00,2,2,2,2959.21,-0.03,24135.10,2002.63,-0.03,50431.05,2185.86,-0.02,5833.08,2208.15,-0.04,6186.69,1563.10,-0.10,1605.18
395400,531.40,844.56,1.00,2,2,2,1525.91,-0.02,46993.56,1873.02,-0.01,4341.77,2228.12,-0.01,1631.72,2081.95,-0.04,4141.72,1694.16,-0.08,4423.82
424300,596.12,844.44,1.00,1,1,1,2239.58,-0.00,24736.78,2428.57,0.00,19246.12,2149.07,-0.02,2828.91,1967.67,-0.03,3977.78,1772.46,-0.05,2982.86
446900,656.47,844.74,1.00,1,1,1,2670.28,0.00,19071.12,2590.07,-0.03,7893.38,1940.00,-0.03,9331.29,1805.22,-0.03,7187.91,1890.64,-0.03,5536.34
461500,692.43,841.67,1.00,1,1,1,2472.19,-0.09,20847.44,1375.85,-0.10,83727.15,1723.30,-0.05,14971.55,1592.70,-0.03,14558.14,2051.03,-0.02,11162.76
491100,716.96,838.44,1.00,1,1,1,835.61,-0.13,55334.11,995.17,-0.09,12869.15,1247.14,-0.09,16205.92,1627.68,-0.02,1259.18,2180.32,-0.01,4405.52
505700,736.23,837.63,1.00,1,1,1,1321.56,-0.04,33885.75,1052.37,-0.06,4602.57,930.67,-0.06,21748.93,1593.35,-0.02,2479.39,2269.46,-0.00,6203.18
520200,747.53,836.68,1.00,1,1,1,781.75,-0.08,37339.02,854.53,-0.03,13809.14,1175.25,-0.00,17483.55,1624.88,-0.00,2517.20,2413.23,0.00,9944.88
542600,767.76,836.84,1.00,1,1,1,902.98,0.01,6399.34,1274.40,0.04,18966.04,1436.32,0.03,11801.22,1867.30,0.02,10939.89,2503.96,0.00,4050.27
557100,794.52,838.42,1.00,1,1,1,1849.23,0.06,65419.87,2171.61,0.06,61931.32,2046.06,0.05,42112.62,2303.48,0.02,30098.94,2647.93,0.00,9932.91
571900,831.27,840.64,1.00,2,2,2,2487.45,0.06,43123.10,2992.28,0.06,55452.01,3162.69,0.05,75449.52,2622.19,0.02,21534.84,2645.46,-0.00,255.90
587200,884.44,843.65,1.00,2,2,2,3480.63,0.06,64917.56,4143.96,0.04,75362.14,3296.69,0.03,9538.48,3108.33,0.03,31775.99,2507.12,-0.00,9053.82
601500,953.82,845.80,1.00,2,2,2,4854.36,0.03,96346.82,3501.99,0.01,45501.27,3574.95,0.02,19568.13,3644.48,0.02,37509.00,2184.91,-0.00,22535.51
632100,1041.66,845.90,1.00,1,1,1,2870.56,0.00,64932.81,3256.80,0.01,8052.94,3970.72,0.02,12957.18,3801.59,0.01,5233.30,1995.88,0.00,6185.32
654300,1125.78,847.01,1.00,1,1,1,3789.33,0.01,41424.89,4528.98,0.02,57327.51,3986.42,0.01,1823.34,3733.25,0.01,3229.74,1664.49,0.00,14927.34
669800,1212.38,848.67,1.00,1,1,1,5588.40,0.02,116082.89,5249.51,0.00,46625.35,4358.67,-0.00,24105.13,3370.28,-0.00,23505.45,1459.46,0.00,13228.08
684800,1285.89,847.78,1.00,1,1,1,4900.62,-0.01,47139.41,4149.60,-0.03,73954.40,3950.36,-0.01,27340.27,2465.46,-0.01,60346.66,1283.86,0.01,11706.75
700200,1338.49,845.38,1.00,1,1,1,3419.19,-0.05,96604.69,2627.16,-0.04,98926.78,2557.02,-0.04,90648.97,1709.49,-0.02,49100.90,1076.60,0.00,13459.30
714700,1364.36,844.39,1.00,1,1,1,1786.01,-0.04,112639.56,966.02,-0.09,114674.86,789.25,-0.11,122091.41,766.92,-0.06,65080.04,852.14,-0.00,15483.32
730600,1367.74,842.75,1.00,1,1,1,235.60,-0.45,98934.22,428.73,-2.99,87199.61,470.33,-3.03,78776.42,129.81,-2.64,55316.21,596.45,-0.02,16095.77
760200,1345.07,841.53,1.00,1,1,1,766.94,-3.09,33101.17,1295.47,-3.12,29437.89,1202.00,-3.10,24792.69,675.84,-3.07,18930.52,314.44,-0.06,9544.14
783100,1299.75,840.96,1.00,1,1,1,1979.18,-3.13,52982.33,1877.36,-3.12,25418.87,1806.29,-3.12,26407.70,1116.78,-3.11,19336.10,21.50,-1.41,13560.66
812500,1246.89,839.90,1.00,2,2,2,1798.07,-3.12,6178.16,2424.24,-3.12,18602.66,1819.95,-3.13,712.38,1455.43,-3.13,11530.83,283.18,-3.04,9701.70
826500,1194.56,838.87,1.00,3,3,3,3739.18,-3.12,138650.88,1751.27,-3.13,48091.64,1683.37,-3.13,9790.83,1644.68,-3.13,13546.39,550.42,-3.07,19106.73
856200,1170.37,839.15,1.00,1,1,1,814.48,3.13,98491.87,1059.51,3.12,23325.27,1764.00,3.14,2776.84,1785.79,-3.14,4755.12,720.71,-3.08,5743.26
878000,1140.00,839.83,1.00,1,1,1,1393.39,3.12,26561.09,1779.48,3.12,33026.02,1455.31,3.13,14182.36,1673.43,-3.14,5155.62,848.84,-3.09,5891.70
893000,1104.89,840.33,1.00,1,1,1,2340.64,3.13,63158.27,2132.52,3.13,23555.26,1736.84,3.13,18774.15,1414.16,-3.13,17286.90,905.06,-3.10,3753.72
908100,1075.81,840.52,1.00,1,1,1,1925.81,3.14,27493.54,1684.35,-3.14,29719.66,1657.37,-3.14,5478.16,1012.00,-3.12,26641.24,915.79,-3.11,909.03
922800,1054.70,840.25,1.00,1,1,1,1436.49,-3.13,33357.94,1158.01,-3.11,35926.19,986.65,-3.11,45703.39,773.16,-3.10,16314.38,983.28,-3.12,4705.32
936700,1042.71,839.44,1.00,1,1,1,864.32,-3.07,41394.72,412.38,-3.00,53933.92,465.61,-3.00,37815.82,509.03,-3.04,19182.49,1673.43,-3.14,49663.71
958800,1040.01,838.10,1.00,1,1,1,136.50,-2.68,33487.99,112.43,-0.84,21900.60,76.17,-1.25,21973.13,209.29,-2.85,13856.97,1414.16,-3.13,11733.19
973800,1045.51,836.35,1.00,1,1,1,384.82,-0.31,32808.67,382.18,-0.22,19855.53,336.71,-0.25,20158.26,61.25,-2.08,11386.61,1012.00,-3.12,26818.84
1003400,1056.66,834.43,1.00,1,1,1,382.09,-0.17,1795.34,544.33,-0.15,5573.27,507.03,-0.17,5864.57,91.33,-2.82,2102.05,773.16,-3.10,8102.08
1017800,1069.19,832.76,1.00,1,1,1,878.11,-0.13,34479.59,699.11,-0.12,10810.85,325.60,-0.14,12620.93,336.71,-0.25,28938.24,509.03,-3.04,18516.43
1032600,1076.91,831.92,1.00,1,1,1,525.04,-0.11,23881.92,62.34,-0.03,43045.43,225.86,3.03,37257.19,507.03,-0.17,11729.14,209.29,-2.85,20691.83
1054300,1071.46,832.69,1.00,1,1,1,253.70,3.00,35882.29,980.29,3.02,48036.40,62.34,-0.03,13273.02,325.60,-0.14,8375.18,61.25,-2.08,7870.93
1068400,1042.07,836.09,1.00,1,1,1,2098.62,3.03,130852.78,2098.62,3.03,79315.79,980.29,3.02,73928.37,225.86,3.03,39106.83,91.33,-2.82,4412.82
