@RELATION gaze_labels

%@METADATA width_px 1920
%@METADATA height_px 1080
%@METADATA width_mm 540.00
%@METADATA height_mm 254.00
%@METADATA distance_mm 620.00


@ATTRIBUTE time INTEGER
@ATTRIBUTE x NUMERIC
@ATTRIBUTE y NUMERIC
@ATTRIBUTE confidence NUMERIC
@ATTRIBUTE handlabeller1 INTEGER
@ATTRIBUTE handlabeller2 INTEGER
@ATTRIBUTE handlabeller_final INTEGER
@ATTRIBUTE speed_1 numeric
@ATTRIBUTE direction_1 numeric
@ATTRIBUTE acceleration_1 numeric
@ATTRIBUTE speed_2 numeric
@ATTRIBUTE direction_2 numeric
@ATTRIBUTE acceleration_2 numeric
@ATTRIBUTE speed_4 numeric
@ATTRIBUTE direction_4 numeric
@ATTRIBUTE acceleration_4 numeric
@ATTRIBUTE speed_8 numeric
@ATTRIBUTE direction_8 numeric
@ATTRIBUTE acceleration_8 numeric
@ATTRIBUTE speed_16 numeric
@ATTRIBUTE direction_16 numeric
@ATTRIBUTE acceleration_16 numeric

%The number after speed, direction denotes the step size that was used for the calculation.
%Acceleration was calculated between two adjacent samples of the already low pass filtered velocity

@DATA
0,211.91,944.56,1.00,1,1,1,0.00,0.00,0.00,1482.82,-0.58,0.00,489.11,-0.70,0.00,189.16,-1.47,0.00,103.56,-2.54,0.00
14000,229.30,933.22,1.00,1,1,1,1482.82,-0.58,105915.42,489.11,-0.70,71394.46,151.03,-2.35,37327.87,317.20,-3.09,27008.14,141.77,3.09,6190.38
51100,230.96,928.37,1.00,1,1,1,138.02,-1.24,37107.83,151.03,-2.35,14085.99,189.16,-1.47,4017.56,583.79,2.96,7637.50,67.05,2.83,2122.25
65100,223.88,927.73,1.00,1,1,1,507.87,-3.05,39777.16,598.58,3.08,36560.94,317.20,-3.09,27008.14,492.23,2.86,7628.10,93.02,-0.07,11350.92
80400,213.45,929.43,1.00,1,1,1,690.42,2.98,15406.24,692.04,2.93,8745.39,583.79,2.96,18519.68,103.56,-2.54,28324.10,270.47,-0.18,11654.71
95000,203.64,932.02,1.00,1,1,1,695.40,2.88,4605.58,577.34,2.84,8728.54,492.23,2.86,7314.62,141.77,3.09,5935.99,404.96,-0.23,9288.64
110000,197.11,934.42,1.00,1,1,1,463.67,2.79,15859.73,300.02,2.70,18916.24,231.80,2.71,17691.58,67.05,2.83,5249.03,542.97,-0.26,9259.32
125200,195.45,935.89,1.00,1,1,1,145.94,2.42,21817.81,69.59,0.62,22341.19,79.46,0.46,18963.57,93.02,-0.07,10454.79,644.12,-0.29,6720.93
147800,199.26,935.95,1.00,1,1,1,168.69,0.02,12994.71,355.86,-0.11,13612.20,310.61,-0.13,11000.63,270.47,-0.18,7890.13,343.56,-0.44,13668.21
161800,208.38,934.40,1.00,1,1,1,661.25,-0.17,35454.15,539.71,-0.20,13422.69,433.66,-0.21,9044.53,404.96,-0.23,9686.73,309.95,-0.40,2574.89
190900,222.04,931.25,1.00,1,1,1,481.57,-0.23,6277.43,478.02,-0.25,2250.32,625.98,-0.24,6641.76,542.97,-0.26,4772.85,311.15,-0.37,283.86
227800,238.98,926.69,1.00,2,2,2,475.36,-0.26,496.70,699.39,-0.27,6012.35,614.25,-0.28,697.42,644.12,-0.29,2768.51,320.72,-0.33,457.01
242000,256.46,921.65,1.00,3,3,3,1281.66,-0.28,56790.20,818.49,-0.31,8662.06,743.83,-0.31,9249.99,680.97,-0.33,3230.01,348.52,-0.29,2218.25
272000,273.40,915.57,1.00,1,1,1,599.87,-0.34,22802.14,796.74,-0.36,1374.65,941.16,-0.34,6621.67,682.63,-0.34,271.46,367.03,-0.26,669.03
286100,289.40,909.40,1.00,1,1,1,1215.79,-0.37,43705.25,1127.25,-0.37,23465.25,749.69,-0.41,14233.42,612.66,-0.37,5114.34,390.11,-0.25,1680.60
301300,304.17,903.56,1.00,1,1,1,1045.15,-0.38,11243.58,697.72,-0.49,29066.31,800.66,-0.42,3367.77,555.16,-0.37,3788.86,415.34,-0.25,1659.50
323500,312.44,897.15,1.00,1,1,1,471.24,-0.66,27350.72,543.90,-0.50,6931.33,460.72,-0.48,15390.51,429.75,-0.35,5666.86,468.34,-0.25,2389.37
338200,321.83,894.02,1.00,1,1,1,673.37,-0.32,18852.45,253.32,-0.44,19812.58,231.41,-0.49,15602.25,321.50,-0.31,7431.00,491.70,-0.24,1589.68
366200,322.21,892.51,1.00,1,1,1,55.40,-1.32,23038.89,2.89,0.44,8982.22,109.96,0.07,5361.39,206.53,-0.20,4229.47,487.86,-0.25,139.47
388400,321.96,894.08,1.00,1,1,1,71.43,1.73,5707.55,148.64,1.78,6666.96,102.88,2.09,8108.31,142.76,-0.04,3143.89,458.79,-0.26,1339.04
402300,321.08,897.76,1.00,1,1,1,272.19,1.81,14462.22,281.99,2.10,10682.59,169.11,1.86,5218.48,215.22,0.10,5501.28,410.34,-0.28,3533.62
417300,317.82,901.10,1.00,1,1,1,311.19,2.34,10657.19,194.60,1.93,6410.85,156.27,1.24,6715.12,267.00,0.08,3473.06,402.00,-0.28,558.37
432500,319.00,903.26,1.00,1,1,1,161.91,1.07,20139.31,246.23,0.23,21959.28,353.30,0.11,20961.72,344.03,0.05,5104.64,384.57,-0.24,1452.10
447100,324.97,902.74,1.00,1,1,1,410.21,-0.09,25699.98,782.11,-0.13,38246.76,689.04,-0.10,24116.95,361.02,-0.06,2745.21,433.40,-0.17,3848.77
462400,342.18,900.14,1.00,1,1,1,1137.60,-0.15,47628.59,1144.76,-0.17,23822.42,744.72,-0.17,4953.83,391.54,-0.18,3676.52,536.87,-0.11,7060.92
477100,358.81,896.86,1.00,2,2,2,1152.79,-0.19,3643.64,715.37,-0.21,29310.03,595.93,-0.24,10502.08,485.04,-0.25,6657.03,611.63,-0.07,5313.81
499200,367.92,894.62,1.00,2,2,2,424.71,-0.24,32978.00,289.08,-0.38,19604.31,437.64,-0.36,7682.83,545.43,-0.25,2734.62,806.57,-0.04,8864.52
530000,373.00,891.16,1.00,1,1,1,199.36,-0.60,8044.44,231.53,-0.73,3490.52,349.07,-0.46,3162.62,696.84,-0.20,5041.80,1010.18,-0.03,6618.14
543900,375.60,887.68,1.00,1,1,1,312.87,-0.93,10095.76,462.40,-0.55,17160.94,409.92,-0.35,5249.09,818.80,-0.16,9067.77,1173.01,-0.03,11715.53
558900,384.38,884.17,1.00,1,1,1,630.60,-0.38,26572.34,586.35,-0.22,13976.06,803.83,-0.17,27210.22,875.42,-0.10,4812.92,1335.87,-0.03,10857.72
594700,404.64,881.04,1.00,1,1,1,572.47,-0.15,4136.39,1025.90,-0.07,12727.46,1220.36,-0.08,11871.16,1158.13,-0.06,7982.69,1420.40,-0.03,2361.29
608800,435.45,880.59,1.00,1,1,1,2185.55,-0.01,114930.34,2345.88,-0.02,93774.33,1321.12,-0.03,8658.62,1585.53,-0.03,30506.72,1538.97,-0.03,8414.09
623700,472.65,879.65,1.00,2,2,2,2497.66,-0.03,21012.77,1608.00,-0.00,49576.80,2075.80,0.01,50798.14,1865.12,-0.00,18981.78,1464.40,-0.03,5010.21
660400,518.42,880.38,1.00,2,2,2,1247.28,0.02,34127.73,1923.35,0.03,8695.78,2356.50,0.02,7700.31,2094.55,0.01,6303.96,1373.47,-0.02,2480.12
674800,570.90,882.15,1.00,3,3,3,3646.65,0.03,166643.27,3671.62,0.04,121437.37,2504.70,0.04,10679.07,2347.60,0.02,17623.99,1307.03,-0.02,4614.72
689800,626.28,884.69,1.00,3,3,3,3695.73,0.05,4427.78,3492.17,0.05,12228.98,3408.49,0.04,60257.81,2419.18,0.02,4772.25,1238.95,-0.02,4569.27
704900,675.88,887.46,1.00,1,1,1,3290.04,0.06,26964.45,3154.87,0.04,22371.23,2634.98,0.04,51237.92,2105.69,0.02,20762.49,1190.66,-0.01,3243.88
720300,722.41,889.01,1.00,1,1,1,3022.73,0.03,17952.07,2072.10,0.02,70419.36,2485.90,0.02,9913.74,2020.71,0.02,5522.92,1165.33,-0.00,1725.39
750700,770.76,889.47,1.00,1,1,1,1590.75,0.01,47135.67,2039.41,0.00,1693.95,1718.72,0.00,25270.83,1493.39,0.02,17349.37,1301.33,0.01,4489.94
765900,815.40,889.18,1.00,1,1,1,2936.91,-0.01,88592.19,1291.61,-0.03,49305.32,1013.53,-0.03,46466.79,884.40,0.00,40077.54,1386.62,0.01,5617.94
788500,819.57,888.07,1.00,1,1,1,190.63,-0.26,121806.41,266.00,-2.90,68570.63,192.84,-0.30,36710.92,496.20,-0.04,17221.52,1505.57,0.02,5281.99
802700,805.90,886.86,1.00,1,1,1,966.57,-3.05,80813.87,1297.18,-3.08,72974.90,640.34,-3.06,57924.66,243.27,-0.14,17982.11,1732.85,0.02,16005.84
816800,782.94,885.68,1.00,1,1,1,1630.55,-3.09,47205.81,962.85,-3.10,23791.76,911.76,-3.09,19292.38,193.60,-0.19,3611.00,1682.34,0.02,3584.27
845900,764.33,885.18,1.00,1,1,1,639.43,-3.11,34069.57,666.20,-3.10,10194.09,558.14,-3.07,12162.35,281.95,-0.10,3127.11,1736.36,0.02,1859.68
861200,753.38,884.45,1.00,1,1,1,717.47,-3.08,5383.43,90.19,-2.61,38428.02,195.96,-0.10,49138.73,795.81,-0.00,33714.88,1708.95,0.01,1842.07
882500,761.48,883.52,1.00,1,1,1,382.84,-0.12,51465.47,1247.58,-0.01,62250.43,1384.48,-0.00,55854.28,1438.40,0.01,30178.85,1738.37,0.01,1382.55
897500,798.67,884.07,1.00,2,2,2,2479.27,0.01,140016.23,3169.09,0.02,128145.65,2658.76,0.02,84987.60,1847.35,0.02,27269.57,1761.43,0.01,1584.99
912500,856.54,885.14,1.00,2,2,2,3858.93,0.02,91980.34,4350.12,0.03,78783.55,4123.95,0.02,97687.81,2626.62,0.02,51951.70,1654.63,0.01,7121.72
927800,930.42,887.79,1.00,2,2,2,4832.01,0.04,63788.71,5101.77,0.03,49128.43,3476.03,0.03,42348.28,2866.89,0.02,15703.93,1698.24,0.01,2855.55
941800,1005.96,889.52,1.00,3,3,3,5396.81,0.02,40619.58,2962.77,0.02,152797.80,3626.04,0.03,10720.11,3280.16,0.02,29523.06,1705.72,0.01,630.84
979400,1083.26,891.21,1.00,1,1,1,2056.48,0.02,88838.54,2817.86,0.02,3855.04,3009.50,0.02,16403.54,3219.10,0.02,1655.50,1769.15,0.01,1687.15
995300,1156.67,893.05,1.00,1,1,1,4618.35,0.03,161125.26,3062.38,0.02,15392.85,2771.14,0.02,14991.57,2927.47,0.02,18341.66,1900.47,0.01,8259.19
1025000,1222.88,893.99,1.00,1,1,1,2229.46,0.01,80442.91,2715.37,0.02,11686.33,2943.85,0.01,5891.89,2496.98,0.01,14499.98,1842.21,0.01,1968.84
1040100,1278.30,895.17,1.00,1,1,1,3671.17,0.02,95486.95,2768.84,-0.00,5243.25,2161.70,0.00,51809.56,1929.89,0.00,37583.14,1851.41,0.01,668.75
1055800,1308.16,893.66,1.00,1,1,1,1904.19,-0.05,113196.16,1355.06,-0.03,90125.99,1669.91,-0.01,31348.48,1680.02,-0.01,15962.55,1607.40,0.02,15547.11
1070800,1319.88,893.76,1.00,1,1,1,781.29,0.01,75013.06,518.68,-0.02,55766.94,710.19,-0.09,64261.65,1131.87,-0.02,36582.00,1285.48,0.02,21462.10
1085200,1323.41,893.40,1.00,1,1,1,246.25,-0.10,37301.60,185.80,-0.43,24716.57,221.07,-0.28,34353.50,658.82,-0.04,32868.77,886.63,0.02,27698.10
1107700,1326.12,890.93,1.00,1,1,1,163.34,-0.74,6702.29,107.33,-1.90,9115.15,90.08,-2.24,11948.13,265.29,-0.13,17568.48,448.83,0.02,19457.74
1121600,1322.16,889.70,1.00,1,1,1,298.65,-2.84,29254.98,352.02,-2.96,22622.52,98.41,-2.70,3156.69,127.43,-3.04,28089.60,4.00,2.16,32446.31
1136300,1316.22,889.13,1.00,1,1,1,405.95,-3.05,8749.95,133.36,3.09,15245.72,142.78,-3.07,4248.03,481.53,-3.12,24121.63,461.22,-3.14,31225.59
1166700,1316.15,889.99,1.00,1,1,1,28.33,1.65,13402.07,27.89,2.11,3954.27,402.47,3.08,8605.37,842.39,-3.14,11875.57,903.51,-3.14,14549.17
1181800,1315.57,890.22,1.00,1,1,1,41.52,2.76,2555.35,737.78,3.07,47830.26,823.76,3.10,27910.64,1325.38,3.14,31996.87,1217.10,-3.13,20769.60
1202900,1289.51,891.82,1.00,2,2,2,1237.49,3.08,56782.39,1842.91,3.11,52423.74,1785.93,3.12,45617.80,1629.58,3.13,14421.33,1414.11,-3.13,9336.96
1217900,1249.07,892.10,1.00,2,2,2,2696.11,3.13,97467.26,3100.12,3.13,83873.00,2686.56,3.13,60070.31,1994.33,3.13,24318.08,1494.12,-3.13,5345.97
1231800,1199.92,892.59,1.00,2,2,2,3536.12,3.13,60435.89,3763.38,-3.14,47784.53,3148.92,3.14,33306.64,2428.74,3.13,31257.80,1414.47,-3.13,5738.37
1246200,1142.56,891.91,1.00,3,3,3,3983.20,-3.13,31560.69,3187.35,-3.14,40004.99,3466.78,3.14,22076.68,2528.69,3.14,6968.91,1398.56,-3.13,1168.63
1268600,1082.62,892.17,1.00,1,1,1,2675.90,3.14,58408.88,3237.51,3.13,2779.92,2952.02,3.14,22980.51,2583.67,-3.14,2655.29,1317.26,-3.13,3631.66
1282800,1024.07,892.85,1.00,1,1,1,4123.49,3.13,101957.02,2751.66,3.13,34215.04,2422.27,3.14,37306.65,2412.48,-3.13,12095.17,1238.24,-3.14,5581.69
1311800,963.75,893.21,1.00,1,1,1,2079.96,3.14,70468.72,1915.74,-3.14,28841.00,2197.68,-3.13,7790.50,1887.78,-3.12,18102.28,1348.66,-3.14,3807.58
1341700,911.24,892.46,1.00,1,1,1,1756.67,-3.13,10890.63,1746.87,-3.11,5879.34,1709.65,-3.12,16359.83,1456.13,-3.12,14438.57,1455.73,3.14,3594.60
1364800,871.21,890.42,1.00,1,1,1,1734.85,-3.09,2915.88,1395.73,-3.07,15457.97,1013.41,-3.08,30217.37,1046.47,-3.11,17744.25,1546.15,3.14,3915.34
1380100,857.78,888.62,1.00,1,1,1,885.99,-3.01,55881.48,151.85,-2.60,82479.34,327.56,-2.91,45249.19,611.79,-3.10,28419.63,1584.57,3.14,2513.06
1409000,865.45,886.98,1.00,1,1,1,271.41,-0.21,39626.49,645.53,-0.08,26798.07,474.96,-0.12,27375.13,388.80,-3.07,7726.24,1505.29,3.13,2750.71
1422900,885.32,886.47,1.00,1,1,1,1430.22,-0.03,83774.08,1396.11,-0.01,54174.56,736.10,-0.01,19292.63,298.88,-3.13,6620.64,1460.45,3.13,3248.23
1437800,905.65,886.42,1.00,1,1,1,1364.47,-0.00,4930.50,845.37,0.05,37220.90,532.53,0.05,13925.19,349.08,3.06,3892.13,1464.50,3.13,356.81
1459400,916.15,887.89,1.00,1,1,1,490.51,0.14,40814.26,153.02,2.71,45545.80,286.08,2.85,37404.57,623.01,3.07,12682.10,1431.62,3.13,1523.02
1474900,900.50,888.79,1.00,1,1,1,1011.33,3.08,96480.17,1614.22,3.06,94929.22,1244.02,3.05,62251.30,1026.73,3.07,26047.31,1409.09,3.12,1491.30
1490000,866.91,891.92,1.00,2,2,2,2233.51,3.05,81013.31,2600.16,3.07,65315.34,2415.20,3.09,77726.46,1467.83,3.09,29246.56,1394.96,3.12,1060.48
1505000,822.42,894.22,1.00,2,2,2,2970.33,3.09,49622.75,3247.37,3.11,43726.27,2395.77,3.09,1320.48,1942.72,3.10,31674.78,1342.62,3.11,3569.35
1519500,771.17,895.06,1.00,2,2,2,3534.99,3.13,39739.45,2259.17,3.11,68152.15,2442.99,3.11,4173.93,2452.36,3.11,35190.33,1268.88,3.10,5117.03
1549800,721.26,897.37,1.00,3,3,3,1649.01,3.10,62289.55,1990.14,3.11,8879.02,2521.20,3.12,2629.56,2585.53,3.11,4395.21,1273.96,3.10,211.87
1571900,666.94,898.35,1.00,1,1,1,2458.31,3.12,36710.69,2842.00,3.12,38562.49,2479.95,3.12,1898.57,2543.12,3.11,2020.73,1272.67,3.10,170.60
1586400,617.26,899.57,1.00,1,1,1,3426.84,3.12,66807.02,3347.32,3.13,34883.10,2798.80,3.12,21993.24,2326.05,3.12,14978.75,1225.55,3.11,3284.03
1601500,567.87,899.73,1.00,1,1,1,3271.33,3.14,11316.93,2746.44,3.12,39814.55,2680.55,3.12,7853.87,1902.55,3.11,28047.59,1259.96,3.12,2416.83
1616600,534.34,901.26,1.00,1,1,1,2222.73,3.10,69851.95,2025.30,3.10,47862.04,2062.62,3.12,40922.78,1534.57,3.12,24381.14,1150.84,3.12,7246.39
1631600,506.96,902.20,1.00,1,1,1,1826.60,3.11,26450.27,1376.60,3.11,43252.56,1116.17,3.10,63115.31,1045.67,3.13,32598.56,1091.18,3.14,4063.09
1646700,492.93,902.66,1.00,1,1,1,929.58,3.11,59405.43,207.05,3.11,77454.04,277.87,3.12,55523.06,478.97,-3.12,37558.33,1030.37,3.14,4038.67
1661700,500.73,902.43,1.00,1,1,1,520.31,-0.03,96659.52,613.68,-0.05,54714.73,388.19,-0.08,44385.14,73.04,-2.81,27337.34,1024.77,3.13,724.12
1683800,515.67,901.59,1.00,1,1,1,677.13,-0.06,7130.31,859.57,-0.07,11148.91,683.01,-0.08,13340.25,145.87,-0.29,9486.10,1132.82,3.11,4951.16
1699700,533.31,900.19,1.00,1,1,1,1113.29,-0.08,27461.02,740.28,-0.10,7634.73,702.80,-0.11,1762.66,218.98,-0.24,4627.56,1254.51,3.08,8049.24
1729000,548.97,898.35,1.00,1,1,1,538.06,-0.12,19656.66,568.57,-0.15,5991.82,457.30,-0.17,8468.49,104.52,-0.48,4093.99,478.97,-3.12,26548.40
1743700,558.04,896.37,1.00,1,1,1,631.32,-0.22,7463.97,182.98,-0.47,27103.01,106.60,-0.73,25255.00,261.15,-3.05,24039.24,73.04,-2.81,27895.24
1774000,556.33,894.66,1.00,1,1,1,79.73,-2.36,22363.84,390.78,-3.00,18183.72,506.50,-3.05,19297.79,789.12,3.10,17535.79,145.87,-0.29,6918.90
1789200,540.44,893.84,1.00,2,2,2,1046.95,-3.09,65080.76,1337.28,3.14,62646.48,1229.78,3.12,47916.73,1428.06,3.05,42185.52,218.98,-0.24,4840.67
1810100,508.06,894.74,1.00,2,2,2,1550.03,3.11,24549.12,2310.15,3.09,46768.85,2478.26,3.07,59879.54,506.50,-3.05,44671.01,104.52,-0.48,5739.43
1824800,458.32,898.40,1.00,3,3,3,3392.26,3.07,125526.76,3842.92,3.04,104630.34,3494.17,3.03,69637.08,1229.78,3.12,49546.55,261.15,-3.05,24039.24
1840400,392.18,906.17,1.00,3,3,3,4269.28,3.02,57196.71,4906.20,3.00,69370.49,3842.92,3.04,22610.79,2478.26,3.07,80223.22,789.12,3.10,34059.91
1854800,312.68,919.63,1.00,1,1,1,5599.48,2.97,93979.84,5599.48,2.97,48869.52,4906.20,3.00,75151.36,3494.17,3.03,71087.86,1428.06,3.05,44529.16
