@RELATION gaze_labels

%@METADATA width_px 1920
%@METADATA height_px 1080
%@METADATA width_mm 540.00
%@METADATA height_mm 254.00
%@METADATA distance_mm 620.00


@ATTRIBUTE time INTEGER
@ATTRIBUTE x NUMERIC
@ATTRIBUTE y NUMERIC
@ATTRIBUTE confidence NUMERIC
@ATTRIBUTE handlabeller1 INTEGER
@ATTRIBUTE handlabeller2 INTEGER
@ATTRIBUTE handlabeller_final INTEGER
@ATTRIBUTE speed_1 numeric
@ATTRIBUTE direction_1 numeric
@ATTRIBUTE acceleration_1 numeric
@ATTRIBUTE speed_2 numeric
@ATTRIBUTE direction_2 numeric
@ATTRIBUTE acceleration_2 numeric
@ATTRIBUTE speed_4 numeric
@ATTRIBUTE direction_4 numeric
@ATTRIBUTE acceleration_4 numeric
@ATTRIBUTE speed_8 numeric
@ATTRIBUTE direction_8 numeric
@ATTRIBUTE acceleration_8 numeric
@ATTRIBUTE speed_16 numeric
@ATTRIBUTE direction_16 numeric
@ATTRIBUTE acceleration_16 numeric

%The number after speed, direction denotes the step size that was used for the calculation.
%Acceleration was calculated between two adjacent samples of the already low pass filtered velocity

@DATA
0,172.92,946.87,1.00,1,1,1,0.00,0.00,0.00,3277.52,-0.10,0.00,2064.18,-0.09,0.00,481.15,-0.02,0.00,41.56,2.91,0.00
14000,218.56,942.08,1.00,1,1,1,3277.52,-0.10,234108.86,2064.18,-0.09,86719.31,305.88,0.14,126247.54,303.81,2.88,55687.37,283.68,3.08,17339.96
29200,232.96,941.55,1.00,1,1,1,948.27,-0.04,153440.34,305.88,0.14,116280.63,481.15,-0.02,12203.60,566.93,2.99,17550.45,262.36,-3.11,2240.43
44600,227.83,943.37,1.00,1,1,1,353.74,2.80,83774.05,394.39,2.92,44765.40,303.81,2.88,50624.89,613.99,3.03,3459.36,107.87,-2.59,11473.52
82300,212.52,946.07,1.00,1,1,1,412.49,2.97,2297.73,650.92,2.99,6860.02,566.93,2.99,7076.04,41.56,2.91,15191.70,274.10,-0.52,9001.75
96800,194.25,948.54,1.00,1,1,1,1271.30,3.01,59261.90,774.83,3.03,8743.76,613.99,3.03,3674.08,283.68,3.08,16742.03,601.86,-0.31,23334.20
126700,178.34,950.02,1.00,1,1,1,534.32,3.05,24675.25,572.83,3.08,6876.70,609.76,3.09,1275.84,262.36,-3.11,1138.95,977.91,-0.27,12619.92
142000,168.40,950.03,1.00,1,1,1,649.78,3.14,8330.77,383.36,-3.00,13780.02,275.62,-2.97,22616.25,107.87,-2.59,11548.51,1108.30,-0.26,8576.52
157800,166.53,948.35,1.00,1,1,1,158.62,-2.41,34329.10,233.79,-0.77,35316.17,213.55,-0.74,27889.25,274.10,-0.52,21478.86,596.78,-0.26,32374.61
172900,173.58,944.99,1.00,1,1,1,516.75,-0.45,39457.53,636.55,-0.35,28759.13,682.29,-0.35,32537.55,601.86,-0.31,22407.02,512.94,-0.30,5772.68
195800,189.28,940.11,1.00,1,1,1,717.94,-0.30,9585.82,1067.70,-0.27,19011.16,1218.06,-0.27,23616.89,977.91,-0.27,16477.54,560.01,-0.30,2055.47
210800,212.53,934.03,1.00,2,2,2,1602.33,-0.26,59047.64,1953.44,-0.23,59177.78,1550.79,-0.22,22558.76,1108.30,-0.26,8748.05,684.00,-0.27,8355.79
226000,246.67,926.44,1.00,2,2,2,2300.58,-0.22,46179.90,2156.01,-0.19,14591.69,1879.65,-0.22,21645.63,1301.67,-0.26,12726.68,896.68,-0.24,14066.20
241200,276.89,921.66,1.00,3,3,3,2013.48,-0.16,20807.31,1806.74,-0.20,22997.10,1502.00,-0.22,24857.64,1350.95,-0.25,3310.82,1066.42,-0.22,11282.61
256300,300.35,915.73,1.00,3,3,3,1602.31,-0.25,29287.09,1059.15,-0.27,49949.63,1378.14,-0.25,8493.24,1514.62,-0.23,10919.33,1219.21,-0.20,10205.95
285900,322.53,909.06,1.00,1,1,1,782.45,-0.29,27748.19,1088.85,-0.30,1557.27,1184.57,-0.28,6663.45,1574.74,-0.21,2320.08,1273.38,-0.18,2019.70
300700,346.51,901.34,1.00,1,1,1,1701.79,-0.31,62136.31,1336.55,-0.28,16814.84,1242.45,-0.25,4306.37,1543.86,-0.19,2899.34,1388.93,-0.16,7926.06
322800,369.90,895.33,1.00,1,1,1,1092.96,-0.25,27794.43,1431.74,-0.21,6269.82,1656.84,-0.20,19058.33,1546.87,-0.18,969.35,1511.69,-0.15,5634.47
337300,397.76,890.45,1.00,1,1,1,1950.85,-0.17,59689.56,2063.19,-0.14,44398.91,1734.71,-0.15,8428.34,1422.34,-0.16,8854.41,1565.14,-0.13,4101.27
352600,430.81,886.96,1.00,1,1,1,2171.97,-0.11,17122.12,2114.63,-0.09,6859.16,2059.83,-0.10,21891.83,1423.43,-0.13,3054.74,1536.09,-0.12,2475.75
367000,460.30,884.64,1.00,1,1,1,2054.08,-0.08,9054.21,2058.76,-0.07,5143.75,1626.09,-0.08,30259.95,1473.69,-0.09,4671.00,1456.49,-0.11,5656.33
382000,491.19,882.77,1.00,2,2,2,2063.43,-0.06,2589.32,1310.19,-0.07,49905.11,1269.59,-0.06,23863.82,1677.05,-0.08,13711.99,1372.88,-0.10,5598.07
412900,520.30,880.58,1.00,3,3,3,944.59,-0.08,36214.19,928.01,-0.05,12390.31,1297.87,-0.05,1002.35,1618.17,-0.06,2167.52,1283.16,-0.09,2960.36
449900,554.13,879.82,1.00,1,1,1,914.74,-0.02,1544.84,1287.19,-0.03,9720.11,1443.87,-0.05,3947.30,1515.47,-0.04,2862.41,1223.26,-0.07,1691.79
463800,585.79,878.60,1.00,1,1,1,2278.75,-0.04,98143.98,2655.92,-0.05,98520.54,1612.59,-0.04,12243.17,1395.90,-0.03,8656.62,1141.27,-0.05,6102.76
478800,630.78,875.68,1.00,1,1,1,3005.87,-0.06,48695.25,1985.67,-0.04,44730.06,1815.39,-0.02,13597.82,1242.05,-0.02,10275.43,974.07,-0.05,11155.15
508200,673.88,875.03,1.00,1,1,1,1466.09,-0.02,52493.72,1340.57,0.01,22126.48,1513.56,-0.01,10288.20,1154.86,-0.00,3088.03,862.63,-0.04,3799.26
529800,699.14,876.42,1.00,1,1,1,1171.55,0.06,14284.80,944.42,0.06,18536.39,1000.31,0.03,23855.59,1001.49,0.01,7135.21,717.77,-0.04,6707.33
544800,708.38,877.19,1.00,1,1,1,617.52,0.08,36968.67,407.74,0.11,35834.20,490.90,0.16,34575.31,771.35,0.03,15387.20,601.08,-0.04,7779.19
559000,710.98,877.74,1.00,1,1,1,187.30,0.21,30446.87,153.32,2.36,36451.62,81.22,1.69,34766.10,284.55,0.11,34375.10,485.08,-0.04,8170.69
573100,705.31,880.25,1.00,1,1,1,440.06,2.72,42689.81,371.16,2.84,17440.52,187.53,2.71,11408.37,45.38,2.37,22371.48,407.94,-0.04,5471.16
594100,698.54,881.61,1.00,1,1,1,328.65,2.94,6625.49,226.16,2.90,6948.55,456.90,3.06,13727.45,257.11,3.09,10709.32,343.81,-0.05,3057.04
608700,697.50,882.21,1.00,2,2,2,82.40,2.62,17253.14,538.86,-3.10,22506.94,456.72,-3.12,3081.40,373.07,-3.14,8022.57,307.13,-0.04,2522.65
636900,675.50,880.58,1.00,1,1,1,782.18,-3.07,25371.41,653.61,-3.05,4191.88,455.58,-3.05,1117.79,433.36,-3.12,2169.58,304.22,0.00,475.96
652200,669.19,879.58,1.00,1,1,1,417.75,-2.98,24018.63,363.02,-2.98,19112.34,536.29,-3.03,5354.96,411.02,-3.06,2138.63,438.44,0.02,8780.81
674800,661.92,878.39,1.00,1,1,1,325.98,-2.98,4061.50,401.52,-2.98,1703.49,413.12,-2.98,5529.89,339.80,-3.00,3300.15,789.64,0.01,15540.28
689900,654.24,877.16,1.00,1,1,1,514.59,-2.98,12491.00,475.99,-2.98,4932.26,360.17,-2.96,3536.93,180.10,-2.85,10837.01,1441.52,0.01,43171.00
705000,647.73,876.06,1.00,1,1,1,437.41,-2.97,5118.40,307.92,-2.93,11196.72,185.27,-2.81,11856.86,331.38,-0.11,33279.71,433.36,-3.12,124161.56
719600,645.30,875.25,1.00,1,1,1,175.50,-2.82,18176.68,140.45,-0.30,29862.80,324.57,-0.11,34152.20,895.15,-0.02,38759.04,411.02,-3.06,2241.16
733700,651.58,874.88,1.00,1,1,1,446.46,-0.06,43464.78,954.91,-0.01,58252.97,1097.26,-0.00,54989.09,1767.77,0.00,61914.88,339.80,-3.00,5289.61
748900,673.28,875.07,1.00,2,2,2,1427.30,0.01,64627.37,1850.56,0.02,58954.91,1933.60,0.01,55043.55,3147.90,0.01,90803.30,180.10,-2.85,10765.71
770400,719.49,875.90,1.00,2,2,2,2149.82,0.02,33614.52,2487.32,0.02,29618.74,2957.90,0.02,47642.85,1097.26,-0.00,95384.90,331.38,-0.11,23373.19
800700,802.10,877.43,1.00,3,3,3,2726.80,0.02,19042.27,3640.91,0.02,38072.56,4897.33,0.02,64007.71,1933.60,0.01,27612.61,895.15,-0.02,18675.97
829900,936.09,879.63,1.00,1,1,1,4589.47,0.02,63790.42,7767.19,0.01,141311.43,3640.91,0.02,43028.35,2957.90,0.02,35079.50,1767.77,0.00,29897.25
844200,1139.93,882.43,1.00,1,1,1,14255.98,0.01,675981.76,14255.98,0.01,453762.47,7767.19,0.01,288552.00,4897.33,0.02,135624.72,3147.90,0.01,96518.19
