@RELATION gaze_labels

%@METADATA width_px 1920
%@METADATA height_px 1080
%@METADATA width_mm 540.00
%@METADATA height_mm 254.00
%@METADATA distance_mm 620.00


@ATTRIBUTE time INTEGER
@ATTRIBUTE x NUMERIC
@ATTRIBUTE y NUMERIC
@ATTRIBUTE confidence NUMERIC
@ATTRIBUTE handlabeller1 INTEGER
@ATTRIBUTE handlabeller2 INTEGER
@ATTRIBUTE handlabeller_final INTEGER
@ATTRIBUTE speed_1 numeric
@ATTRIBUTE direction_1 numeric
@ATTRIBUTE acceleration_1 numeric
@ATTRIBUTE speed_2 numeric
@ATTRIBUTE direction_2 numeric
@ATTRIBUTE acceleration_2 numeric
@ATTRIBUTE speed_4 numeric
@ATTRIBUTE direction_4 numeric
@ATTRIBUTE acceleration_4 numeric
@ATTRIBUTE speed_8 numeric
@ATTRIBUTE direction_8 numeric
@ATTRIBUTE acceleration_8 numeric
@ATTRIBUTE speed_16 numeric
@ATTRIBUTE direction_16 numeric
@ATTRIBUTE acceleration_16 numeric

%The number after speed, direction denotes the step size that was used for the calculation.
%Acceleration was calculated between two adjacent samples of the already low pass filtered velocity

@DATA
0,198.46,937.61,1.00,1,1,1,0.00,0.00,0.00,327.18,-2.53,0.00,201.65,-2.85,0.00,271.93,-3.11,0.00,131.30,-2.88,0.00
14900,194.47,934.80,1.00,1,1,1,327.18,-2.53,21958.23,201.65,-2.85,10038.17,238.07,3.07,5852.03,228.70,3.02,3889.24,64.19,-2.38,5438.76
51100,188.60,934.61,1.00,1,1,1,162.29,-3.11,5832.36,238.07,3.07,2408.71,271.93,-3.11,1183.36,235.87,3.01,217.82,120.77,-0.82,3756.70
66500,182.21,935.64,1.00,1,1,1,419.93,2.98,17046.01,414.30,2.96,11677.75,228.70,3.02,3762.97,128.86,-3.10,7235.00,288.30,-0.51,11523.49
80800,176.50,936.84,1.00,1,1,1,408.48,2.93,1578.47,218.86,2.96,13667.74,235.87,3.01,551.39,131.30,-2.88,1988.34,414.05,-0.42,9014.87
111900,172.44,937.45,1.00,1,1,1,131.79,2.99,8906.71,121.91,3.11,3222.64,128.86,-3.10,3582.60,64.19,-2.38,2605.71,647.26,-0.36,7568.75
126900,170.88,936.99,1.00,1,1,1,108.76,-2.86,3774.92,73.95,-1.57,9642.90,59.64,-1.33,10141.87,120.77,-0.82,9066.17,898.80,-0.31,16995.69
142300,172.46,935.20,1.00,1,1,1,154.88,-0.85,14532.15,227.52,-0.63,12529.63,263.22,-0.60,14439.68,288.30,-0.51,11523.49,1186.65,-0.26,19036.45
163900,177.67,932.02,1.00,1,1,1,282.90,-0.55,6601.42,452.32,-0.49,10624.28,496.98,-0.47,11039.78,414.05,-0.42,5968.18,613.01,-0.26,26559.51
178400,186.88,927.55,1.00,1,1,1,705.89,-0.45,29319.86,841.04,-0.42,26980.86,748.80,-0.40,17596.02,647.26,-0.36,16233.67,718.94,-0.22,7561.99
193300,200.29,922.03,1.00,2,2,2,973.32,-0.39,18266.69,1108.44,-0.36,18284.51,835.39,-0.36,6209.20,898.80,-0.31,17109.75,892.47,-0.19,11733.49
208400,217.98,915.77,1.00,2,2,2,1242.47,-0.34,18208.41,833.03,-0.33,18375.45,960.68,-0.31,8823.86,1186.65,-0.26,19414.66,997.06,-0.18,7005.23
238600,236.02,909.90,1.00,3,3,3,628.42,-0.31,20346.79,879.02,-0.28,2100.32,1228.33,-0.26,9083.63,1456.58,-0.21,9137.62,1117.50,-0.16,4022.17
261800,263.14,902.98,1.00,1,1,1,1206.24,-0.25,25022.81,1711.13,-0.21,36012.78,1550.16,-0.20,14311.84,1588.87,-0.18,6009.57,1280.31,-0.14,7099.80
276000,298.55,896.27,1.00,1,1,1,2538.20,-0.19,94117.18,2824.72,-0.15,79041.54,2166.41,-0.15,43887.94,1691.48,-0.15,8005.27,1384.18,-0.13,7462.81
290100,342.17,890.96,1.00,1,1,1,3116.36,-0.12,43083.77,2754.64,-0.09,12562.42,2500.55,-0.11,24375.29,1692.87,-0.13,3298.18,1554.02,-0.11,12134.81
305400,379.19,888.78,1.00,2,2,2,2423.84,-0.06,46619.11,2202.19,-0.07,36375.88,2356.69,-0.08,10923.44,1972.99,-0.10,18584.96,1660.45,-0.10,7077.30
320400,408.75,886.62,1.00,2,2,2,1976.22,-0.07,29913.43,1962.23,-0.05,16060.01,1878.13,-0.05,32092.12,1979.34,-0.07,4383.55,1825.78,-0.08,11235.47
335000,437.18,885.59,1.00,3,3,3,1948.54,-0.04,5328.87,1607.23,-0.04,24412.07,1783.43,-0.04,6677.10,1869.83,-0.04,8073.20,1947.89,-0.06,8620.84
356600,466.90,884.46,1.00,1,1,1,1376.53,-0.04,26482.08,1639.21,-0.02,1759.12,1609.62,-0.01,8304.21,1919.04,-0.03,2576.56,2047.26,-0.05,4765.87
371600,497.16,884.12,1.00,1,1,1,2017.82,-0.01,42857.96,1612.16,0.01,3716.28,1574.39,-0.01,2357.58,1834.77,-0.03,5618.10,2169.33,-0.04,8273.23
402100,540.25,884.87,1.00,1,1,1,1412.89,0.02,19895.42,1535.06,-0.00,2564.23,1949.90,-0.01,12312.03,2025.84,-0.02,6308.49,2285.92,-0.03,3891.46
431700,589.42,883.86,1.00,2,2,2,1661.50,-0.02,8620.70,2295.69,-0.03,25736.27,1865.39,-0.02,2939.39,2161.66,-0.01,4619.61,2316.35,-0.02,1295.99
446600,642.37,882.29,1.00,2,2,2,3555.64,-0.03,127133.15,2253.82,-0.04,3558.39,2380.44,-0.02,34570.90,2362.55,-0.01,13500.35,2142.38,-0.01,11755.53
482900,704.72,879.30,1.00,3,3,3,1719.59,-0.05,50594.94,2453.87,-0.02,5733.37,2868.86,-0.01,13478.00,2321.43,-0.00,1136.55,2039.89,-0.00,2854.50
498000,768.49,880.38,1.00,1,1,1,4223.45,0.02,166219.24,3954.77,0.02,99694.18,2826.29,0.00,3300.24,2555.82,-0.01,15532.62,1908.68,0.00,8748.26
512000,819.78,881.85,1.00,1,1,1,3665.12,0.03,40020.34,3494.45,0.02,32885.72,3102.34,0.02,20004.38,2794.68,-0.00,17068.35,1685.36,0.01,15973.87
526700,868.76,882.37,1.00,1,1,1,3332.18,0.01,23059.54,2413.42,0.01,73572.89,2817.17,0.01,19466.78,2360.25,0.00,29579.42,1486.24,0.02,13566.49
548000,906.66,882.60,1.00,1,1,1,1779.36,0.01,72904.10,2274.64,-0.01,6710.64,2703.52,0.00,5432.08,2301.04,0.02,3452.70,1253.14,0.02,10946.54
562500,950.19,881.88,1.00,1,1,1,3002.53,-0.02,84432.53,3060.14,-0.01,54173.03,1897.69,0.01,55579.57,1761.55,0.03,37250.80,1052.63,0.02,13830.73
577300,996.32,881.92,1.00,1,1,1,3116.81,0.00,8527.94,1597.40,0.02,98909.38,1606.52,0.03,19872.38,1117.45,0.06,43571.67,810.59,0.03,16365.17
607400,1021.90,883.20,1.00,1,1,1,850.96,0.05,75323.39,681.69,0.13,30687.50,863.97,0.11,24853.79,480.97,0.14,21255.02,481.52,0.06,10950.07
623100,1027.26,886.11,1.00,1,1,1,388.54,0.50,33668.56,286.41,2.45,57357.15,177.95,2.46,63528.96,108.68,2.44,35601.31,139.53,0.28,22083.01
638100,1015.14,888.81,1.00,1,1,1,827.85,2.92,76616.81,1156.24,3.02,61916.66,1247.09,3.03,73424.71,658.03,3.05,38151.89,213.72,2.98,22999.76
660000,984.90,891.20,1.00,1,1,1,1385.12,3.06,26353.12,2105.73,3.09,43638.10,2007.07,3.09,35019.21,1235.84,3.09,26449.22,487.94,3.08,12607.40
674300,939.01,892.63,1.00,2,2,2,3210.79,3.11,127864.71,3091.47,3.13,69226.62,2400.51,3.13,28116.16,1790.73,3.11,38845.18,701.62,3.09,14953.50
689100,894.95,892.49,1.00,2,2,2,2977.05,-3.14,17319.09,2767.40,-3.11,23346.22,2781.75,-3.14,25924.97,1922.33,3.13,9095.82,979.36,3.10,18776.01
703700,857.67,890.46,1.00,3,3,3,2556.71,-3.09,30390.33,2477.68,-3.11,19864.09,2346.82,-3.13,29825.50,1908.31,3.13,1375.15,1261.47,3.11,19333.31
718600,821.89,890.18,1.00,3,3,3,2401.58,-3.13,12991.26,2011.15,-3.14,31636.73,1855.58,-3.13,32969.24,2005.28,3.14,6551.05,1559.85,3.12,20046.01
740500,783.66,890.35,1.00,1,1,1,1745.58,3.14,29976.67,1504.41,3.14,23140.06,1575.80,3.14,12855.90,1707.43,3.14,13603.44,1841.19,3.12,12853.35
770800,743.36,890.30,1.00,1,1,1,1330.11,-3.14,13714.82,1310.15,3.13,6420.45,1539.18,3.13,1248.10,1708.13,3.13,263.61,1922.50,3.13,2701.26
800800,704.66,891.07,1.00,1,1,1,1290.14,3.12,1614.51,1579.29,3.12,8984.72,1309.83,3.11,7685.91,1734.70,3.13,943.14,1936.25,3.14,677.79
816200,671.67,891.69,1.00,1,1,1,2142.58,3.12,55353.53,1310.02,3.09,17717.64,1577.45,3.11,17394.37,1814.07,3.13,5181.05,1783.51,-3.14,9958.05
846800,644.48,894.07,1.00,2,2,2,892.18,3.05,40980.81,1576.01,3.09,8692.39,1919.92,3.12,11203.15,1880.27,3.13,2166.08,1463.75,-3.13,10456.28
862300,599.11,895.32,1.00,3,3,3,2928.01,3.11,131492.86,2670.81,3.13,70816.66,2138.08,3.13,14208.52,1922.66,3.13,2747.99,982.52,-3.13,31050.98
884200,544.60,895.22,1.00,3,3,3,2489.27,-3.14,20359.05,2846.68,-3.13,8746.66,2795.46,-3.14,30067.78,1968.34,3.14,2214.78,480.15,-3.12,22939.89
899000,494.65,893.65,1.00,1,1,1,3376.32,-3.11,60216.95,2957.74,-3.12,7636.09,2404.61,-3.13,26430.26,1550.90,-3.13,28230.76,95.43,-0.07,38866.21
913100,459.14,893.24,1.00,1,1,1,2518.67,-3.13,60965.39,1845.32,3.14,78990.24,2039.34,-3.11,26060.23,1148.36,-3.10,28684.53,707.02,-0.01,43393.61
928000,441.14,893.66,1.00,1,1,1,1208.62,3.12,88018.44,1136.70,-3.10,47737.10,817.32,-3.07,82085.98,135.45,-2.74,68667.46,1326.50,-0.00,41577.33
942500,425.75,891.82,1.00,1,1,1,1068.60,-3.02,14734.18,99.77,-1.68,77687.09,495.62,-0.15,90063.69,1155.05,-0.05,88147.10,1721.47,-0.00,27239.31
965100,440.75,889.98,1.00,2,2,2,668.74,-0.12,76345.05,1774.39,-0.05,78871.19,1731.08,-0.04,54823.62,2456.05,-0.02,57620.26,1761.32,-0.00,1784.30
979800,491.85,888.45,1.00,2,2,2,3477.63,-0.03,191321.64,3206.93,-0.02,97602.16,3471.67,-0.02,118498.44,3769.89,-0.01,89393.64,1270.24,-0.02,33472.82
1008800,580.87,887.50,1.00,2,2,2,3069.92,-0.01,14226.50,4945.19,-0.01,59963.61,5165.37,-0.01,58425.97,4824.84,-0.00,36379.79,135.45,-2.74,48086.32
1022800,704.49,887.31,1.00,3,3,3,8829.81,-0.00,411434.04,7536.58,0.00,185122.77,6535.08,0.00,97869.26,4958.90,-0.00,9655.02,1155.05,-0.05,91295.21
1044900,852.94,887.86,1.00,1,1,1,6717.39,0.00,95602.55,8429.06,0.01,40411.15,8660.87,0.00,96197.72,4980.49,-0.00,988.66,2456.05,-0.02,58923.88
1058900,1008.77,888.96,1.00,1,1,1,11131.09,0.01,315271.42,10055.70,0.01,116199.13,6430.22,0.01,159334.56,3284.44,-0.01,121160.05,3769.89,-0.01,93863.33
1074000,1145.55,890.15,1.00,1,1,1,9058.66,0.01,137251.84,4830.27,0.01,346055.08,4779.61,0.00,109314.99,8660.87,0.00,356078.89,4824.84,-0.00,69868.47
1104000,1226.61,890.67,1.00,1,1,1,2701.99,0.01,211889.31,1314.06,-0.01,117220.26,103.95,-0.52,156331.73,6430.22,0.01,74356.13,4958.90,-0.00,4505.68
1118300,1203.76,889.39,1.00,1,1,1,1600.41,-3.09,300781.08,5950.89,-3.11,507975.39,1314.06,-0.01,85612.71,4779.61,0.00,115430.51,4980.49,-0.00,1527.93
1139400,1016.03,884.80,1.00,1,1,1,8899.80,-3.12,345988.06,8899.80,-3.12,139763.54,5950.89,-3.11,344267.68,103.95,-0.52,222272.60,3284.44,-0.01,80390.56
