@RELATION gaze_labels

%@METADATA width_px 1920
%@METADATA height_px 1080
%@METADATA width_mm 540.00
%@METADATA height_mm 254.00
%@METADATA distance_mm 620.00


@ATTRIBUTE time INTEGER
@ATTRIBUTE x NUMERIC
@ATTRIBUTE y NUMERIC
@ATTRIBUTE confidence NUMERIC
@ATTRIBUTE handlabeller1 INTEGER
@ATTRIBUTE handlabeller2 INTEGER
@ATTRIBUTE handlabeller_final INTEGER
@ATTRIBUTE speed_1 numeric
@ATTRIBUTE direction_1 numeric
@ATTRIBUTE acceleration_1 numeric
@ATTRIBUTE speed_2 numeric
@ATTRIBUTE direction_2 numeric
@ATTRIBUTE acceleration_2 numeric
@ATTRIBUTE speed_4 numeric
@ATTRIBUTE direction_4 numeric
@ATTRIBUTE acceleration_4 numeric
@ATTRIBUTE speed_8 numeric
@ATTRIBUTE direction_8 numeric
@ATTRIBUTE acceleration_8 numeric
@ATTRIBUTE speed_16 numeric
@ATTRIBUTE direction_16 numeric
@ATTRIBUTE acceleration_16 numeric

%The number after speed, direction denotes the step size that was used for the calculation.
%Acceleration was calculated between two adjacent samples of the already low pass filtered velocity

@DATA
0,137.69,944.84,1.00,1,1,1,0.00,0.00,0.00,2123.14,-0.25,0.00,1626.44,-0.24,0.00,481.76,-0.20,0.00,76.58,-0.30,0.00
21700,182.37,933.60,1.00,1,1,1,2123.14,-0.25,97840.76,1626.44,-0.24,22908.88,187.75,-0.09,66409.08,314.00,2.83,36614.11,125.84,2.96,9312.18
36900,196.05,930.83,1.00,1,1,1,918.11,-0.20,79396.77,187.75,-0.09,94807.71,481.76,-0.20,19481.14,668.20,2.89,23375.56,33.17,-2.98,6260.89
66700,190.79,932.88,1.00,1,1,1,189.39,2.77,37087.30,460.36,2.84,21647.02,314.00,2.83,26661.95,725.88,2.92,2068.92,296.84,-0.29,10975.61
81800,176.30,936.91,1.00,1,1,1,996.44,2.87,53523.02,1071.20,2.89,40503.03,668.20,2.89,23530.36,76.58,-0.30,53130.04,682.75,-0.22,25628.19
96300,160.11,940.89,1.00,1,1,1,1149.31,2.90,10784.67,983.53,2.92,6427.52,725.88,2.92,4252.00,125.84,2.96,13936.16,1148.57,-0.21,32137.03
111500,147.82,943.42,1.00,1,1,1,825.71,2.94,21425.73,455.22,2.98,34852.93,418.50,2.98,20343.42,33.17,-2.98,6260.89,1573.97,-0.18,28109.81
133900,143.23,943.71,1.00,1,1,1,205.28,3.08,27815.89,56.07,-1.20,21716.67,91.45,-0.72,22247.06,296.84,-0.29,14601.48,1933.45,-0.17,16062.61
148900,148.59,941.46,1.00,1,1,1,387.17,-0.40,39002.11,751.11,-0.31,47794.06,680.36,-0.30,39887.68,682.75,-0.22,25799.04,1054.78,-0.17,58578.13
164000,164.75,936.79,1.00,1,1,1,1114.53,-0.28,48428.83,1496.97,-0.26,49528.46,1422.77,-0.25,49250.73,1148.57,-0.21,30860.06,977.16,-0.17,5150.42
178500,191.41,930.10,1.00,2,2,2,1895.70,-0.25,53993.74,2078.76,-0.23,40266.23,1655.77,-0.21,16656.82,1573.97,-0.18,29466.83,936.41,-0.17,2819.08
194900,227.27,922.04,1.00,2,2,2,2240.91,-0.22,21280.40,1759.03,-0.18,20255.88,2106.14,-0.19,27547.80,1933.45,-0.17,21939.17,1052.14,-0.16,7064.66
224800,271.48,915.16,1.00,3,3,3,1496.22,-0.15,25236.60,2126.98,-0.16,12371.15,2305.13,-0.15,7230.14,2083.36,-0.17,5018.79,1078.60,-0.16,894.26
239600,321.06,906.45,1.00,3,3,3,3401.59,-0.17,128775.64,3007.42,-0.13,59784.39,2321.59,-0.14,2973.84,2089.54,-0.17,432.13,1208.34,-0.14,8825.17
260900,379.13,901.08,1.00,1,1,1,2737.78,-0.09,33295.71,2561.48,-0.11,21165.26,2579.49,-0.14,12111.04,1808.81,-0.16,13206.72,1291.82,-0.13,3952.40
276200,414.28,896.51,1.00,1,1,1,2317.03,-0.13,28175.22,2059.67,-0.15,33515.27,2071.64,-0.14,33205.69,1673.15,-0.14,9123.72,1453.01,-0.12,10598.59
290600,439.59,891.81,1.00,1,1,1,1787.74,-0.18,37544.68,1458.79,-0.23,42723.56,1261.53,-0.18,56365.02,1428.27,-0.13,17067.72,1629.50,-0.11,12377.17
305100,455.35,886.96,1.00,1,1,1,1136.67,-0.30,46297.89,735.76,-0.22,49869.89,972.28,-0.16,19996.38,1265.25,-0.09,11797.99,1781.66,-0.09,10673.03
335600,471.92,884.67,1.00,1,1,1,548.69,-0.14,19721.96,674.07,-0.06,4149.68,647.67,-0.10,10741.33,1047.88,-0.07,7151.70,1877.99,-0.07,3318.07
351400,486.50,885.08,1.00,1,1,1,922.90,0.03,24832.61,580.44,0.03,6847.09,725.75,0.02,7091.43,1072.06,-0.05,2290.56,1952.11,-0.05,5295.73
387600,502.10,885.47,1.00,1,1,1,430.97,0.02,13589.26,776.36,0.08,5492.75,891.73,0.04,4611.03,1274.28,-0.02,5647.41,1997.11,-0.04,1424.69
401900,525.59,888.10,1.00,2,2,2,1653.20,0.11,85624.61,1262.22,0.04,34050.35,1152.46,0.02,18282.40,1547.63,-0.00,19221.25,1920.62,-0.03,5596.54
431300,557.20,887.92,1.00,2,2,2,1075.21,-0.01,20364.31,1523.16,-0.01,9238.52,2035.49,0.01,30041.32,1958.56,0.01,13989.14,1714.91,-0.02,6999.86
453400,604.03,887.32,1.00,3,3,3,2119.09,-0.01,47237.11,2962.86,-0.01,65145.16,2538.59,-0.01,22823.68,2235.47,0.01,12543.34,1611.08,-0.02,4734.42
467800,665.34,886.68,1.00,1,1,1,4257.82,-0.01,148523.26,4354.39,-0.01,96638.33,3520.49,-0.00,68194.70,2641.06,0.01,28165.89,1491.17,-0.01,8351.35
482200,729.43,886.36,1.00,1,1,1,4450.99,-0.00,13518.48,4224.98,0.00,9532.31,4123.85,0.01,42084.01,2649.34,0.01,1684.93,1358.79,0.00,9249.33
496700,787.44,887.05,1.00,1,1,1,4000.82,0.01,31427.54,3901.84,0.03,23652.75,3378.13,0.02,51477.20,2496.78,0.00,10559.08,1346.15,0.01,1004.32
511900,845.26,889.99,1.00,1,1,1,3808.89,0.05,16126.00,2717.70,0.04,77926.38,2783.74,0.02,39106.85,2303.37,0.00,12731.01,1290.89,0.00,3667.39
533700,887.91,891.07,1.00,1,1,1,1957.25,0.03,84997.98,1881.75,0.01,38510.53,1664.14,0.01,51373.49,1767.52,0.00,24580.70,1349.45,-0.00,2686.21
548700,914.51,890.39,1.00,1,1,1,1773.43,-0.03,13781.02,770.45,-0.08,74442.22,967.49,-0.02,46509.98,1131.91,0.00,42374.68,1222.80,-0.00,8444.29
577100,921.23,888.24,1.00,1,1,1,248.64,-0.31,54097.74,188.61,-0.25,20602.50,324.66,-0.17,22820.98,675.01,-0.00,16088.79,1211.57,-0.00,397.23
591600,922.35,888.41,1.00,1,1,1,78.26,0.16,12560.08,331.82,-3.03,35347.18,229.04,-2.96,37629.90,263.28,-0.13,28629.34,980.56,-0.01,15945.64
607000,911.38,887.09,1.00,1,1,1,717.88,-3.02,51694.03,687.17,-3.09,23162.86,519.33,-3.11,19121.75,40.88,-1.45,16659.96,746.90,-0.01,15173.62
629600,896.27,887.09,1.00,1,1,1,668.27,-3.14,4278.49,673.33,-3.14,1549.07,574.62,-3.06,2724.11,121.18,-2.98,5576.92,485.58,-0.03,11567.01
643700,886.66,887.01,1.00,1,1,1,681.45,-3.13,1023.39,431.26,-2.99,18130.08,341.25,-3.07,16554.46,100.78,-3.09,1686.07,282.76,-0.05,14397.25
659100,883.71,885.11,1.00,1,1,1,228.14,-2.57,32665.10,82.99,-0.71,31772.62,6.34,2.65,21813.30,124.59,-2.94,1875.25,94.34,-0.18,12310.75
674000,888.58,885.37,1.00,1,1,1,327.41,0.05,36092.94,270.76,0.18,15272.79,265.09,0.02,18162.06,117.79,-2.96,473.99,30.18,-2.90,8220.57
704700,895.85,887.32,1.00,1,1,1,245.34,0.26,3287.26,400.93,0.11,4296.89,187.32,-0.04,2577.70,76.16,-2.78,1465.90,75.88,2.96,1626.55
719900,906.86,887.48,1.00,1,1,1,724.11,0.01,32226.61,131.40,-0.45,19599.86,42.40,-0.45,9830.30,58.76,-2.70,1196.65,52.68,2.12,3751.56
757400,902.10,884.33,1.00,1,1,1,152.07,-2.56,22829.35,291.07,-2.88,10668.78,132.50,-2.75,4365.70,51.08,-3.09,607.80,105.63,0.73,2912.60
771700,892.30,883.56,1.00,1,1,1,687.60,-3.06,39119.76,417.34,-3.04,9640.26,310.19,-2.98,12844.25,58.83,2.82,1511.71,282.67,0.35,13176.57
800800,884.09,882.45,1.00,1,1,1,284.77,-3.01,13868.55,336.19,-3.08,2845.88,367.85,3.13,2838.46,55.11,2.19,1213.43,530.01,0.21,8696.52
815700,877.53,882.67,1.00,1,1,1,440.11,3.11,11163.73,309.36,2.90,6690.93,179.11,2.78,13983.86,95.79,1.18,5452.04,751.30,0.13,15246.30
831300,874.92,884.68,1.00,1,1,1,211.35,2.49,18921.43,161.15,1.40,21683.21,202.38,1.08,18393.76,361.11,0.52,18683.67,987.26,0.06,15579.89
853700,878.55,888.71,1.00,2,2,2,242.00,0.84,14881.36,489.96,0.57,17865.86,582.34,0.50,19094.98,743.33,0.32,17695.06,58.83,2.82,46519.84
869200,890.57,894.68,1.00,2,2,2,865.92,0.46,41747.15,1179.86,0.37,45534.47,1108.42,0.34,34987.28,1335.90,0.22,38730.58,55.11,2.19,2278.11
884900,912.83,902.11,1.00,2,2,2,1495.05,0.32,41315.44,1890.20,0.27,46349.25,1941.88,0.24,53870.89,1719.64,0.14,25641.30,95.79,1.18,5174.23
900000,946.73,910.03,1.00,2,2,2,2305.03,0.23,54834.23,2763.38,0.18,59225.40,2709.48,0.16,52362.43,2181.66,0.06,32297.87,361.11,0.52,19302.34
914400,993.00,916.88,1.00,3,3,3,3248.72,0.15,67381.17,3585.71,0.10,59931.27,2821.76,0.07,17893.03,1941.88,0.24,30528.49,743.33,0.32,27525.66
929400,1051.63,920.44,1.00,1,1,1,3915.68,0.06,48964.73,2877.46,0.01,51182.85,3138.40,-0.02,28261.44,2709.48,0.16,52711.51,1335.90,0.22,40021.59
959100,1121.62,917.73,1.00,1,1,1,2358.42,-0.04,53408.66,2908.13,-0.10,10780.24,2877.46,0.01,9192.51,2821.76,0.07,8675.41,1719.64,0.14,13554.49
981000,1200.89,904.92,1.00,1,1,1,3666.24,-0.16,61904.86,3666.24,-0.16,35631.29,2908.13,-0.10,14619.77,3138.40,-0.02,19357.15,2181.66,0.06,22269.31
