@RELATION gaze_labels

%@METADATA width_px 1920
%@METADATA height_px 1080
%@METADATA width_mm 540.00
%@METADATA height_mm 254.00
%@METADATA distance_mm 620.00


@ATTRIBUTE time INTEGER
@ATTRIBUTE x NUMERIC
@ATTRIBUTE y NUMERIC
@ATTRIBUTE confidence NUMERIC
@ATTRIBUTE handlabeller1 INTEGER
@ATTRIBUTE handlabeller2 INTEGER
@ATTRIBUTE handlabeller_final INTEGER
@ATTRIBUTE speed_1 numeric
@ATTRIBUTE direction_1 numeric
@ATTRIBUTE acceleration_1 numeric
@ATTRIBUTE speed_2 numeric
@ATTRIBUTE direction_2 numeric
@ATTRIBUTE acceleration_2 numeric
@ATTRIBUTE speed_4 numeric
@ATTRIBUTE direction_4 numeric
@ATTRIBUTE acceleration_4 numeric
@ATTRIBUTE speed_8 numeric
@ATTRIBUTE direction_8 numeric
@ATTRIBUTE acceleration_8 numeric
@ATTRIBUTE speed_16 numeric
@ATTRIBUTE direction_16 numeric
@ATTRIBUTE acceleration_16 numeric

%The number after speed, direction denotes the step size that was used for the calculation.
%Acceleration was calculated between two adjacent samples of the already low pass filtered velocity

@DATA
0,574.19,819.07,1.00,2,2,2,0.00,0.00,0.00,2922.61,2.87,0.00,1107.77,2.85,0.00,292.17,2.76,0.00,182.26,-3.05,0.00
14400,533.60,830.17,1.00,1,1,1,2922.61,2.87,202958.96,1107.77,2.85,126072.59,84.05,0.34,81720.47,388.68,-0.22,47137.90,92.66,-1.84,12005.21
44300,527.21,833.25,1.00,1,1,1,237.07,2.69,89958.98,84.05,0.34,39357.02,292.17,2.76,12036.12,659.67,-0.33,9231.77,164.98,-2.39,3301.63
65500,537.65,831.59,1.00,1,1,1,498.73,-0.16,34387.29,730.22,-0.22,31136.91,388.68,-0.22,32018.20,434.72,-0.53,11836.07,319.76,-2.87,8926.13
79800,552.53,827.70,1.00,1,1,1,1075.52,-0.26,40646.84,959.00,-0.30,16821.64,659.67,-0.33,19302.79,182.26,-3.05,41431.25,372.55,-3.02,5192.33
94100,563.82,823.37,1.00,1,1,1,845.40,-0.37,17709.02,585.78,-0.50,27959.96,434.72,-0.53,17547.18,92.66,-1.84,12089.17,310.97,-3.14,5069.06
108300,567.21,819.76,1.00,1,1,1,349.21,-0.82,38887.89,179.13,-1.94,41597.70,184.59,-1.96,31454.45,164.98,-2.39,6952.02,43.08,-2.70,19195.22
129300,561.54,817.49,1.00,1,1,1,291.11,-2.76,25249.62,545.45,-2.99,22912.20,538.79,-2.97,22257.28,319.76,-2.87,9011.15,385.57,-0.14,20108.03
143800,548.08,816.76,1.00,1,1,1,929.05,-3.09,45500.49,1105.68,-3.14,39482.02,869.36,-3.13,24015.55,372.55,-3.02,5120.71,347.48,-0.16,2674.54
157800,530.02,817.38,1.00,1,1,1,1290.78,3.11,26755.52,1285.94,3.08,13938.63,990.99,3.09,9735.24,310.97,-3.14,5177.68,739.86,-0.17,28030.67
172100,511.76,818.90,1.00,1,1,1,1281.97,3.06,4462.78,901.29,3.04,27117.76,678.02,3.02,22288.10,43.08,-2.70,19060.99,1012.43,-0.17,19061.06
193200,498.29,820.71,1.00,2,2,2,643.76,3.01,30323.37,203.04,2.68,33874.22,128.63,2.36,27553.96,385.57,-0.14,20012.73,1106.32,-0.17,4449.72
207300,505.36,822.10,1.00,1,1,1,510.96,0.19,80815.55,919.45,0.09,77806.19,787.90,-0.03,62861.58,938.76,-0.10,39258.69,1150.87,-0.15,3483.22
221500,524.20,823.14,1.00,1,1,1,1328.59,0.06,58137.88,1974.72,-0.08,76163.91,1749.88,-0.09,67915.82,1577.62,-0.10,44990.12,1132.38,-0.14,1432.30
236200,562.24,817.39,1.00,2,2,2,2616.97,-0.15,91414.69,2416.25,-0.14,31312.98,2535.32,-0.11,53512.00,2120.35,-0.11,36927.09,1169.50,-0.14,2525.04
257600,610.55,810.78,1.00,2,2,2,2278.47,-0.14,15898.33,2993.83,-0.12,27098.79,3220.39,-0.13,32113.52,2483.02,-0.12,16964.05,1215.67,-0.14,2187.99
271600,667.42,804.41,1.00,3,3,3,4087.86,-0.11,129350.71,4221.94,-0.12,87732.79,3443.43,-0.13,15932.45,2632.42,-0.11,10674.36,1215.42,-0.13,319.02
286600,732.14,796.43,1.00,1,1,1,4347.21,-0.12,17567.14,3986.68,-0.13,16085.19,3205.97,-0.13,15857.21,2401.31,-0.13,15548.84,1272.24,-0.13,3788.35
300900,783.24,789.20,1.00,1,1,1,3608.83,-0.14,51871.49,2397.28,-0.15,111226.62,2727.39,-0.12,33543.41,2239.43,-0.13,11388.96,1309.18,-0.14,2584.02
323000,818.42,783.38,1.00,1,1,1,1613.59,-0.16,90317.62,1717.00,-0.10,31113.56,1730.60,-0.13,45107.77,1955.77,-0.14,12838.73,1442.61,-0.13,6038.33
337400,845.59,782.90,1.00,1,1,1,1887.08,-0.02,25934.96,1169.10,-0.09,38078.13,1258.62,-0.15,32887.08,1439.89,-0.15,35854.15,1576.38,-0.13,9292.13
366100,868.62,779.08,1.00,1,1,1,813.53,-0.16,37934.11,873.93,-0.24,11631.62,914.47,-0.16,11993.60,1024.10,-0.17,14522.65,1600.40,-0.14,934.01
380300,882.01,773.99,1.00,1,1,1,1008.43,-0.36,18700.54,617.20,-0.33,18656.66,524.31,-0.26,27947.46,675.68,-0.20,24585.21,1586.13,-0.13,1162.91
401500,889.30,772.03,1.00,1,1,1,356.33,-0.26,30889.73,220.44,-0.35,18717.81,318.42,-0.44,10308.50,580.18,-0.20,4505.01,1546.75,-0.14,1859.15
429500,892.21,770.31,1.00,2,2,2,120.59,-0.53,8652.79,94.32,-1.11,5920.24,144.00,-0.60,6347.83,699.30,-0.19,4264.01,1424.38,-0.14,4372.97
444200,891.09,768.42,1.00,2,2,2,149.52,-2.11,13072.97,91.14,-1.61,3108.99,246.48,-0.35,7678.23,821.73,-0.18,8350.79,1319.04,-0.14,7171.29
465300,892.09,767.05,1.00,3,3,3,80.33,-0.94,6588.19,469.82,-0.18,22058.66,953.92,-0.13,33923.46,952.61,-0.13,6443.48,1214.52,-0.13,5042.71
479300,907.30,765.43,1.00,1,1,1,1093.16,-0.11,74350.82,2145.02,-0.07,119913.70,1395.06,-0.11,31546.33,1132.86,-0.13,12876.03,1179.88,-0.11,2979.09
493800,953.06,762.59,1.00,1,1,1,3161.38,-0.06,142748.05,2314.02,-0.09,12049.69,2055.99,-0.09,45624.37,1405.63,-0.12,18824.14,1109.45,-0.10,4860.23
514700,988.87,757.82,1.00,1,1,1,1728.53,-0.13,69006.24,1984.24,-0.11,15842.43,2211.83,-0.10,7534.00,1682.81,-0.12,13271.86,1015.55,-0.09,4519.23
528900,1022.31,755.16,1.00,1,1,1,2362.32,-0.08,45264.39,2087.34,-0.11,7320.11,1857.35,-0.12,25130.03,1908.00,-0.09,16170.88,852.03,-0.06,11686.81
543700,1049.01,750.98,1.00,1,1,1,1826.43,-0.16,37750.08,1705.48,-0.14,26076.64,2034.52,-0.12,11972.71,1912.39,-0.07,2550.77,750.97,-0.04,6940.42
558100,1071.60,748.07,1.00,1,1,1,1581.49,-0.13,17311.76,1981.38,-0.13,19188.20,1762.76,-0.09,19329.01,1613.88,-0.06,20776.06,634.43,-0.00,8282.08
572400,1105.36,743.35,1.00,1,1,1,2384.11,-0.14,56146.82,1812.96,-0.05,16041.42,1614.81,-0.03,12601.46,1256.66,-0.03,25157.07,455.83,0.07,12795.93
593700,1136.05,744.69,1.00,1,1,1,1442.16,0.04,46988.38,1338.16,0.09,24698.95,1377.55,0.02,11756.94,743.11,0.04,24310.23,238.22,0.29,10748.28
608000,1152.80,747.77,1.00,1,1,1,1190.62,0.18,21701.69,855.46,0.22,35147.17,595.23,0.26,56670.26,351.94,0.28,28734.30,123.77,2.21,21269.96
622100,1159.74,750.09,1.00,1,1,1,519.05,0.32,48251.86,395.39,2.66,83975.76,348.76,2.46,60292.24,209.63,2.22,33256.78,504.41,2.86,29294.72
637100,1142.61,753.13,1.00,1,1,1,1159.80,2.97,108991.92,1162.14,2.93,52598.68,972.57,2.88,44625.03,803.84,2.81,42764.42,822.36,2.93,21406.23
658400,1118.47,758.83,1.00,2,2,2,1164.54,2.91,3063.09,1461.31,2.93,14046.01,1643.45,2.96,31790.42,1474.26,2.93,32038.65,1119.02,2.97,14023.52
672200,1092.42,763.68,1.00,2,2,2,1920.43,2.96,55018.46,2261.53,2.97,58202.34,2152.62,2.97,36938.39,1880.69,2.98,29930.10,1322.77,2.99,14856.05
686700,1055.38,769.61,1.00,2,2,2,2586.50,2.98,46102.60,3005.80,2.99,51434.92,2658.23,2.99,35043.94,2379.58,2.99,34527.22,1393.46,3.01,5276.68
700700,1007.72,776.56,1.00,3,3,3,3440.22,3.00,61050.79,2974.96,3.00,3251.12,2622.94,3.00,3347.82,2359.49,3.00,2087.89,1301.88,3.04,7148.77
722200,950.80,784.31,1.00,1,1,1,2672.06,3.01,35753.03,2407.06,3.01,26436.63,2980.67,3.01,16684.68,2637.88,3.02,13059.07,1474.26,2.93,10682.16
751200,887.21,792.42,1.00,1,1,1,2210.64,3.01,15927.16,2985.52,3.02,19965.38,2490.99,3.02,16913.92,2657.25,3.03,1610.29,1880.69,2.98,14242.60
766000,821.00,800.16,1.00,1,1,1,4503.97,3.03,154971.10,2575.23,3.03,27832.06,2625.23,3.04,9435.26,2407.93,3.06,17442.16,2379.58,2.99,33827.34
801700,757.92,806.48,1.00,1,1,1,1775.76,3.04,76431.87,2311.08,3.06,7574.67,2694.01,3.07,2841.96,1707.20,3.12,19933.65,2359.49,3.00,818.78
816100,705.63,809.94,1.00,1,1,1,3639.36,3.08,129553.05,2907.52,3.12,42728.61,1843.82,3.14,60162.66,2625.23,3.04,64956.26,2637.88,3.02,19497.92
830600,673.92,808.69,1.00,1,1,1,2188.36,-3.10,102160.75,1103.82,-2.84,130813.32,643.68,-2.52,94554.58,2694.01,3.07,6997.10,2657.25,3.03,3220.58
845200,674.97,800.36,1.00,1,1,1,574.59,-1.45,158185.42,1537.94,-0.49,167232.49,1103.82,-2.84,36323.08,1843.82,3.14,59338.51,2407.93,3.06,17681.10
867200,723.53,782.09,1.00,1,1,1,2358.47,-0.36,97795.19,2358.47,-0.36,39011.20,1537.94,-0.49,110981.56,643.68,-2.52,62320.06,1707.20,3.12,32346.88
