@RELATION gaze_labels

%@METADATA width_px 1920
%@METADATA height_px 1080
%@METADATA width_mm 540.00
%@METADATA height_mm 254.00
%@METADATA distance_mm 620.00


@ATTRIBUTE time INTEGER
@ATTRIBUTE x NUMERIC
@ATTRIBUTE y NUMERIC
@ATTRIBUTE confidence NUMERIC
@ATTRIBUTE handlabeller1 INTEGER
@ATTRIBUTE handlabeller2 INTEGER
@ATTRIBUTE handlabeller_final INTEGER
@ATTRIBUTE speed_1 numeric
@ATTRIBUTE direction_1 numeric
@ATTRIBUTE acceleration_1 numeric
@ATTRIBUTE speed_2 numeric
@ATTRIBUTE direction_2 numeric
@ATTRIBUTE acceleration_2 numeric
@ATTRIBUTE speed_4 numeric
@ATTRIBUTE direction_4 numeric
@ATTRIBUTE acceleration_4 numeric
@ATTRIBUTE speed_8 numeric
@ATTRIBUTE direction_8 numeric
@ATTRIBUTE acceleration_8 numeric
@ATTRIBUTE speed_16 numeric
@ATTRIBUTE direction_16 numeric
@ATTRIBUTE acceleration_16 numeric

%The number after speed, direction denotes the step size that was used for the calculation.
%Acceleration was calculated between two adjacent samples of the already low pass filtered velocity

@DATA
0,283.35,794.38,1.00,1,1,1,0.00,0.00,0.00,1614.83,-0.02,0.00,1547.29,-0.00,0.00,614.66,0.06,0.00,75.75,1.95,0.00
28600,329.53,793.51,1.00,1,1,1,1614.83,-0.02,56462.64,1547.29,-0.00,2507.94,433.25,0.10,39074.11,114.90,2.29,24167.47,372.87,2.91,11719.02
42900,349.73,794.15,1.00,1,1,1,1413.44,0.03,15047.67,433.25,0.10,78148.23,614.66,0.06,12773.53,531.83,2.96,31242.56,428.93,2.97,4249.71
79000,351.25,795.79,1.00,1,1,1,61.78,0.82,37971.62,196.71,2.74,16983.53,114.90,2.29,19146.53,987.66,3.01,12664.96,357.30,2.97,1984.34
93300,340.59,797.98,1.00,1,1,1,761.02,2.94,55576.29,970.10,2.98,54551.40,531.83,2.96,31242.56,75.75,1.95,66614.82,25.02,1.23,25327.64
108000,323.48,800.35,1.00,1,1,1,1174.48,3.00,28440.26,1016.89,3.01,3979.56,987.66,3.01,31102.40,372.87,2.91,22800.28,501.89,-0.06,33719.13
128700,304.88,802.56,1.00,1,1,1,905.07,3.02,13050.20,1002.85,3.03,910.84,961.57,3.02,1450.99,428.93,2.97,2935.79,1080.96,-0.08,27979.98
142700,288.92,804.34,1.00,1,1,1,1147.44,3.03,17319.62,894.56,3.03,7736.64,722.56,3.02,17073.19,357.30,2.97,5116.76,1545.86,-0.08,33207.44
157900,278.92,805.49,1.00,2,2,2,661.65,3.03,31959.79,392.89,3.01,33011.87,292.84,3.00,28282.52,25.02,1.23,23827.97,797.25,-0.02,49421.36
172200,277.42,805.84,1.00,3,3,3,107.86,2.91,38789.57,201.78,-0.02,41533.77,258.74,-0.03,38505.95,501.89,-0.06,34662.32,848.74,-0.03,3602.12
193500,286.11,805.31,1.00,1,1,1,408.38,-0.06,24178.10,793.22,-0.07,27779.72,972.09,-0.07,33505.38,1080.96,-0.08,27191.81,928.91,-0.03,3776.33
208100,305.83,803.87,1.00,2,2,2,1354.68,-0.07,64818.17,1914.75,-0.08,76819.81,1703.22,-0.09,50095.91,1545.86,-0.08,31842.76,1140.54,-0.04,14508.89
222600,341.66,801.03,1.00,2,2,2,2478.69,-0.08,77520.99,2810.83,-0.09,61845.60,2599.47,-0.09,61810.48,1703.23,-0.07,10928.26,1284.02,-0.06,9998.95
237600,388.40,796.25,1.00,3,3,3,3132.26,-0.10,43780.57,3275.06,-0.09,30949.03,2975.44,-0.09,25066.81,2056.25,-0.06,23547.70,1406.90,-0.08,8385.13
252100,437.86,792.09,1.00,1,1,1,3423.05,-0.08,20457.94,3140.74,-0.08,9740.20,2296.78,-0.07,46906.64,2343.41,-0.06,19808.66,1572.05,-0.10,11577.07
267000,480.45,788.96,1.00,1,1,1,2866.09,-0.07,37446.58,1723.13,-0.04,95332.67,2348.77,-0.05,4670.73,2481.81,-0.06,9289.30,1638.47,-0.11,4517.34
302300,524.29,788.59,1.00,1,1,1,1242.00,-0.01,46139.65,1882.06,-0.02,4651.76,2169.32,-0.04,5130.34,2431.66,-0.07,1547.26,1796.78,-0.11,4493.04
316700,573.97,787.32,1.00,1,1,1,3451.34,-0.03,153446.63,2802.07,-0.03,63948.01,2141.15,-0.03,2030.58,2152.60,-0.08,19508.08,1944.62,-0.11,10267.36
337700,623.42,785.16,1.00,1,1,1,2357.06,-0.04,52165.57,2506.64,-0.05,14216.22,2599.10,-0.07,22134.79,1940.24,-0.11,10417.71,2172.88,-0.11,10882.39
352000,662.34,782.83,1.00,1,1,1,2726.51,-0.06,25998.88,2354.20,-0.12,15321.16,1957.18,-0.12,45732.27,1703.61,-0.12,16649.44,2281.22,-0.10,7579.44
366500,690.77,777.35,1.00,1,1,1,1996.78,-0.19,54530.25,1517.70,-0.22,59299.60,1706.11,-0.20,20132.23,1885.21,-0.15,12893.61,2311.24,-0.10,2268.86
394900,725.87,768.57,1.00,2,2,2,1273.94,-0.25,25636.86,1345.68,-0.29,7069.54,1323.87,-0.25,13698.36,1850.40,-0.16,1411.63,2236.71,-0.09,2643.01
416800,755.57,757.78,1.00,3,3,3,1442.82,-0.35,10016.47,1160.26,-0.29,8472.35,1406.29,-0.25,3773.53,2020.95,-0.15,7795.45,2154.33,-0.09,3803.31
445300,781.94,751.97,1.00,1,1,1,947.57,-0.22,18196.75,1480.70,-0.20,11947.43,1755.25,-0.19,12617.94,2101.96,-0.15,2845.02,2018.37,-0.08,4807.36
459700,817.83,745.16,1.00,1,1,1,2536.30,-0.19,110373.92,2614.51,-0.13,79268.01,2344.11,-0.12,42299.71,2202.83,-0.13,7858.06,2089.21,-0.08,4933.18
480700,873.68,739.71,1.00,2,2,2,2672.41,-0.10,12909.78,3409.13,-0.07,38832.18,3259.07,-0.09,43683.57,2325.16,-0.11,6315.82,1966.13,-0.07,5871.89
494800,937.18,736.62,1.00,2,2,2,4508.90,-0.05,130798.07,4073.14,-0.06,47204.93,3392.00,-0.06,12787.23,2403.11,-0.07,8099.63,1931.76,-0.07,2640.46
508900,988.34,732.92,1.00,3,3,3,3637.94,-0.07,62139.32,3372.18,-0.04,50102.38,3101.30,-0.04,20937.97,2462.32,-0.04,6747.93,1849.87,-0.06,5848.37
523400,1033.57,733.20,1.00,1,1,1,3118.84,0.01,40166.72,2343.59,-0.01,71072.73,2481.21,-0.02,42971.44,2351.56,-0.01,9166.89,1744.95,-0.05,7315.38
545000,1072.94,731.83,1.00,1,1,1,1823.98,-0.03,60117.27,1766.54,0.01,26801.54,1683.62,0.06,37677.16,2131.70,0.02,10592.40,1571.56,-0.04,8080.20
559000,1096.45,733.83,1.00,1,1,1,1685.45,0.08,17930.92,867.92,0.32,69913.18,1330.48,0.11,25724.21,1844.37,0.05,21003.99,1358.54,-0.01,15450.30
572900,1095.89,739.55,1.00,1,1,1,413.89,1.67,125232.13,825.79,0.38,4344.85,1175.82,0.18,12657.79,1570.26,0.09,20208.28,1144.48,0.01,15554.78
587500,1118.34,742.47,1.00,1,1,1,1550.84,0.13,109082.50,1425.35,0.11,45670.07,1221.33,0.19,3350.60,1209.84,0.12,24839.35,775.90,0.06,25486.15
608900,1146.91,744.98,1.00,1,1,1,1340.23,0.09,10221.86,1556.86,0.11,6160.12,1459.28,0.12,12066.93,713.86,0.21,23534.83,244.34,0.39,25729.24
622800,1172.96,748.62,1.00,1,1,1,1891.64,0.14,40092.01,1502.02,0.13,4286.36,1089.46,0.12,26618.12,254.18,0.60,35140.26,361.92,2.83,41036.81
637600,1189.67,750.46,1.00,1,1,1,1136.38,0.11,51110.61,519.26,0.17,66453.51,255.08,0.37,57042.43,195.71,2.50,24788.50,832.83,2.98,32304.64
651700,1187.74,751.17,1.00,1,1,1,145.86,2.79,89967.12,785.89,3.13,92182.35,766.55,3.07,71130.53,797.12,2.99,44815.32,1226.27,3.03,28103.75
672700,1162.09,750.86,1.00,1,1,1,1221.63,-3.13,51745.88,1792.01,3.12,47910.78,1770.75,3.10,47861.87,1680.73,3.05,42218.88,1439.94,3.04,10218.63
687600,1123.42,752.30,1.00,2,2,2,2597.16,3.10,92507.15,2950.91,3.10,77896.65,2641.98,3.10,58471.78,2295.80,3.09,41505.05,1574.22,3.05,9072.69
702000,1075.72,754.77,1.00,2,2,2,3317.10,3.09,50082.92,3698.65,3.09,51948.95,3562.65,3.09,64041.19,2965.50,3.10,46551.03,1554.53,3.06,1677.24
716500,1016.67,757.85,1.00,2,2,2,4077.57,3.09,52445.90,4067.78,3.08,25625.04,3551.91,3.09,1458.49,3382.03,3.10,28734.77,1571.00,3.07,1203.96
737500,931.60,763.85,1.00,3,3,3,4061.30,3.07,3613.31,3467.09,3.09,28687.79,3938.24,3.10,18424.71,3144.33,3.10,11324.78,1604.12,3.07,1586.68
766500,843.54,766.63,1.00,1,1,1,3037.92,3.11,35599.48,3833.70,3.11,12895.86,3989.84,3.10,1880.94,3006.40,3.10,4758.91,1715.54,3.07,3852.45
781100,764.53,768.93,1.00,1,1,1,5414.37,3.11,162772.03,4894.87,3.11,72684.19,2857.91,3.11,77564.04,2684.83,3.09,22031.62,1983.14,3.08,18332.82
795400,702.14,770.76,1.00,1,1,1,4364.48,3.11,73418.56,2022.07,3.11,200895.95,2471.29,3.11,27043.66,2202.04,3.09,33776.47,2388.41,3.08,28346.82
832000,661.65,772.21,1.00,1,1,1,1106.88,3.11,89006.24,1111.38,3.09,24889.95,1442.42,3.09,28123.01,1543.05,3.08,18008.53,3144.33,3.10,20697.56
846900,644.97,773.44,1.00,1,1,1,1122.99,3.07,3038.50,427.07,2.94,46488.31,439.33,2.98,67567.92,1143.41,3.05,26988.57,3006.40,3.10,9262.31
860900,649.56,774.69,1.00,1,1,1,340.40,0.27,103455.46,798.84,0.13,86496.13,354.87,0.28,55412.76,1017.47,3.02,9326.84,2684.83,3.09,22975.83
875300,667.48,776.28,1.00,1,1,1,1248.67,0.09,63583.84,937.58,0.11,9667.51,520.67,0.26,11525.10,1499.01,3.04,33500.98,2202.04,3.09,33541.91
898100,684.22,778.60,1.00,2,2,2,741.56,0.14,22338.37,322.04,0.52,28673.94,523.74,2.76,43501.77,354.87,0.28,80418.36,1543.05,3.08,28908.44
912100,677.78,782.13,1.00,3,3,3,524.41,2.64,85991.98,2351.86,3.01,186853.05,2554.23,3.05,146938.73,520.67,0.26,11854.39,1143.41,3.05,28723.55
926700,617.54,787.43,1.00,1,1,1,4142.14,3.05,251230.08,4941.12,3.08,178118.78,2351.86,3.01,15363.83,523.74,2.76,67934.27,1017.47,3.02,8943.54
955600,463.24,795.14,1.00,1,1,1,5345.82,3.09,42100.64,5345.82,3.09,14130.33,4941.12,3.08,89983.88,2554.23,3.05,71181.39,1499.01,3.04,16692.53
