@RELATION gaze_labels

%@METADATA width_px 1920
%@METADATA height_px 1080
%@METADATA width_mm 540.00
%@METADATA height_mm 254.00
%@METADATA distance_mm 620.00


@ATTRIBUTE time INTEGER
@ATTRIBUTE x NUMERIC
@ATTRIBUTE y NUMERIC
@ATTRIBUTE confidence NUMERIC
@ATTRIBUTE handlabeller1 INTEGER
@ATTRIBUTE handlabeller2 INTEGER
@ATTRIBUTE handlabeller_final INTEGER
@ATTRIBUTE speed_1 numeric
@ATTRIBUTE direction_1 numeric
@ATTRIBUTE acceleration_1 numeric
@ATTRIBUTE speed_2 numeric
@ATTRIBUTE direction_2 numeric
@ATTRIBUTE acceleration_2 numeric
@ATTRIBUTE speed_4 numeric
@ATTRIBUTE direction_4 numeric
@ATTRIBUTE acceleration_4 numeric
@ATTRIBUTE speed_8 numeric
@ATTRIBUTE direction_8 numeric
@ATTRIBUTE acceleration_8 numeric
@ATTRIBUTE speed_16 numeric
@ATTRIBUTE direction_16 numeric
@ATTRIBUTE acceleration_16 numeric

%The number after speed, direction denotes the step size that was used for the calculation.
%Acceleration was calculated between two adjacent samples of the already low pass filtered velocity

@DATA
0,780.82,430.50,1.00,1,1,1,0.00,0.00,0.00,1195.08,-0.42,0.00,1083.55,-0.15,0.00,579.28,0.02,0.00,179.49,-1.01,0.00
22300,805.18,419.68,1.00,1,1,1,1195.08,-0.42,53590.98,1083.55,-0.15,14443.08,591.58,0.57,33628.07,196.90,-0.30,17808.45,85.52,-2.68,9244.56
36900,820.35,424.45,1.00,1,1,1,1089.20,0.30,55755.20,591.58,0.57,51363.42,579.28,0.02,21711.85,454.81,-2.28,38609.19,169.87,-2.88,6012.38
66600,827.23,433.84,1.00,2,2,2,391.85,0.94,27178.93,234.79,0.75,12216.90,196.90,-0.30,13371.33,597.53,-2.23,4896.57,245.02,-2.64,3016.42
81500,828.02,431.58,1.00,1,1,1,160.75,-1.23,33599.75,389.64,-1.77,40026.29,454.81,-2.28,37831.83,179.49,-1.01,37689.05,374.59,-2.71,8805.25
118100,823.22,414.18,1.00,1,1,1,493.20,-1.84,10177.48,1052.14,-2.30,20296.14,597.53,-2.23,3973.45,85.52,-2.68,5632.61,266.15,-2.93,3533.70
132900,791.87,391.36,1.00,1,1,1,2620.02,-2.51,152378.28,1072.51,-2.51,14937.97,503.80,-2.46,10630.59,169.87,-2.88,5931.13,520.11,0.78,51233.60
147600,797.67,395.51,1.00,1,1,1,485.55,0.62,211262.30,511.73,1.27,103028.36,421.74,-3.11,20817.63,245.02,-2.64,6094.39,969.66,0.58,32010.39
162500,796.37,405.82,1.00,1,1,1,697.45,1.70,42464.81,420.21,1.87,19392.86,312.04,1.59,35380.17,374.59,-2.71,8805.25,653.85,0.39,23581.82
191600,792.24,413.18,1.00,1,1,1,290.11,2.08,15198.46,232.08,2.01,6634.68,245.18,1.84,3266.40,266.15,-2.93,4444.45,752.56,0.53,4870.14
213900,791.32,416.63,1.00,1,1,1,159.85,1.83,6315.96,40.99,1.44,8909.16,288.72,3.13,14541.46,520.11,0.78,34002.57,710.17,0.62,3328.18
228700,792.43,414.69,1.00,1,1,1,150.92,-1.05,20818.88,714.44,-2.62,50003.32,131.62,-2.25,15602.06,969.66,0.58,31794.10,691.59,0.60,1445.43
243600,772.95,405.99,1.00,1,1,1,1431.70,-2.72,97650.72,340.69,-2.17,29025.37,991.48,0.46,74652.03,1356.40,0.53,26230.20,792.03,0.57,6936.38
258400,786.71,406.35,1.00,2,2,2,929.69,0.03,156604.09,2725.40,0.48,204704.57,2087.59,0.44,74072.84,1824.77,0.53,31649.26,885.48,0.56,6353.01
272800,843.71,442.41,1.00,2,2,2,4684.37,0.56,271894.54,4039.16,0.48,91236.62,3335.45,0.48,86876.32,1944.24,0.57,10142.02,943.05,0.54,4096.41
294700,916.86,473.88,1.00,1,1,1,3635.68,0.41,56354.26,3820.83,0.48,9969.67,3811.61,0.54,24089.62,1907.83,0.58,1937.00,864.57,0.55,3596.50
309500,968.16,507.05,1.00,1,1,1,4127.64,0.57,55020.82,3552.62,0.63,41733.38,2802.36,0.61,69862.64,2305.12,0.54,27579.39,792.32,0.52,5144.42
323900,1000.67,535.01,1.00,1,1,1,2977.89,0.71,86464.46,1688.03,0.99,143071.64,1760.09,0.77,76612.62,2095.06,0.51,15287.63,784.79,0.43,5110.29
338800,995.30,548.39,1.00,1,1,1,967.92,1.95,189153.86,501.57,2.30,109576.60,1181.00,0.74,39003.61,1411.39,0.45,46396.18,674.82,0.34,8550.97
353400,990.80,546.04,1.00,1,1,1,347.76,-2.66,72681.63,840.08,0.22,80104.98,422.67,0.23,57382.30,755.33,0.51,45100.70,611.90,0.33,4350.02
368300,1019.47,553.83,1.00,1,1,1,1994.33,0.27,156717.43,1014.13,-0.12,24251.08,447.46,-0.98,33255.09,200.49,0.43,37286.68,799.19,0.26,12923.87
390400,1028.04,541.41,1.00,1,1,1,682.63,-0.97,85139.38,843.78,-1.82,63278.39,345.02,-0.85,5199.39,257.10,-1.97,19313.01,1120.76,0.33,14875.94
405100,1011.80,523.74,1.00,1,1,1,1632.21,-2.31,110423.36,562.71,-2.42,33725.01,536.88,-2.21,39023.84,434.01,-1.87,12214.18,1281.39,0.32,11018.86
434600,1009.33,525.02,1.00,1,1,1,94.39,2.66,54574.22,425.17,-2.88,8790.40,777.18,-2.38,8949.59,505.78,-1.97,2912.18,1349.82,0.33,2465.77
449400,993.63,518.79,1.00,1,1,1,1141.18,-2.76,73078.72,1101.21,-2.34,51813.38,590.84,-2.29,13151.86,572.47,-1.85,6345.92,1244.12,0.29,8218.95
464000,986.80,501.76,1.00,1,1,1,1256.38,-1.95,65237.11,816.94,-2.05,27244.78,920.52,-2.32,22630.29,444.96,-0.46,45303.94,1068.26,0.25,12508.86
501300,974.24,481.08,1.00,2,2,2,648.73,-2.12,16770.62,817.15,-2.31,5737.91,669.14,-1.57,16922.11,1195.45,0.19,23593.53,1015.26,0.15,2968.70
515300,958.61,470.74,1.00,2,2,2,1338.67,-2.56,57216.22,891.68,-0.69,88619.34,1283.87,0.09,107087.98,1931.05,0.27,53356.91,1009.45,0.16,532.90
529700,993.84,465.06,1.00,1,1,1,2478.66,-0.16,248610.92,4711.67,0.30,297498.39,3681.87,0.33,170392.90,2245.61,0.28,21854.60,919.47,0.20,6837.91
544400,1089.58,511.29,1.00,1,1,1,7232.48,0.45,366719.54,6182.42,0.43,110269.88,5285.69,0.38,110159.51,2246.31,0.33,8771.16,927.37,0.26,3606.28
566600,1201.53,559.44,1.00,1,1,1,5489.55,0.41,79479.62,5759.15,0.44,19230.11,5264.64,0.43,10363.97,2643.05,0.35,17926.80,1039.22,0.32,5874.47
581300,1282.23,601.01,1.00,1,1,1,6174.83,0.48,54120.01,4092.80,0.43,113410.88,3484.09,0.44,121203.29,2722.48,0.36,6111.55,1233.65,0.32,13234.08
595500,1309.28,608.24,1.00,1,1,1,1972.01,0.26,300604.25,600.49,0.50,246088.66,1492.95,0.39,140499.67,2440.88,0.45,25992.54,1255.20,0.32,1523.22
610400,1297.54,609.44,1.00,1,1,1,792.33,3.04,183041.48,1020.38,-2.60,108767.60,188.32,-2.08,110313.44,1647.99,0.46,53221.10,950.56,0.48,23477.99
625500,1283.00,592.54,1.00,1,1,1,1475.91,-2.28,80244.57,920.38,-2.42,13401.90,373.35,-3.10,21066.54,877.98,0.57,51682.87,672.68,0.92,29612.36
640300,1276.85,591.28,1.00,1,1,1,424.10,-2.94,79034.04,398.21,1.47,83844.71,187.17,-3.06,12592.21,430.45,0.56,30238.34,505.22,1.74,33323.68
662200,1284.40,607.09,1.00,1,1,1,799.82,1.13,50616.67,521.11,1.12,9204.36,425.87,1.16,24626.75,153.64,1.14,14303.32,783.15,2.46,24060.18
676900,1285.13,608.47,1.00,1,1,1,105.95,1.09,47207.82,507.53,0.86,9253.34,966.16,0.65,42969.75,652.09,3.01,48450.11,1002.03,2.92,31181.40
691700,1294.19,618.42,1.00,1,1,1,909.52,0.83,54561.82,1619.57,0.46,78904.12,643.64,0.52,22873.12,1552.87,3.02,60866.84,1433.94,-3.07,37447.35
706300,1327.74,629.71,1.00,1,1,1,2424.45,0.32,115625.17,828.19,0.31,55571.13,1181.66,2.97,118351.62,2568.56,3.12,70974.64,1694.12,-2.99,19805.66
721000,1317.32,625.77,1.00,2,2,2,757.97,-2.78,216464.30,3773.58,-3.06,311886.81,3250.40,-3.14,142591.59,3576.89,-3.11,69601.04,1803.52,-2.98,7458.87
735900,1216.43,620.38,1.00,2,2,2,6780.49,-3.09,406884.21,6461.25,-3.11,181205.77,5909.97,-3.06,179956.04,3311.87,-3.06,20883.93,1765.56,-2.97,3356.92
757900,1079.02,618.25,1.00,3,3,3,6246.94,-3.13,26724.21,7633.11,-3.07,55172.74,7248.80,-3.07,60897.44,3427.53,-2.96,16063.90,1684.26,-2.98,3931.21
772600,937.12,598.95,1.00,1,1,1,9741.85,-3.01,246090.33,8243.00,-3.03,45164.10,4895.84,-3.02,161617.87,3308.65,-2.95,8542.40,1558.80,-2.94,9870.93
787500,836.49,591.56,1.00,1,1,1,6771.89,-3.07,202162.17,2654.54,-2.90,377446.64,3671.61,-2.82,99607.32,3268.17,-2.95,2971.43,1691.06,-2.87,11655.10
816900,823.02,570.47,1.00,1,1,1,850.99,-2.14,214270.59,1386.99,-1.80,80519.82,1603.27,-2.65,71658.05,2655.58,-2.91,21337.56,1641.76,-2.91,2951.59
831600,822.53,532.00,1.00,1,1,1,2617.00,-1.58,132412.47,945.56,-2.02,34701.82,791.95,-2.12,68454.45,1886.45,-2.78,55574.62,1629.33,-2.96,4932.68
868300,801.71,526.79,1.00,1,1,1,584.82,-2.90,68982.82,502.96,-2.94,20584.47,689.94,-2.05,3130.87,917.59,-2.40,29744.37,1815.61,-3.03,6139.81
883000,797.18,526.94,1.00,1,1,1,308.48,3.11,20443.74,251.77,-2.18,24816.81,292.40,-2.41,29198.80,723.04,-1.74,38186.66,1821.72,-3.09,8150.61
898100,797.40,520.65,1.00,1,1,1,417.04,-1.54,35464.02,443.58,-0.96,28466.00,575.66,-0.83,42829.34,472.62,-1.53,18498.64,1545.10,-3.07,18587.18
913000,804.85,516.07,1.00,1,1,1,586.96,-0.55,33392.25,1019.22,-0.64,41232.13,817.61,-1.21,23579.33,82.69,-2.77,30373.06,1154.79,-2.78,36849.47
934700,827.42,498.50,1.00,1,1,1,1317.90,-0.66,33979.34,1139.98,-1.29,32221.79,524.10,-0.61,22392.29,324.27,2.00,15200.30,917.59,-2.40,20835.42
949500,816.54,476.13,1.00,2,2,2,1680.36,-2.02,128946.47,97.10,2.14,83342.53,150.41,1.13,38451.98,571.31,2.11,16969.26,723.04,-1.74,37928.65
964200,825.87,500.91,1.00,2,2,2,1801.11,1.21,236581.90,1152.52,1.70,72487.59,1121.88,2.14,71386.02,584.44,2.31,7834.74,472.62,-1.53,19002.01
994100,810.02,527.12,1.00,2,2,2,1024.54,2.11,47442.04,1805.83,2.14,30473.63,1705.54,2.04,20085.32,384.31,-2.73,19661.45,82.69,-2.77,15135.74
1008400,782.72,568.06,1.00,3,3,3,3440.73,2.16,169062.32,2509.68,2.23,50904.51,1479.92,2.37,39932.26,1121.88,2.14,78722.28,324.27,2.00,23066.20
1030500,754.11,599.37,1.00,1,1,1,1919.17,2.31,71080.61,1247.23,2.78,71667.33,1001.51,-2.61,70181.39,1705.54,2.04,27174.26,571.31,2.11,11364.03
1045300,739.73,584.48,1.00,1,1,1,1399.10,-2.34,165170.84,3562.99,-1.58,281285.84,1247.23,2.78,67533.48,1479.92,2.37,38583.19,584.44,2.31,7781.81
1060200,752.95,493.56,1.00,1,1,1,6166.41,-1.43,364076.01,6166.41,-1.43,181425.08,3562.99,-1.58,279398.01,1001.51,-2.61,104094.54,384.31,-2.73,39454.86
