@RELATION gaze_labels

%@METADATA width_px 1920
%@METADATA height_px 1080
%@METADATA width_mm 540.00
%@METADATA height_mm 254.00
%@METADATA distance_mm 620.00


@ATTRIBUTE time INTEGER
@ATTRIBUTE x NUMERIC
@ATTRIBUTE y NUMERIC
@ATTRIBUTE confidence NUMERIC
@ATTRIBUTE handlabeller1 INTEGER
@ATTRIBUTE handlabeller2 INTEGER
@ATTRIBUTE handlabeller_final INTEGER
@ATTRIBUTE speed_1 numeric
@ATTRIBUTE direction_1 numeric
@ATTRIBUTE acceleration_1 numeric
@ATTRIBUTE speed_2 numeric
@ATTRIBUTE direction_2 numeric
@ATTRIBUTE acceleration_2 numeric
@ATTRIBUTE speed_4 numeric
@ATTRIBUTE direction_4 numeric
@ATTRIBUTE acceleration_4 numeric
@ATTRIBUTE speed_8 numeric
@ATTRIBUTE direction_8 numeric
@ATTRIBUTE acceleration_8 numeric
@ATTRIBUTE speed_16 numeric
@ATTRIBUTE direction_16 numeric
@ATTRIBUTE acceleration_16 numeric

%The number after speed, direction denotes the step size that was used for the calculation.
%Acceleration was calculated between two adjacent samples of the already low pass filtered velocity

@DATA
0,305.78,490.46,1.00,1,1,1,0.00,0.00,0.00,3295.95,-1.85,0.00,2334.60,-1.73,0.00,1256.06,-1.43,0.00,1076.53,-1.70,0.00
22200,285.66,420.11,1.00,1,1,1,3295.95,-1.85,148466.05,2334.60,-1.73,45653.29,799.23,-0.13,112228.43,424.71,-1.05,39403.66,465.85,-1.47,28500.34
37100,291.74,404.99,1.00,2,2,2,1093.72,-1.19,169366.08,799.23,-0.13,167212.83,1256.06,-1.43,86892.23,578.79,-1.66,22368.96,447.19,-1.64,5556.88
51600,308.95,417.04,1.00,2,2,2,1449.05,0.61,138155.17,897.52,0.13,16717.30,424.71,-1.05,60328.36,1029.24,-2.09,38461.94,737.66,-2.06,25874.78
66000,317.45,408.39,1.00,1,1,1,842.34,-0.79,107717.70,737.71,-2.10,102218.51,578.79,-1.66,23145.66,1076.53,-1.70,28452.93,1112.63,-2.33,31008.77
80900,297.96,398.43,1.00,1,1,1,1469.10,-2.67,127503.32,1367.54,-2.18,42609.43,1029.24,-2.09,37429.41,465.85,-1.47,42463.60,526.39,-1.24,65968.83
103000,288.34,367.00,1.00,1,1,1,1487.15,-1.87,52186.93,1261.46,-2.08,7708.76,1000.84,-2.04,2548.45,447.19,-1.64,3746.50,1805.72,0.07,79104.98
117700,275.23,357.95,1.00,1,1,1,1083.47,-2.54,63010.08,605.94,-1.62,52162.96,555.54,-1.74,33837.59,737.66,-2.06,25522.74,3890.32,0.22,144469.45
132200,287.41,349.33,1.00,1,1,1,1028.69,-0.62,119397.58,593.80,0.27,67161.97,298.73,-1.61,18126.06,1112.63,-2.33,30794.92,2485.10,0.03,105751.89
146500,291.71,362.53,1.00,1,1,1,970.28,1.26,112556.27,14.27,0.69,40614.07,409.08,-1.97,11821.14,526.39,-1.24,68736.75,3007.83,0.11,39985.39
161300,287.73,349.60,1.00,1,1,1,913.97,-1.87,127310.34,1254.88,-2.34,85747.46,1296.74,-2.55,66132.18,1805.72,0.07,118122.98,2815.95,0.09,13711.70
176000,265.87,336.02,1.00,1,1,1,1750.55,-2.59,82914.18,2327.78,-2.55,76740.73,621.88,-0.81,103964.98,3890.32,0.22,144469.45,2576.92,0.03,19470.84
198300,216.35,301.40,1.00,2,2,2,2709.47,-2.53,43323.48,1468.63,-0.06,161581.64,3423.68,0.15,139337.05,5404.97,0.23,67964.92,2438.35,0.01,6601.33
213100,320.25,332.51,1.00,2,2,2,7327.79,0.29,671409.73,10402.54,0.27,609915.77,7516.81,0.26,279395.74,5841.84,0.18,35092.67,2290.51,0.01,9997.21
227900,513.32,382.78,1.00,2,2,2,13480.40,0.25,416428.42,15258.39,0.30,329322.56,12830.91,0.27,359161.83,5535.63,0.16,22444.17,2273.59,0.05,7102.02
242500,748.70,465.42,1.00,1,1,1,17086.86,0.34,261626.84,15276.26,0.28,22121.26,11390.79,0.23,105044.93,5090.42,0.14,31999.03,2378.84,0.05,7244.89
257300,944.99,506.75,1.00,1,1,1,13553.70,0.21,273611.83,8373.69,0.13,480277.01,7667.44,0.17,254545.96,5528.42,0.15,29869.25,2397.99,0.11,10227.93
279300,1054.27,505.21,1.00,1,1,1,4967.84,-0.01,398891.29,2114.20,-0.52,309668.09,3237.69,-0.11,210833.61,4113.42,0.11,64816.06,2430.12,0.11,1479.66
293900,1012.10,468.24,1.00,1,1,1,3841.52,-2.42,563881.34,1855.17,-2.16,199199.68,1224.55,-1.20,197687.59,2632.43,0.04,102555.58,2495.09,0.14,7274.16
323300,1008.80,437.42,1.00,1,1,1,1054.07,-1.68,107081.64,1404.79,-2.10,15719.75,1563.84,-2.33,51555.02,1370.35,-0.34,49508.21,2520.45,0.14,867.74
338100,980.90,414.56,1.00,1,1,1,2437.76,-2.46,124440.55,1339.78,-2.54,41317.39,999.95,-2.38,38362.25,528.84,-1.23,75255.84,2692.73,0.17,12637.61
369100,958.07,402.91,1.00,1,1,1,826.72,-2.67,52888.34,778.77,-2.81,20100.31,827.49,-2.38,5565.78,601.36,-2.35,19466.27,2315.94,0.11,13142.92
390900,942.01,401.19,1.00,1,1,1,740.73,-3.03,13609.50,338.20,-1.47,35567.30,158.08,2.13,40050.42,129.62,-2.20,21724.58,1669.14,0.07,29867.55
405600,959.32,390.63,1.00,1,1,1,1379.44,-0.55,137287.51,1369.95,0.65,107017.57,711.15,0.86,46311.97,162.27,3.02,10273.63,812.43,-0.22,62571.79
420300,974.05,425.60,1.00,1,1,1,2581.11,1.17,211025.29,1906.98,1.02,54392.80,1310.79,0.72,41857.35,131.72,1.51,13777.05,292.86,-1.12,45645.70
435000,988.68,438.39,1.00,1,1,1,1322.35,0.72,102609.38,1257.81,0.79,50516.84,952.81,1.08,36569.12,199.67,0.10,15039.77,262.19,-1.84,13462.73
449800,1000.26,451.86,1.00,1,1,1,1200.03,0.86,14635.15,108.24,2.54,86634.05,175.59,0.82,53001.56,430.63,0.30,16100.33,493.67,-0.08,40614.09
464700,986.03,440.21,1.00,1,1,1,1234.67,-2.46,162781.14,685.14,-2.37,45109.96,497.29,-1.70,43486.28,242.66,0.92,18343.86,1098.25,0.33,45288.56
486900,982.06,434.12,1.00,1,1,1,327.31,-2.15,41797.04,940.15,-1.62,28906.09,530.16,-1.76,2011.61,75.22,0.57,7845.46,1804.89,0.50,33655.65
501600,984.39,405.55,1.00,1,1,1,1949.89,-1.49,115860.03,695.69,-0.97,38716.33,400.84,-1.89,9703.30,368.38,-0.09,21252.10,2409.17,0.62,44405.12
516400,993.64,417.18,1.00,1,1,1,1003.54,0.90,187047.97,391.27,2.19,73439.50,57.91,-1.58,23392.76,1158.77,0.03,53698.97,2771.59,0.69,27391.79
531100,977.67,414.94,1.00,2,2,2,1096.80,-3.00,132722.43,597.53,2.28,14325.80,981.07,0.52,68786.89,2423.12,0.30,91189.14,2864.20,0.70,6415.95
546200,982.04,430.69,1.00,2,2,2,1082.41,1.30,120681.87,2040.99,0.32,154468.06,2493.15,0.24,103997.26,3866.96,0.47,101599.62,2518.76,0.59,30150.74
560600,1034.75,434.09,1.00,2,2,2,3668.37,0.06,240746.42,4761.49,0.15,192526.57,5085.64,0.36,182504.03,4771.24,0.65,81563.30,2475.83,0.51,14783.93
582800,1154.29,457.12,1.00,2,2,2,5483.67,0.19,85628.32,7514.80,0.37,137571.45,7365.37,0.48,107212.63,5155.61,0.73,24935.22,2229.97,0.44,13222.58
597600,1293.61,535.58,1.00,2,2,2,10803.91,0.51,396389.36,11078.18,0.65,293908.63,8142.00,0.66,108725.41,5500.51,0.69,26595.12,2206.22,0.41,4820.10
612200,1413.98,653.69,1.00,2,2,2,11550.37,0.78,207076.47,9679.57,0.94,225214.60,8588.17,0.88,128999.23,4613.00,0.59,69941.81,2105.20,0.38,8072.24
627100,1462.88,765.55,1.00,2,2,2,8193.51,1.16,335354.16,6868.05,1.26,256900.11,6538.39,0.98,146015.03,4333.60,0.55,22746.26,2102.96,0.42,5319.77
641500,1476.24,845.05,1.00,2,2,2,5598.07,1.40,213905.88,3383.40,1.09,248357.95,2499.13,0.86,282253.20,3255.04,0.56,74957.72,2047.66,0.40,4749.57
656200,1508.49,852.80,1.00,2,2,2,2256.33,0.24,350396.37,1525.09,-0.50,254106.56,1445.27,-0.00,129940.07,2043.42,0.52,82756.26,2108.91,0.37,5474.76
693100,1545.34,807.38,1.00,1,1,1,1585.07,-0.89,57625.08,2185.17,-0.89,26235.45,1675.04,-0.86,35590.68,805.12,0.03,37438.28,2093.09,0.30,4165.51
707700,1579.37,765.39,1.00,1,1,1,3701.87,-0.89,144985.95,2060.11,-1.17,41023.26,1796.78,-1.22,43119.29,847.01,-0.99,55707.65,1882.16,0.32,14627.72
737400,1581.24,723.48,1.00,1,1,1,1412.64,-1.53,90893.83,1689.37,-1.72,36466.01,1834.66,-1.58,21898.98,1287.38,-1.28,17844.32,1478.83,0.40,14423.55
752100,1568.30,691.21,1.00,1,1,1,2365.50,-1.95,83476.69,2021.79,-2.08,50665.22,1499.86,-1.92,44691.11,1354.43,-1.41,13064.12,963.31,0.71,43221.25
774500,1544.58,658.04,1.00,1,1,1,1820.21,-2.19,32895.11,1372.98,-2.21,30579.33,1360.15,-2.09,12475.04,1424.22,-1.52,6958.97,774.25,1.49,30253.79
789300,1537.69,650.32,1.00,1,1,1,699.33,-2.30,76177.98,525.53,-2.12,57515.61,922.00,-2.00,30331.86,1181.71,-1.75,26581.62,1155.45,1.97,39815.38
803900,1536.53,644.86,1.00,1,1,1,382.55,-1.78,28303.80,535.87,-1.25,30730.33,875.34,-1.34,40147.58,794.92,-1.91,28504.59,1665.00,2.14,38704.24
818700,1542.71,635.39,1.00,0,0,0,764.22,-0.99,38106.21,1424.25,-1.08,60857.53,839.77,-1.34,2402.87,527.95,2.76,65603.34,2388.31,2.22,50011.90
833400,1556.47,607.87,1.00,2,2,2,2092.48,-1.11,90896.02,1146.98,-1.38,32435.47,344.90,-1.16,34301.16,1955.22,2.05,108451.93,3206.81,2.24,55800.36
848100,1549.07,602.27,1.00,2,2,2,631.05,-2.49,140919.58,517.91,2.16,111299.18,1365.64,2.02,116348.78,3737.21,2.02,121327.11,3620.34,2.24,28138.62
870500,1545.74,623.81,1.00,2,2,2,973.17,1.72,61996.41,3323.53,1.95,125858.66,4454.64,2.00,137915.35,5442.98,2.06,76556.00,3954.54,2.24,14957.94
885400,1502.96,717.34,1.00,4,4,4,6902.52,2.00,400795.37,9482.47,1.99,413652.01,7774.64,2.00,222830.02,7084.14,2.10,111756.28,3661.02,2.20,21481.00
899600,1432.47,875.44,1.00,4,4,4,12189.81,1.99,372395.58,13486.26,2.01,282420.46,11997.56,2.06,299919.24,7871.42,2.13,57251.90,3227.78,2.21,30519.31
914500,1334.64,1071.86,1.00,4,4,4,14727.73,2.03,174605.00,14491.66,2.10,102574.43,13609.99,2.11,118806.20,8315.71,2.13,29819.37,2978.64,2.27,20740.10
929300,1216.51,1247.74,1.00,4,4,4,14314.90,2.16,129835.75,13861.90,2.21,116072.27,11316.91,2.18,164870.31,8641.74,2.16,26102.74,2752.89,2.37,24710.43
943900,1091.76,1399.12,1.00,4,4,4,13436.05,2.26,110666.13,8857.66,2.29,348436.45,8981.11,2.24,165932.79,6738.44,2.17,130464.33,2463.63,2.44,23961.05
966200,1000.74,1493.24,1.00,4,4,4,5871.26,2.34,340700.16,5134.75,2.32,167162.71,5813.30,2.34,145179.46,4236.24,2.26,114721.00,2338.98,2.54,11751.20
981000,962.02,1538.62,1.00,4,4,4,4030.41,2.28,126063.75,2065.55,2.58,215226.39,1853.36,2.44,268580.31,2577.79,2.55,128252.47,2197.30,2.61,14585.08
995600,949.26,1525.45,1.00,4,4,4,1256.17,-2.34,296811.50,1039.35,-1.24,201976.87,945.21,-1.65,172637.20,1546.62,-2.94,127854.05,2053.12,2.79,27677.97
1024800,977.01,1495.63,1.00,4,4,4,1395.07,-0.82,62630.01,1964.36,-1.23,31682.45,2469.55,-1.45,53275.62,1749.65,-1.96,53176.07,1794.79,3.13,23791.32
1061700,993.23,1403.28,1.00,4,4,4,2541.09,-1.40,42471.46,3718.38,-1.50,51633.65,3457.00,-1.50,27069.07,2702.29,-1.66,31532.09,1750.84,-2.65,23900.37
1076000,990.20,1305.71,1.00,4,4,4,6826.42,-1.60,305538.42,7122.14,-1.67,245960.04,3991.30,-1.58,42529.28,3357.53,-1.57,49277.55,2038.99,-2.20,63145.47
1090800,971.91,1197.13,1.00,4,4,4,7440.12,-1.74,77412.62,4331.63,-1.66,188643.63,4773.91,-1.66,57368.45,3899.50,-1.55,36980.16,2440.90,-1.87,55669.36
1120500,973.45,1113.68,1.00,2,2,2,2810.04,-1.55,158476.17,3458.72,-1.63,29548.51,4427.38,-1.65,11753.83,4750.98,-1.59,29317.84,2833.06,-1.68,21689.86
1142700,960.49,1017.98,1.00,2,2,2,4350.12,-1.71,73429.36,4543.59,-1.63,48868.67,4426.59,-1.59,11164.29,5548.05,-1.61,36103.92,3269.83,-1.58,24075.58
1157400,962.99,946.35,1.00,2,2,2,4875.88,-1.54,63937.80,6152.89,-1.55,113829.67,5846.48,-1.60,96654.64,5224.70,-1.59,22551.95,3444.67,-1.53,16138.89
1172000,964.87,837.76,1.00,2,2,2,7439.11,-1.55,175711.74,7481.53,-1.58,92009.26,6630.03,-1.56,56589.51,4535.83,-1.54,50162.39,3435.77,-1.54,1683.98
1186900,961.89,725.65,1.00,1,1,1,7526.65,-1.60,22774.68,7104.73,-1.57,25519.05,6347.42,-1.54,20304.06,4410.83,-1.53,8989.78,3494.66,-1.56,6968.37
1201500,965.30,628.17,1.00,1,1,1,6680.88,-1.54,65151.36,5212.31,-1.49,133441.51,4682.77,-1.49,115875.73,4088.46,-1.51,23222.89,3431.86,-1.57,5326.96
1216100,973.78,573.91,1.00,1,1,1,3761.10,-1.42,204192.22,2809.74,-1.32,170652.28,3024.45,-1.40,115837.30,3575.17,-1.48,35879.72,3118.87,-1.57,21495.67
1238500,991.09,527.46,1.00,1,1,1,2213.30,-1.21,73808.28,1396.56,-1.12,65479.21,1886.74,-1.35,51095.00,2785.47,-1.52,35618.42,2816.42,-1.53,14196.85
1253700,996.59,526.62,1.00,1,1,1,365.56,-0.15,135528.63,751.19,-1.47,48357.29,1208.27,-1.19,47324.11,1881.46,-1.47,59900.82,2569.30,-1.48,18807.64
1268400,993.43,505.12,1.00,1,1,1,1478.03,-1.72,103421.93,978.51,-1.31,18000.05,670.33,-1.74,49716.94,1226.20,-1.42,44815.83,2228.45,-1.45,23609.66
1283100,1004.05,498.83,1.00,1,1,1,839.37,-0.53,94953.71,652.08,-2.07,46261.16,634.23,-1.86,5548.92,916.35,-1.42,21085.24,1883.27,-1.42,23936.12
1297600,984.25,488.44,1.00,1,1,1,1542.02,-2.66,145338.76,670.97,-2.73,29341.61,583.15,-1.68,8279.03,789.15,-1.48,9663.53,1321.40,-1.38,38947.94
1312300,986.11,490.96,1.00,1,1,1,212.95,0.94,118096.85,602.26,-1.34,55456.39,708.59,-1.82,10451.46,653.66,-1.11,20286.17,962.46,-1.37,24453.02
1334600,989.31,466.74,1.00,1,1,1,1095.69,-1.44,56405.83,1032.45,-1.40,19393.61,928.38,-1.32,20457.41,419.67,-0.91,11510.98,602.91,-1.28,16389.93
1349300,992.66,453.32,1.00,1,1,1,940.40,-1.33,13165.16,1343.39,-1.30,22453.05,903.21,-0.68,39223.40,281.57,-0.57,12221.10,381.51,-1.24,15119.99
1363700,999.60,429.02,1.00,1,1,1,1755.10,-1.29,56652.99,1370.26,0.00,114617.38,621.08,-0.08,36309.76,323.22,-0.10,10352.93,227.44,-1.42,11305.77
1378500,1032.67,453.45,1.00,1,1,1,2778.15,0.64,254759.87,1474.66,0.93,86157.91,829.16,0.57,34190.35,246.62,-0.65,11730.51,302.88,-1.73,7519.61
1393100,1025.52,463.78,1.00,1,1,1,860.38,2.18,197488.15,890.51,1.54,61652.96,785.60,1.04,25976.94,167.73,-0.18,8517.77,229.24,-1.80,5170.20
1408000,1033.56,479.71,1.00,1,1,1,1197.68,1.10,73261.25,408.38,1.28,33964.30,291.64,2.43,52721.93,139.58,0.68,8709.08,266.86,-2.03,4598.54
1444500,1031.51,483.90,1.00,1,1,1,127.72,2.03,30827.51,421.31,-2.62,21125.67,113.66,-2.99,6416.61,209.74,1.53,4337.34,131.73,-1.67,4126.54
1459300,1014.86,468.88,1.00,1,1,1,1515.23,-2.41,105081.52,619.38,-2.23,18903.63,255.18,-2.66,10305.44,318.82,-2.90,28919.58,109.11,-1.64,1543.52
1488800,1014.76,462.16,1.00,1,1,1,227.64,-1.59,46460.27,92.53,-2.84,18517.19,457.58,-2.54,6992.46,320.81,-2.69,2246.81,22.65,-1.32,2981.91
1511100,1010.28,467.45,1.00,1,1,1,310.88,2.27,22651.19,377.02,3.09,13099.82,526.57,-2.43,3968.96,496.86,-2.48,8754.99,102.61,1.59,5594.66
1525500,1000.95,462.93,1.00,1,1,1,720.27,-2.69,49296.28,1311.95,-2.38,75704.64,629.70,-2.61,10248.88,434.81,-2.57,5191.92,372.79,1.67,18790.86
1540300,982.63,440.94,1.00,1,1,1,1933.85,-2.27,88635.72,1054.77,-2.36,17416.51,933.52,-2.39,23468.00,221.77,-2.83,15427.85,391.15,1.68,1272.75
1555000,978.81,441.07,1.00,1,1,1,260.12,3.11,121493.30,556.81,-2.42,34023.79,404.01,-2.61,37145.00,179.98,-3.07,4293.23,513.37,1.09,19566.43
1569600,970.35,430.21,1.00,1,1,1,943.16,-2.23,56009.31,339.05,1.40,58035.24,272.50,1.51,41156.02,190.49,2.44,9544.88,711.45,0.69,21225.10
1584300,980.49,450.86,1.00,1,1,1,1565.29,1.11,169799.78,859.52,1.13,36729.34,343.81,1.01,11326.06,587.43,1.73,31315.73,958.68,0.38,24417.11
1606500,983.76,458.94,1.00,1,1,1,392.92,1.19,52870.62,381.29,0.74,23765.97,853.52,1.18,23323.05,1037.34,1.27,25789.54,1145.53,0.32,8810.87
1621500,990.94,460.45,1.00,1,1,1,489.00,0.21,28237.89,848.57,1.24,36270.69,1282.71,1.47,34975.08,1533.04,0.93,43963.38,1244.13,0.39,8298.70
1636200,992.01,482.76,1.00,2,2,2,1519.49,1.52,100304.19,2578.62,1.59,123019.05,1908.06,1.24,49129.08,2183.84,0.69,53560.52,1230.70,0.34,3697.65
1650600,989.13,535.46,1.00,2,2,2,3665.58,1.63,149982.61,2989.40,1.24,74212.76,2888.75,0.92,85725.36,2418.40,0.41,46114.88,1217.36,0.35,1311.30
1665300,1020.45,564.97,1.00,2,2,2,2927.57,0.76,194429.39,4091.87,0.51,184516.82,3652.27,0.57,91686.17,2583.13,0.32,19448.50,1326.74,0.39,8143.03
1679900,1093.56,594.35,1.00,3,3,3,5396.49,0.38,196991.88,4897.33,0.27,92203.49,4343.40,0.16,122709.61,2591.99,0.37,7892.70,1339.08,0.33,5746.92
1702200,1194.53,613.50,1.00,1,1,1,4608.40,0.19,56025.26,4878.70,-0.08,76411.20,3775.99,0.03,34602.31,2364.21,0.28,13632.75,1220.86,0.36,5524.07
1717100,1274.49,580.13,1.00,1,1,1,5815.35,-0.40,215464.38,3126.49,-0.30,130773.05,2900.46,-0.02,59674.24,2117.49,0.14,26939.16,1138.71,0.35,5521.17
1746500,1326.96,572.95,1.00,1,1,1,1801.35,-0.14,139471.90,1250.20,0.17,71045.31,1670.68,-0.25,45190.21,1942.67,0.07,7822.07,1102.77,0.30,2401.75
1760900,1328.44,589.47,1.00,1,1,1,1151.30,1.48,151539.41,196.94,1.75,88030.27,570.77,0.07,79424.13,1545.17,-0.11,35323.83,1080.19,0.34,3551.58
1783200,1325.65,580.06,1.00,1,1,1,439.86,-1.86,71070.66,104.16,-1.48,13488.17,192.51,1.06,22018.65,789.28,-0.38,36254.46,1045.63,0.25,4384.46
1812700,1328.91,584.09,1.00,1,1,1,175.58,0.89,20538.45,249.95,0.62,10717.96,341.30,-1.04,15871.05,213.35,-0.19,19689.60,1143.11,0.13,5627.68
1827400,1334.62,586.51,1.00,1,1,1,422.16,0.40,19029.53,781.19,-0.94,55610.33,185.62,-1.64,14626.13,183.36,-2.57,25083.40,998.92,0.11,9975.64
1842100,1342.53,565.60,1.00,1,1,1,1520.99,-1.21,108465.59,507.00,-1.97,46135.60,252.78,-2.57,14034.93,224.93,-2.56,2835.62,741.90,0.04,17960.34
1879200,1324.50,562.28,1.00,1,1,1,494.22,-2.96,45312.23,610.48,2.91,19612.07,543.74,-2.41,8007.59,217.06,-2.58,255.49,314.49,-0.34,12496.52
1894200,1311.58,572.94,1.00,1,1,1,1116.47,2.45,58917.43,794.11,-2.91,24526.94,552.24,3.06,29105.99,28.72,-0.92,14772.31,356.73,3.08,44324.39
1908400,1301.91,557.02,1.00,1,1,1,1312.05,-2.12,129663.04,486.85,-2.89,21663.87,466.14,3.14,6777.28,89.72,2.09,8327.46,1118.15,-3.10,53804.28
1923100,1297.96,569.42,1.00,1,1,1,885.49,1.88,136595.10,241.26,2.30,29439.38,364.71,0.38,55501.70,282.80,2.04,13144.55,1634.54,-3.05,35428.22
1937800,1297.18,562.30,1.00,1,1,1,487.22,-1.68,91524.58,1196.55,0.33,89074.18,729.94,1.00,32814.52,356.32,2.68,14492.04,2009.45,-3.06,25508.11
1952600,1331.34,580.89,1.00,1,1,1,2628.00,0.50,198214.49,1268.84,0.86,43633.61,628.25,0.92,7881.31,1161.25,3.05,56592.08,2304.40,-3.00,21624.24
1975000,1328.05,598.01,1.00,2,2,2,778.05,1.76,111792.13,623.15,1.92,49349.20,351.27,2.15,27169.67,2359.30,3.13,53834.73,2305.04,-2.98,2294.24
1990000,1323.47,602.83,1.00,2,2,2,443.44,2.33,31352.05,1562.11,-2.79,112345.69,2464.03,3.11,152008.56,3495.19,-3.09,76624.41,2360.22,-3.00,5575.46
2004800,1284.33,582.02,1.00,2,2,2,2994.80,-2.65,196442.86,5355.21,-3.04,260813.73,5507.29,-3.03,209034.15,4120.64,-3.08,42306.14,2382.77,-2.98,4275.21
2019400,1166.85,586.71,1.00,3,3,3,8053.16,3.10,388499.56,9598.49,-3.06,290905.07,7974.72,-3.02,169005.43,4739.47,-3.00,48818.14,2250.66,-2.97,9224.61
2033900,1005.84,560.52,1.00,3,3,3,11249.78,-2.98,256883.08,10622.24,-3.02,78441.65,8126.15,-3.05,16557.39,4980.34,-2.96,23057.48,2017.23,-3.00,16624.47
2048500,860.20,547.83,1.00,1,1,1,10013.59,-3.05,100447.50,6970.73,-3.03,250197.34,7078.15,-2.94,89246.73,5048.30,-2.94,7127.31,1958.79,-2.97,4956.80
2070900,749.62,531.06,1.00,1,1,1,4993.16,-2.99,225024.27,4373.81,-2.81,127690.39,4538.31,-2.88,114451.80,4268.30,-2.94,34843.83,1871.49,-2.98,3912.30
2085800,705.96,494.66,1.00,1,1,1,3814.68,-2.45,176284.44,2022.90,-2.22,196398.24,2570.50,-2.72,137515.06,3222.18,-2.89,71268.42,4739.47,-3.00,192553.88
2100500,713.65,483.18,1.00,1,1,1,939.60,-0.98,260697.34,605.18,-1.68,104411.03,1174.54,-2.17,114208.58,1798.16,-2.84,97226.27,4980.34,-2.96,22743.77
2115200,704.08,476.96,1.00,1,1,1,776.83,-2.57,83528.69,607.90,-2.08,16341.29,346.70,-1.52,62772.54,851.66,-2.59,67583.81,5048.30,-2.94,7078.82
2144500,700.72,459.77,1.00,1,1,1,597.83,-1.76,19154.14,210.43,-1.27,16629.48,185.91,-0.64,9230.37,365.18,-1.75,22739.49,4268.30,-2.94,26638.29
2166800,707.34,466.61,1.00,1,1,1,426.73,0.80,44102.28,584.42,0.44,29035.05,402.55,-0.04,12117.11,346.70,-1.52,3723.09,3222.18,-2.89,47618.81
2196000,727.93,472.63,1.00,1,1,1,734.74,0.28,14397.22,826.19,0.25,9463.17,410.11,0.27,4245.17,185.91,-0.64,9261.98,1798.16,-2.84,48946.10
2210700,742.49,475.52,1.00,1,1,1,1010.15,0.20,19433.12,247.05,-0.22,41950.43,826.19,0.25,28315.66,402.55,-0.04,18381.74,851.66,-2.59,67583.81
2240300,738.60,470.19,1.00,1,1,1,223.25,-2.20,40003.35,223.25,-2.20,13274.25,247.05,-0.22,20833.49,410.11,0.27,4187.80,365.18,-1.75,22509.02
