@RELATION gaze_labels

%@METADATA width_px 1920
%@METADATA height_px 1080
%@METADATA width_mm 540.00
%@METADATA height_mm 254.00
%@METADATA distance_mm 620.00


@ATTRIBUTE time INTEGER
@ATTRIBUTE x NUMERIC
@ATTRIBUTE y NUMERIC
@ATTRIBUTE confidence NUMERIC
@ATTRIBUTE handlabeller1 INTEGER
@ATTRIBUTE handlabeller2 INTEGER
@ATTRIBUTE handlabeller_final INTEGER
@ATTRIBUTE speed_1 numeric
@ATTRIBUTE direction_1 numeric
@ATTRIBUTE acceleration_1 numeric
@ATTRIBUTE speed_2 numeric
@ATTRIBUTE direction_2 numeric
@ATTRIBUTE acceleration_2 numeric
@ATTRIBUTE speed_4 numeric
@ATTRIBUTE direction_4 numeric
@ATTRIBUTE acceleration_4 numeric
@ATTRIBUTE speed_8 numeric
@ATTRIBUTE direction_8 numeric
@ATTRIBUTE acceleration_8 numeric
@ATTRIBUTE speed_16 numeric
@ATTRIBUTE direction_16 numeric
@ATTRIBUTE acceleration_16 numeric

%The number after speed, direction denotes the step size that was used for the calculation.
%Acceleration was calculated between two adjacent samples of the already low pass filtered velocity

@DATA
0,675.00,341.29,1.00,1,1,1,0.00,0.00,0.00,293.41,-0.91,0.00,497.62,-1.60,0.00,266.62,-1.33,0.00,12.07,2.01,0.00
22100,678.96,336.15,1.00,1,1,1,293.41,-0.91,13276.61,497.62,-1.60,14852.66,938.40,-1.97,22905.70,230.52,-1.55,2949.37,168.84,-2.38,7829.95
36800,674.45,322.99,1.00,1,1,1,946.57,-1.90,55899.72,938.40,-1.97,34436.45,266.62,-1.33,50373.12,316.39,1.57,37203.26,16.22,3.07,10778.56
51500,668.31,310.70,1.00,1,1,1,934.47,-2.03,8624.24,164.30,0.24,71047.97,230.52,-1.55,4434.09,467.14,1.42,11032.36,549.28,0.72,38146.84
66200,679.15,324.13,1.00,1,1,1,1174.13,0.89,142624.68,553.50,0.83,29053.87,316.39,1.57,37203.26,12.07,2.01,31101.97,1003.59,0.59,31596.58
80700,679.20,322.64,1.00,1,1,1,102.67,-1.54,86458.48,617.39,1.84,39094.97,467.14,1.42,11184.53,168.84,-2.38,11933.92,1645.28,0.51,44888.27
95400,674.40,341.53,1.00,1,1,1,1325.13,1.82,96979.40,530.80,1.89,6284.74,290.72,1.82,15706.33,16.22,3.07,10778.56,2177.51,0.39,39282.94
117500,673.01,341.17,1.00,1,1,1,65.25,-2.89,60031.85,32.79,1.64,22584.00,233.54,-3.07,15304.76,549.28,0.72,25373.69,2160.81,0.33,5881.25
132300,674.32,342.73,1.00,1,1,1,137.79,0.87,13144.01,735.71,-2.01,51653.44,279.44,-1.68,22359.54,1003.59,0.59,31383.09,1029.77,0.24,76925.35
147000,663.75,321.54,1.00,1,1,1,1610.93,-2.03,118720.02,672.05,-1.67,16969.33,834.31,0.31,66718.46,1645.28,0.51,44277.55,1066.70,0.25,2646.70
161600,672.43,323.13,1.00,2,2,2,604.65,0.18,139195.42,2249.81,0.55,185548.82,1759.02,0.46,64660.24,2177.51,0.39,39552.00,1101.92,0.29,3732.44
176200,719.68,356.01,1.00,2,2,2,3942.21,0.61,232943.55,2978.32,0.57,50039.59,3177.61,0.48,97203.53,2160.81,0.33,8902.44,1089.96,0.35,4495.93
213200,801.53,406.52,1.00,1,1,1,2599.45,0.55,36601.48,3710.99,0.46,22363.69,4077.82,0.44,24692.98,1875.35,0.24,9207.76,1028.96,0.31,2063.04
227400,890.12,439.98,1.00,1,1,1,6669.02,0.36,292037.50,6116.69,0.32,175392.20,2973.75,0.33,81908.66,2007.14,0.29,11419.77,1282.90,0.37,18499.67
242300,970.35,462.92,1.00,1,1,1,5600.51,0.28,79337.80,2223.74,0.09,267291.96,2076.08,0.04,77058.36,1964.62,0.29,2908.66,1682.29,0.31,27481.70
272000,988.86,449.29,1.00,1,1,1,773.72,-0.63,173867.83,951.13,-1.60,85106.70,1094.29,-0.31,37584.01,1543.44,0.25,14360.18,2332.71,0.31,21905.28
293800,968.69,413.96,1.00,1,1,1,1866.12,-2.09,88794.22,1072.76,-1.95,16712.76,609.39,-1.44,45958.77,1137.32,0.04,22471.19,2779.52,0.31,20511.73
308400,974.54,412.97,1.00,1,1,1,406.00,-0.17,139812.21,270.03,0.01,82194.06,629.81,-2.29,35062.81,951.83,0.11,13520.31,3049.08,0.34,19505.22
323200,976.63,414.02,1.00,1,1,1,158.42,0.47,19849.73,479.61,2.76,49790.11,142.96,-3.10,36538.74,1210.20,0.15,17752.87,2950.50,0.31,8659.54
337900,961.38,418.18,1.00,2,2,2,1075.19,2.87,81476.63,551.70,-3.12,14820.79,1076.47,0.71,81068.75,2534.38,0.30,91632.41,2604.50,0.29,23831.57
352900,960.25,413.61,1.00,2,2,2,313.91,-1.81,75142.81,2407.80,0.54,193439.20,2801.78,0.42,119818.99,3955.80,0.35,95394.34,2421.41,0.23,15902.55
367500,1022.67,454.57,1.00,2,2,2,5113.29,0.58,366292.72,5476.33,0.39,213257.24,5596.06,0.35,192272.40,4398.69,0.37,30861.22,2011.47,0.18,29212.77
389700,1146.62,490.29,1.00,1,1,1,5810.74,0.28,79833.85,8207.07,0.31,125312.03,7620.22,0.34,91244.29,4223.76,0.32,11856.20,1673.12,0.12,15952.53
404200,1309.41,546.76,1.00,1,1,1,11883.15,0.33,419896.62,10335.50,0.31,146790.48,7437.81,0.32,15989.01,3899.47,0.31,22661.51,1668.26,0.15,3741.56
418900,1434.04,582.32,1.00,1,1,1,8816.79,0.28,212202.85,6476.18,0.34,263151.30,5859.32,0.27,110288.19,3801.96,0.29,8689.92,1833.65,0.22,13651.42
433500,1488.17,610.42,1.00,1,1,1,4176.79,0.48,328559.87,1503.22,-0.03,349599.60,2225.85,0.19,249528.31,3133.94,0.20,50457.44,1857.93,0.26,5339.43
448400,1478.37,581.05,1.00,1,1,1,2077.33,-1.89,392600.34,1314.14,-2.33,172900.42,417.96,-1.23,147804.93,2220.91,0.10,63831.41,1762.09,0.29,7858.35
470600,1454.44,575.20,1.00,1,1,1,1109.52,-2.90,79190.79,1159.75,-2.52,12540.82,1418.06,-2.23,56083.18,870.45,-0.31,65789.78,1908.72,0.27,6994.86
485400,1443.42,556.16,1.00,1,1,1,1487.04,-2.10,72734.49,1566.75,-2.12,45421.64,1283.32,-2.28,10312.54,576.52,-1.81,68381.75,1819.03,0.28,6374.99
500100,1430.20,535.85,1.00,1,1,1,1648.09,-2.15,12314.80,1521.14,-2.06,7762.79,1259.10,-2.16,10689.32,800.23,-2.24,24730.60,1344.54,0.16,34909.29
514600,1422.74,516.85,1.00,1,1,1,1408.20,-1.94,26981.00,951.61,-2.23,41818.98,875.60,-2.12,26662.03,335.69,-2.54,33858.14,482.64,0.05,59747.35
529300,1413.22,513.86,1.00,1,1,1,678.88,-2.84,75898.49,254.42,-2.49,48198.26,107.90,-2.32,52395.24,161.03,-1.11,23991.24,815.19,-2.69,86587.70
544000,1416.81,512.29,1.00,1,1,1,267.04,-0.41,61051.64,708.99,0.94,65025.49,478.79,1.19,39511.63,127.54,0.14,11565.54,2000.41,-2.80,81183.42
559500,1425.84,531.16,1.00,1,1,1,1349.65,1.12,88203.30,874.13,1.11,13575.01,804.35,0.67,29253.94,212.27,-2.45,21120.87,2779.86,-2.78,50336.10
596300,1437.30,553.15,1.00,1,1,1,674.02,1.09,18380.58,881.40,0.55,13061.81,679.02,0.79,4100.18,854.61,-3.00,18559.11,2991.67,-2.80,5894.70
611100,1464.58,554.98,1.00,2,2,2,1847.28,0.07,108339.16,594.79,0.22,25303.44,277.66,-2.48,64539.22,1982.59,-2.92,76496.57,2744.65,-2.78,17252.51
640600,1463.04,558.82,1.00,2,2,2,140.42,1.95,64257.32,1628.28,-2.55,74316.10,2004.50,-2.79,59059.44,3314.73,-2.91,45174.59,127.54,0.14,97252.78
655300,1404.92,514.73,1.00,2,2,2,4962.56,-2.49,340229.25,5144.78,-2.81,244531.33,4737.81,-2.85,186360.24,4423.50,-2.86,76690.98,212.27,-2.45,22270.31
677200,1285.22,496.87,1.00,2,2,2,5526.20,-2.99,121293.56,8610.22,-2.91,161601.21,9025.94,-2.85,195807.48,5817.60,-2.81,64379.63,854.61,-3.00,31186.08
691800,1098.73,443.90,1.00,3,3,3,13278.43,-2.86,536301.27,13866.61,-2.87,361511.88,10470.96,-2.87,99787.71,5392.50,-2.80,29339.38,1982.59,-2.92,77544.47
706600,892.43,387.70,1.00,1,1,1,14447.24,-2.88,79616.53,12792.91,-2.83,80428.93,11074.01,-2.82,54218.02,9025.94,-2.85,246460.86,3314.73,-2.91,90043.95
721300,739.29,328.89,1.00,1,1,1,11159.35,-2.77,239975.21,8319.02,-2.74,311711.51,6204.43,-2.76,332759.06,10470.96,-2.87,99108.89,4423.50,-2.86,76690.98
735900,668.47,291.51,1.00,1,1,1,5485.34,-2.66,393824.26,1131.62,-2.10,509700.55,8319.02,-2.74,145507.16,11074.01,-2.82,54960.73,5817.60,-2.81,96569.44
757700,718.62,293.26,1.00,1,1,1,2301.99,0.04,349711.62,2301.99,0.04,140268.95,1131.62,-2.10,341359.09,6204.43,-2.76,224383.41,5392.50,-2.80,19649.31
