@RELATION gaze_labels

%@METADATA width_px 1920
%@METADATA height_px 1080
%@METADATA width_mm 540.00
%@METADATA height_mm 254.00
%@METADATA distance_mm 620.00


@ATTRIBUTE time INTEGER
@ATTRIBUTE x NUMERIC
@ATTRIBUTE y NUMERIC
@ATTRIBUTE confidence NUMERIC
@ATTRIBUTE handlabeller1 INTEGER
@ATTRIBUTE handlabeller2 INTEGER
@ATTRIBUTE handlabeller_final INTEGER
@ATTRIBUTE speed_1 numeric
@ATTRIBUTE direction_1 numeric
@ATTRIBUTE acceleration_1 numeric
@ATTRIBUTE speed_2 numeric
@ATTRIBUTE direction_2 numeric
@ATTRIBUTE acceleration_2 numeric
@ATTRIBUTE speed_4 numeric
@ATTRIBUTE direction_4 numeric
@ATTRIBUTE acceleration_4 numeric
@ATTRIBUTE speed_8 numeric
@ATTRIBUTE direction_8 numeric
@ATTRIBUTE acceleration_8 numeric
@ATTRIBUTE speed_16 numeric
@ATTRIBUTE direction_16 numeric
@ATTRIBUTE acceleration_16 numeric

%The number after speed, direction denotes the step size that was used for the calculation.
%Acceleration was calculated between two adjacent samples of the already low pass filtered velocity

@DATA
0,678.33,365.58,1.00,1,1,1,0.00,0.00,0.00,2015.97,2.70,0.00,1406.18,2.78,0.00,833.37,2.95,0.00,499.74,2.03,0.00
14700,651.55,378.27,1.00,1,1,1,2015.97,2.70,137140.51,1406.18,2.78,42546.43,494.55,-3.08,66337.14,439.02,2.14,41947.48,261.75,1.40,22142.30
29400,639.64,380.14,1.00,1,1,1,820.30,2.99,85092.86,494.55,-3.08,66337.14,833.37,2.95,25511.09,219.32,1.58,18988.19,232.68,1.17,4398.72
44700,636.74,377.40,1.00,1,1,1,260.46,-2.39,45242.69,371.63,-2.67,13983.90,439.02,2.14,40302.48,627.04,1.40,26989.96,64.40,2.39,14333.57
59500,629.67,375.07,1.00,1,1,1,503.33,-2.82,19558.09,773.77,1.54,67961.88,219.32,1.58,18859.89,499.74,2.03,24705.03,108.25,2.69,3406.47
74200,637.39,400.22,1.00,1,1,1,1789.55,1.27,144256.79,594.64,1.11,23204.16,627.04,1.40,28091.60,261.75,1.40,22142.30,714.43,0.51,53186.20
96700,639.48,394.90,1.00,1,1,1,254.14,-1.20,88653.05,523.54,1.24,4562.19,772.12,1.15,10059.38,232.68,1.17,2873.83,2052.37,0.39,59770.47
111500,643.67,418.71,1.00,1,1,1,1633.83,1.40,125371.37,996.39,1.19,32069.21,334.69,0.50,36956.10,64.40,2.39,14817.81,2930.44,0.28,62293.89
126300,650.53,422.24,1.00,1,1,1,521.40,0.48,93413.50,524.58,-0.53,80465.26,286.74,0.81,7337.75,108.25,2.69,3406.47,1993.97,0.37,64868.74
141100,657.08,410.89,1.00,1,1,1,885.73,-1.05,67972.09,505.58,-1.53,33376.58,504.64,-1.94,52540.99,714.43,0.51,52826.83,2066.36,0.25,16778.20
156000,651.18,407.24,1.00,1,1,1,465.69,-2.59,66321.80,853.04,-2.35,42286.33,656.39,-2.29,16921.45,2052.37,0.39,90257.42,1862.57,0.22,14127.14
186100,630.08,383.61,1.00,2,2,2,1052.64,-2.30,20615.46,847.54,-2.53,5072.41,1026.16,0.51,55127.71,2930.44,0.28,30629.55,1988.72,0.26,4779.79
207800,615.21,382.06,1.00,2,2,2,688.60,-3.04,32913.84,3314.44,0.60,191793.25,3359.35,0.37,108186.93,3673.17,0.26,34401.08,2059.41,0.21,5262.73
222600,730.12,451.63,1.00,3,3,3,9075.87,0.54,655613.67,10708.87,0.40,505746.14,5925.38,0.34,173567.31,3592.17,0.20,15349.60,1989.54,0.19,5613.06
237300,905.95,505.65,1.00,3,3,3,12513.03,0.30,293956.89,8189.03,0.26,194443.20,8334.09,0.31,164802.56,3096.83,0.18,33960.42,1912.05,0.18,5714.22
267000,1081.70,544.31,1.00,1,1,1,6059.05,0.22,218615.77,6824.50,0.20,47900.06,6218.51,0.15,80807.66,3757.02,0.25,23512.62,1863.36,0.12,3654.98
281700,1202.68,567.01,1.00,1,1,1,8373.43,0.19,158159.99,4060.46,-0.12,221092.07,2974.02,-0.00,224949.62,4115.80,0.20,27479.26,1995.50,0.14,9125.25
304000,1230.81,525.99,1.00,1,1,1,2230.82,-0.97,347367.18,1208.92,-1.74,192471.94,1712.33,-0.09,57306.30,3248.25,0.13,40636.64,2227.18,0.21,12286.63
333500,1192.05,505.30,1.00,1,1,1,1489.47,-2.65,95462.83,285.60,2.67,44823.82,861.56,-1.02,46686.60,1872.71,-0.03,48476.70,2382.90,0.20,5305.99
347900,1219.65,531.69,1.00,1,1,1,2652.11,0.76,285149.15,1634.45,0.05,131029.47,139.82,-1.60,52022.37,909.09,-0.43,75905.09,2655.67,0.23,19954.17
362500,1239.38,507.86,1.00,1,1,1,2119.20,-0.88,240499.03,645.18,-0.98,96927.34,301.76,-0.48,18629.94,529.19,-0.94,35313.72,2661.68,0.21,4393.68
377900,1230.49,515.66,1.00,2,2,2,767.87,2.42,187008.94,859.68,-2.76,76649.22,694.99,-1.93,47016.79,636.43,0.26,42910.46,2155.07,0.14,34741.77
399600,1209.74,496.08,1.00,2,2,2,1314.66,-2.39,67220.84,1055.70,-2.36,19877.93,151.78,-0.37,32727.81,1373.39,0.26,33962.33,1558.06,0.08,27982.78
414200,1203.36,488.59,1.00,3,3,3,673.81,-2.28,44456.71,1361.06,0.21,158760.87,1403.74,0.36,88688.92,1238.46,0.19,11203.31,963.82,-0.00,41261.63
428900,1248.78,504.22,1.00,1,1,1,3267.34,0.33,262756.70,4349.13,0.49,208452.27,2672.39,0.35,86331.40,972.25,0.27,19034.22,488.09,-0.40,37176.69
443700,1316.83,548.47,1.00,1,1,1,5484.69,0.58,165321.70,3983.77,0.39,35774.10,3101.44,0.40,31156.81,875.12,0.19,8224.88,463.96,-0.07,10487.71
458600,1358.05,549.58,1.00,1,1,1,2767.58,0.03,231033.43,1912.05,0.22,142595.50,1822.20,0.32,86972.86,1196.50,0.30,22902.30,895.93,0.19,31201.34
473500,1372.41,561.04,1.00,1,1,1,1232.45,0.67,129672.73,259.25,-0.89,121664.15,445.08,-0.38,101277.37,1207.11,0.37,5741.16,1030.06,0.17,9160.01
495500,1364.06,542.14,1.00,1,1,1,939.13,-1.99,95915.24,993.31,-2.44,46415.69,148.06,-2.04,21850.66,617.24,0.15,28225.13,1269.31,0.31,13173.77
510400,1344.38,537.41,1.00,1,1,1,1358.11,-2.91,72888.39,351.59,-3.01,48445.55,494.40,-2.58,25219.72,385.46,-0.71,31304.88,1333.98,0.26,5955.72
525500,1353.61,540.73,1.00,1,1,1,649.15,0.35,132755.31,211.92,1.53,29179.81,796.76,-2.54,20105.56,456.68,0.00,19935.38,1510.81,0.23,12103.83
539800,1344.63,543.64,1.00,1,1,1,659.93,2.83,86626.66,1308.83,-2.41,102386.30,381.08,-1.15,57253.37,833.37,0.14,26962.08,1349.72,0.18,12349.68
554400,1325.41,515.52,1.00,2,2,2,2332.81,-2.17,153268.08,954.68,-1.25,87602.84,998.86,0.14,66046.29,1585.65,0.34,53919.39,834.51,0.14,35441.58
569300,1353.57,516.93,1.00,2,2,2,1891.91,0.05,254331.74,2697.93,0.35,193813.30,2127.18,0.23,76282.06,1771.37,0.30,13217.59,134.20,-1.94,60868.25
591200,1418.61,549.74,1.00,1,1,1,3326.55,0.47,80874.30,3839.06,0.43,53403.20,3672.65,0.39,73343.77,1798.03,0.19,8986.02,860.83,-3.06,37064.42
606100,1481.89,576.03,1.00,1,1,1,4598.77,0.39,87538.79,4880.07,0.41,70066.78,3034.94,0.39,42800.35,1488.10,0.06,25145.47,1512.35,-3.06,43729.30
621000,1551.79,608.16,1.00,1,1,1,5163.07,0.43,39780.11,2375.02,0.33,169115.05,2508.23,0.21,48740.75,1002.86,0.13,33058.95,1867.69,-3.08,24016.44
650500,1581.54,610.53,1.00,1,1,1,1011.62,0.08,143308.51,1187.91,-0.39,56950.24,1095.05,-0.17,52357.61,314.85,-3.06,44660.47,2004.09,-2.97,8623.77
665300,1600.46,588.15,1.00,2,2,2,1980.43,-0.87,109159.37,1024.13,-1.51,79651.30,1015.16,-2.31,125112.52,1992.10,-3.08,113333.62,2188.75,-2.85,21431.34
701600,1584.95,558.31,1.00,2,2,2,926.30,-2.05,50691.42,2447.45,-2.72,63280.85,3686.60,-2.80,78049.49,3437.64,-3.05,39886.19,2213.03,-2.77,4724.56
716400,1486.50,536.63,1.00,2,2,2,6811.87,-2.92,422872.09,9850.84,-2.98,507777.67,6135.33,-3.02,179798.02,4520.15,-3.01,73901.09,1966.73,-2.83,19055.16
730600,1302.97,512.55,1.00,2,2,2,13035.31,-3.01,441991.23,12875.81,-3.12,241193.87,9949.11,-3.09,270910.16,5602.64,-2.93,80680.99,314.85,-3.06,116966.02
745500,1111.87,529.83,1.00,2,2,2,12877.60,3.05,191786.48,10103.40,3.11,189262.25,9979.56,-3.10,8835.91,5986.37,-2.88,33404.18,1992.10,-3.08,112572.99
767600,929.28,522.68,1.00,2,2,2,8268.44,-3.10,217119.35,7695.74,-3.07,115926.95,7966.84,-3.00,99272.71,6959.00,-2.85,44477.45,3437.64,-3.05,65514.43
782300,829.41,509.39,1.00,1,1,1,6853.90,-3.01,107390.34,5852.08,-2.64,233244.23,5984.37,-2.69,197279.58,5588.07,-2.87,93610.28,4520.15,-3.01,74403.82
797100,778.31,438.94,1.00,1,1,1,5880.17,-2.20,344751.59,5722.99,-2.03,232063.60,4670.89,-2.27,176153.61,7966.84,-3.00,170877.24,5602.64,-2.93,77410.14
811800,754.12,358.28,1.00,1,1,1,5728.77,-1.86,132465.81,4431.34,-1.76,129097.63,2675.17,-1.89,162682.14,5984.37,-2.69,197279.58,5986.37,-2.88,33858.66
826000,754.72,313.06,1.00,1,1,1,3184.21,-1.56,201119.35,710.74,-0.73,289209.92,4431.34,-1.76,127875.52,4670.89,-2.27,183596.73,6959.00,-2.85,69221.95
848700,773.62,340.74,1.00,1,1,1,1476.44,0.97,197072.34,1476.44,0.97,75838.14,710.74,-0.73,180915.46,2675.17,-1.89,105349.23,5588.07,-2.87,60619.87
