%@metadata width_px 1920.0
%@metadata height_px 1080.0
%@metadata width_mm 540.0
%@metadata height_mm 254.0
%@metadata distance_mm 620.0
% The number after speed, direction denotes the step size that was used for the calculation.
% Acceleration was calculated between two adjacent samples of the already low pass filtered velocity
@RELATION gaze_labels

@ATTRIBUTE time INTEGER
@ATTRIBUTE x NUMERIC
@ATTRIBUTE y NUMERIC
@ATTRIBUTE confidence NUMERIC
@ATTRIBUTE handlabeller_final INTEGER
@ATTRIBUTE EYE_MOVEMENT_TYPE {UNKNOWN, FIX, SACCADE, SP, NOISE, BLINK, NOISE_CLUSTER, PSO}

@DATA
0,215.62,643.07,1.0,1,FIX
14600,184.74,669.67,1.0,1,FIX
29300,204.72,645.44,1.0,1,FIX
43900,182.73,666.61,1.0,1,FIX
58800,181.87,677.16,1.0,1,FIX
73500,149.54,679.74,1.0,1,FIX
95900,267.2,634.74,1.0,1,FIX
110300,247.16,654.39,1.0,1,FIX
139800,208.98,663.34,1.0,1,FIX
154500,216.65,643.76,1.0,1,FIX
176800,189.51,644.5,1.0,2,SACCADE
192200,199.27,641.71,1.0,2,SACCADE
206900,216.07,673.68,1.0,1,SP
221500,581.77,606.29,1.0,1,FIX
236300,740.08,615.36,1.0,1,FIX
265700,733.72,604.69,1.0,1,FIX
288000,731.1,617.27,1.0,1,FIX
317000,754.45,612.3,1.0,1,FIX
331600,751.91,599.2,1.0,2,SACCADE
363300,674.31,610.18,1.0,2,SACCADE
378000,672.82,601.27,1.0,2,SP
399800,960.96,573.58,1.0,1,FIX
414500,1122.73,560.6,1.0,1,FIX
429200,1158.32,561.23,1.0,1,FIX
443800,1018.41,606.0,1.0,1,FIX
458600,998.08,555.14,1.0,1,FIX
480900,1029.01,584.85,1.0,1,FIX
495400,1016.33,587.81,1.0,1,FIX
510100,1100.72,581.52,1.0,1,FIX
539500,1080.98,574.73,1.0,1,FIX
554100,1142.45,575.73,1.0,1,FIX
576300,1118.92,600.7,1.0,1,FIX
590900,1156.47,571.75,1.0,1,FIX
605700,1101.08,572.5,1.0,1,FIX
620200,1123.79,585.39,1.0,1,FIX
649600,1056.26,565.61,1.0,1,SACCADE
686100,1065.59,560.77,1.0,2,SACCADE
700900,1067.06,554.05,1.0,3,SP
715600,1231.63,512.84,1.0,1,FIX
752600,1355.9,566.37,1.0,1,FIX
767500,1356.25,559.0,1.0,1,FIX
782100,1339.97,587.75,1.0,1,FIX
796900,1334.23,588.24,1.0,1,FIX
811500,1288.63,547.04,1.0,1,FIX
826200,1311.79,542.92,1.0,1,FIX
848400,1353.85,544.23,1.0,1,FIX
862700,1334.46,564.05,1.0,2,SACCADE
892500,1304.84,543.76,1.0,2,SACCADE
907200,1307.32,554.14,1.0,3,SP
921900,1173.69,580.31,1.0,1,FIX
943600,946.67,601.08,1.0,1,FIX
958300,874.9,621.72,1.0,1,FIX
973100,899.18,605.0,1.0,1,FIX
988100,893.96,605.21,1.0,1,FIX
1017600,893.04,604.55,1.0,1,FIX
1039800,893.86,563.91,1.0,1,SACCADE
1069200,982.2,591.02,1.0,1,FIX
1084000,960.12,549.85,1.0,1,FIX
