@RELATION gaze_labels

%@METADATA width_px 1920
%@METADATA height_px 1080
%@METADATA width_mm 540.00
%@METADATA height_mm 254.00
%@METADATA distance_mm 620.00


@ATTRIBUTE time INTEGER
@ATTRIBUTE x NUMERIC
@ATTRIBUTE y NUMERIC
@ATTRIBUTE confidence NUMERIC
@ATTRIBUTE handlabeller1 INTEGER
@ATTRIBUTE handlabeller2 INTEGER
@ATTRIBUTE handlabeller_final INTEGER
@ATTRIBUTE speed_1 numeric
@ATTRIBUTE direction_1 numeric
@ATTRIBUTE acceleration_1 numeric
@ATTRIBUTE speed_2 numeric
@ATTRIBUTE direction_2 numeric
@ATTRIBUTE acceleration_2 numeric
@ATTRIBUTE speed_4 numeric
@ATTRIBUTE direction_4 numeric
@ATTRIBUTE acceleration_4 numeric
@ATTRIBUTE speed_8 numeric
@ATTRIBUTE direction_8 numeric
@ATTRIBUTE acceleration_8 numeric
@ATTRIBUTE speed_16 numeric
@ATTRIBUTE direction_16 numeric
@ATTRIBUTE acceleration_16 numeric

%The number after speed, direction denotes the step size that was used for the calculation.
%Acceleration was calculated between two adjacent samples of the already low pass filtered velocity

@DATA
0,290.23,641.33,1.00,1,1,1,0.00,0.00,0.00,512.58,2.59,0.00,91.92,2.56,0.00,309.68,-0.59,0.00,438.43,-0.76,0.00
14200,284.01,645.12,1.00,1,1,1,512.58,2.59,36097.15,91.92,2.56,29628.56,396.30,-0.55,34379.18,623.38,-0.60,22098.02,499.28,-0.81,4569.91
35900,287.47,643.14,1.00,1,1,1,183.51,-0.52,32075.53,396.30,-0.55,22496.97,309.68,-0.59,4031.53,819.38,-0.65,9143.23,489.29,-0.93,2762.46
50500,296.27,637.58,1.00,1,1,1,712.76,-0.56,36266.01,801.73,-0.59,27800.91,623.38,-0.60,21492.60,696.28,-0.72,9236.87,393.02,-1.16,9648.11
65200,307.04,630.15,1.00,1,1,1,890.41,-0.60,12275.04,912.65,-0.63,8015.36,819.38,-0.65,13497.14,438.43,-0.76,17598.29,301.54,-1.60,11966.99
79100,317.32,622.16,1.00,1,1,1,936.96,-0.66,5071.21,840.39,-0.71,6971.89,696.28,-0.72,9702.03,499.28,-0.81,4668.54,285.88,-2.11,10744.43
93900,325.40,614.51,1.00,1,1,1,751.60,-0.76,13678.34,532.25,-0.84,21653.42,576.28,-0.85,9855.19,489.29,-0.93,4050.36,318.74,-2.50,8253.35
115400,330.25,607.80,1.00,1,1,1,385.08,-0.94,17670.83,382.58,-1.11,8986.50,407.99,-1.12,9837.82,393.02,-1.16,6551.74,399.42,-2.75,5538.11
129400,331.45,602.35,1.00,1,1,1,398.75,-1.36,11454.24,332.70,-1.70,15188.42,299.62,-1.67,15736.18,301.54,-1.60,12565.34,210.71,-1.67,25215.22
144400,329.04,598.23,1.00,1,1,1,318.12,-2.10,18103.44,368.77,-2.42,16711.81,357.79,-2.37,15444.67,285.88,-2.11,9956.50,238.41,-1.59,2172.64
158200,323.47,595.34,1.00,1,1,1,454.72,-2.66,18229.72,502.94,-2.80,15299.13,429.78,-2.73,11492.89,318.74,-2.50,8851.42,266.14,-1.83,4765.50
173000,315.48,593.43,1.00,2,2,2,555.09,-2.91,10702.57,501.04,-2.91,3813.38,494.17,-2.89,6608.14,399.42,-2.75,8045.23,278.95,-2.22,7198.91
194200,305.89,591.27,1.00,3,3,3,463.33,-2.92,4337.68,490.16,-2.97,1339.57,488.06,-2.97,1887.41,380.29,-2.83,1673.57,295.09,-2.39,2452.37
208700,298.24,590.40,1.00,1,1,1,531.13,-3.03,5955.72,474.27,-3.05,3009.46,475.08,-3.00,1363.21,350.12,-2.77,2521.41,316.02,-2.56,3735.66
222800,292.38,590.05,1.00,1,1,1,416.15,-3.08,8358.72,457.03,-3.05,1225.04,334.68,-2.95,10078.31,404.84,-2.78,3891.07,289.20,-2.60,2124.06
237000,285.36,589.27,1.00,1,1,1,497.94,-3.03,6001.36,227.60,-2.78,17335.81,239.91,-2.56,10173.69,449.47,-2.90,4712.26,215.81,-2.52,5348.48
258300,284.84,587.17,1.00,1,1,1,101.51,-1.81,22178.24,191.76,-1.87,8762.55,352.08,-2.56,5266.08,404.36,-2.85,2361.96,138.53,-2.17,4620.44
286900,282.55,580.12,1.00,1,1,1,259.13,-1.88,5525.81,461.47,-2.47,11280.42,433.91,-2.81,4449.08,378.14,-2.83,939.00,159.91,-0.88,6282.89
301100,269.34,574.93,1.00,1,1,1,999.59,-2.77,60462.40,913.09,-3.05,41152.11,454.30,-2.79,1538.06,268.36,-2.69,8330.31,370.44,-0.38,17076.96
322300,250.35,577.24,1.00,1,1,1,902.15,3.02,22461.87,484.34,-3.05,20224.05,528.66,-2.95,5068.05,110.04,-1.88,9851.31,577.07,-0.27,10058.46
351200,245.17,572.76,1.00,1,1,1,237.20,-2.43,26416.01,228.28,-2.61,10182.01,199.62,-2.90,11398.32,189.73,-0.63,6458.81,852.37,-0.22,9603.30
365200,241.90,572.30,1.00,1,1,1,235.88,-3.00,9573.65,211.65,-0.25,29079.55,377.33,-0.18,40414.15,537.96,-0.23,26509.74,1084.29,-0.18,16799.88
387400,252.59,570.87,1.00,1,1,1,486.10,-0.13,32258.01,1037.90,-0.01,37561.09,982.73,-0.05,27486.96,1068.22,-0.13,24122.53,1293.57,-0.18,9429.12
401800,279.88,571.98,1.00,2,2,2,1896.66,0.04,98634.31,1954.45,-0.02,63668.32,1771.99,-0.08,54882.46,1594.88,-0.13,36573.85,1373.88,-0.17,5587.64
416300,309.06,569.51,1.00,2,2,2,2019.46,-0.08,18865.35,2697.27,-0.12,53286.70,2943.56,-0.09,80809.74,2317.97,-0.12,49887.40,1501.32,-0.16,8885.93
431000,358.11,562.80,1.00,2,2,2,3367.52,-0.14,92158.17,3939.09,-0.12,84490.15,3087.01,-0.12,11368.08,2796.83,-0.10,32656.01,1618.89,-0.13,8402.40
445200,422.04,555.50,1.00,3,3,3,4531.28,-0.11,82184.27,3405.79,-0.12,37564.92,3657.90,-0.13,40350.15,3337.53,-0.11,38132.92,1615.13,-0.11,2387.19
466700,478.81,548.21,1.00,1,1,1,2662.58,-0.13,86945.92,3433.10,-0.14,3779.12,3844.54,-0.11,9407.18,3138.67,-0.13,9545.75,1574.43,-0.12,1909.55
481300,544.71,537.88,1.00,1,1,1,4568.59,-0.16,130717.26,4390.54,-0.11,66327.33,3692.75,-0.13,11115.42,3128.54,-0.13,910.81,1491.16,-0.11,5817.45
495400,604.13,534.97,1.00,1,1,1,4218.83,-0.05,41414.53,4026.14,-0.11,25916.03,3190.51,-0.14,35684.06,2823.75,-0.12,21716.79,1403.50,-0.09,6397.71
509500,657.54,525.22,1.00,1,1,1,3850.88,-0.18,45768.06,2246.09,-0.19,127213.48,2595.38,-0.11,42471.50,2222.45,-0.11,42672.33,1476.92,-0.08,5354.84
531700,684.26,519.95,1.00,1,1,1,1226.92,-0.19,118204.52,1483.89,-0.12,34784.40,1815.53,-0.12,35135.39,1550.47,-0.11,30269.43,1370.48,-0.09,4833.80
545800,711.04,518.91,1.00,1,1,1,1900.11,-0.04,50632.00,1293.36,0.02,19078.77,783.61,-0.01,73791.92,664.22,-0.07,62901.20,1408.32,-0.08,2882.43
560600,721.63,520.70,1.00,1,1,1,726.20,0.17,80968.38,213.05,1.93,93139.18,327.96,2.69,73568.42,33.45,1.13,44118.37,1348.22,-0.06,4437.21
575000,708.87,524.74,1.00,1,1,1,930.30,2.83,111875.16,1928.62,3.00,127585.43,1239.80,2.98,64660.14,281.79,2.69,19672.56,1332.20,-0.05,1641.33
589000,667.38,528.20,1.00,1,1,1,2973.58,3.06,148343.27,2157.98,3.05,17866.43,1798.48,2.99,39906.04,250.53,2.59,2851.62,1403.36,-0.03,5276.76
611300,630.84,531.67,1.00,1,1,1,1646.01,3.05,59543.51,1698.26,2.97,21845.68,1322.93,2.95,21486.81,188.65,2.29,4077.41,1448.13,-0.01,2476.40
625700,605.98,538.91,1.00,1,1,1,1797.98,2.86,24880.94,403.21,2.15,100877.12,201.19,2.49,79548.98,192.08,0.69,18944.80,1470.38,-0.01,1544.71
640000,624.49,541.35,1.00,1,1,1,1305.73,0.13,212519.98,954.31,-0.00,85589.98,799.55,0.12,66719.80,616.54,0.13,32472.21,1458.95,0.00,1492.36
675500,653.50,538.71,1.00,1,1,1,820.62,-0.09,15109.71,1377.45,-0.03,11943.49,1498.63,0.01,20015.11,1300.59,0.03,19435.16,1485.10,0.00,749.02
689900,693.20,539.43,1.00,1,1,1,2757.12,0.02,134960.49,2129.13,0.01,52436.23,1938.43,-0.02,30707.64,2096.55,0.01,55357.26,1483.69,-0.01,1079.02
718500,745.05,539.97,1.00,2,2,2,1812.97,0.01,33017.93,2580.58,-0.01,15948.60,2898.97,-0.01,33588.19,2670.06,-0.02,20166.74,1455.26,-0.02,1032.40
733500,805.70,537.86,1.00,2,2,2,4046.07,-0.03,149098.89,3820.14,-0.03,82727.71,3395.23,-0.02,33103.88,2872.82,-0.03,13764.94,1530.49,-0.02,5049.26
754500,882.50,535.51,1.00,3,3,3,3658.77,-0.03,18460.30,4401.52,-0.02,27742.04,4333.32,-0.03,44719.21,3180.85,-0.04,14717.73,1676.38,-0.03,6987.36
768800,961.03,534.23,1.00,1,1,1,5492.55,-0.02,128312.46,4961.73,-0.03,39222.38,4223.52,-0.04,8242.40,3095.81,-0.06,6810.82,1823.50,-0.04,10338.02
783900,1028.31,531.25,1.00,1,1,1,4459.96,-0.04,68993.48,4011.66,-0.06,63742.28,3524.35,-0.07,46789.43,3047.58,-0.07,3719.83,1884.18,-0.05,4084.56
798200,1078.74,526.71,1.00,1,1,1,3540.37,-0.09,65539.57,2355.19,-0.13,116776.68,2740.26,-0.11,55625.21,2660.85,-0.07,27043.93,1857.62,-0.01,4822.89
819800,1112.12,520.07,1.00,1,1,1,1575.88,-0.20,91689.74,1706.55,-0.20,30672.56,1756.94,-0.15,45709.54,2188.30,-0.08,21967.68,2105.39,-0.01,11476.53
834000,1138.61,514.57,1.00,1,1,1,1905.35,-0.20,23224.16,1013.11,-0.20,48835.06,1106.80,-0.16,45793.21,1499.85,-0.12,48705.80,2177.98,-0.05,8157.37
848600,1140.70,514.18,1.00,1,1,1,145.33,-0.19,120550.88,377.68,0.07,44982.59,682.45,-0.18,29085.17,931.10,-0.14,38994.13,2332.23,-0.10,13308.34
863000,1149.54,515.29,1.00,1,1,1,619.13,0.13,33545.33,355.33,-0.11,4609.13,249.46,-0.23,30100.93,619.60,0.11,25257.35,2292.85,-0.13,4627.58
877600,1150.95,513.09,1.00,1,1,1,178.67,-1.00,38782.45,181.20,-0.74,16095.32,110.38,0.01,9891.34,844.62,0.14,15502.86,2128.60,-0.12,11299.91
898600,1154.32,510.95,1.00,2,2,2,190.13,-0.57,3851.85,91.07,2.79,12755.44,338.14,1.16,14740.15,1155.34,-0.03,16857.76,1604.05,-0.05,25682.89
913600,1147.87,514.23,1.00,2,2,2,482.11,2.67,44775.47,853.84,1.41,56085.05,1039.37,0.33,56555.30,1615.23,-0.17,33240.58,1156.05,0.18,36304.45
927400,1158.34,535.22,1.00,3,3,3,1698.90,1.11,127697.45,2457.58,0.30,160458.39,2065.11,-0.01,82307.01,1934.82,-0.21,23595.18,738.34,0.74,47869.32
941800,1214.15,534.48,1.00,3,3,3,3876.48,-0.01,242460.28,3678.21,-0.19,132036.67,3152.70,-0.18,81360.94,2074.16,-0.15,12278.68,850.83,1.55,44254.60
963300,1287.93,509.85,1.00,1,1,1,3617.46,-0.32,54956.29,4022.20,-0.40,40778.70,3808.47,-0.29,35733.10,1704.10,0.00,22084.57,1299.23,1.98,29397.30
977300,1345.48,478.44,1.00,1,1,1,4683.71,-0.50,92260.81,4022.18,-0.41,2182.44,3252.56,-0.30,39735.72,1427.97,0.36,44452.19,1718.49,2.11,32968.67
992000,1393.75,463.74,1.00,1,1,1,3432.47,-0.30,101631.53,2395.61,-0.09,129612.32,1408.38,0.02,133803.94,970.42,1.04,61599.99,1990.22,2.17,20037.61
1006500,1415.15,472.16,1.00,1,1,1,1586.01,0.37,165602.43,969.14,1.46,177062.05,1374.79,1.64,138825.06,1518.41,1.97,84270.69,2165.44,2.18,12183.61
1042200,1399.02,512.11,1.00,4,4,4,1206.69,1.95,56063.33,2771.81,2.16,59488.73,2620.32,2.21,46038.60,2914.61,2.28,43055.66,2222.43,2.15,2510.52
1056300,1338.28,586.81,1.00,4,4,4,6828.62,2.25,403301.72,4626.34,2.36,140512.66,4210.74,2.37,118846.73,4119.71,2.36,87394.18,2022.71,2.10,16259.86
1091200,1238.69,672.36,1.00,4,4,4,3761.91,2.43,91600.99,5756.60,2.47,36455.83,6899.28,2.44,77864.48,4786.41,2.39,19695.14,1615.98,2.01,12428.74
1105500,1116.62,763.11,1.00,4,4,4,10636.99,2.50,481784.80,10900.34,2.51,360259.80,7313.58,2.48,34764.11,5159.73,2.41,27055.22,1292.57,1.94,23652.94
1119400,991.35,854.88,1.00,4,4,4,11171.39,2.51,38833.16,10002.74,2.49,65350.57,8244.61,2.48,66983.94,5625.10,2.41,33484.97,1040.04,1.82,21027.19
1134000,889.51,935.43,1.00,4,4,4,8893.41,2.47,158047.91,6158.32,2.45,264319.33,6651.94,2.46,109861.27,4533.94,2.42,74754.87,785.40,1.54,24224.07
1155200,821.58,995.53,1.00,4,4,4,4278.56,2.42,218273.29,3939.44,2.38,105814.64,4090.50,2.35,123701.64,3162.95,2.34,65928.48,611.87,1.13,15875.38
1169000,789.46,1030.30,1.00,4,4,4,3429.88,2.32,67539.70,1671.05,1.85,191249.64,1275.57,1.94,214605.10,1005.60,1.89,166985.71,573.60,0.71,18084.85
1183000,808.75,1040.18,1.00,4,4,4,1547.78,0.47,294644.69,2603.96,-0.27,268609.82,2207.02,-0.25,223514.97,1814.23,-0.26,178918.63,609.54,0.41,12605.54
1197200,860.18,1010.52,1.00,4,4,4,4181.17,-0.52,252422.95,4728.45,-0.49,159127.65,5013.40,-0.47,203938.74,4066.61,-0.47,163787.61,759.70,-0.02,22983.09
1218600,957.07,960.57,1.00,4,4,4,5093.61,-0.48,43838.05,6950.68,-0.52,104196.28,7380.79,-0.54,112499.32,5867.06,-0.52,84928.64,1178.94,-0.30,23274.61
1233200,1076.75,885.18,1.00,4,4,4,9688.36,-0.56,317430.04,10680.88,-0.57,256632.34,9052.71,-0.56,115178.65,6870.37,-0.54,69233.57,1710.88,-0.44,38823.17
1247300,1215.88,796.30,1.00,4,4,4,11708.70,-0.57,143366.58,11756.49,-0.59,78691.48,9587.86,-0.58,39847.44,6176.60,-0.55,49460.58,2177.78,-0.49,33977.03
1261300,1351.28,701.42,1.00,4,4,4,11810.01,-0.61,36613.51,8701.04,-0.59,218273.52,8771.21,-0.58,58332.71,5487.67,-0.55,49211.48,2624.71,-0.54,32769.11
1282600,1470.30,624.23,1.00,4,4,4,6659.90,-0.58,242249.90,6395.83,-0.57,108661.11,5182.08,-0.56,168602.29,4905.51,-0.58,28276.99,3021.88,-0.56,18974.45
1296600,1541.74,580.17,1.00,4,4,4,5995.04,-0.55,48581.18,2275.02,-0.46,295789.71,2804.29,-0.52,170274.89,3916.82,-0.61,71190.39,2957.50,-0.58,5183.42
1325100,1556.95,581.34,1.00,4,4,4,535.52,0.08,195472.91,345.22,0.18,70500.61,1092.98,-0.57,60127.26,2538.70,-0.63,48434.87,2876.77,-0.61,4597.49
1346400,1558.64,583.30,1.00,1,1,1,121.33,0.86,21480.19,406.11,-2.91,35262.90,191.12,-2.03,51104.39,1534.99,-0.68,47320.55,2622.20,-0.64,12450.01
1361200,1542.69,577.97,1.00,1,1,1,1136.62,-2.82,83949.12,986.05,-2.53,42439.89,354.46,-2.27,11806.73,752.78,-0.85,54289.69,2234.36,-0.69,27756.76
1375700,1535.06,566.61,1.00,1,1,1,943.55,-2.16,47954.50,428.29,-1.78,50443.61,528.65,-1.82,17955.12,246.70,-1.39,38292.65,1661.90,-0.79,41600.15
1405000,1538.78,559.62,1.00,1,1,1,270.34,-1.08,29027.22,547.17,-1.07,12195.68,547.66,-1.44,6960.06,327.25,-2.06,6930.59,1024.04,-1.03,24249.06
1426300,1548.35,542.33,1.00,1,1,1,928.01,-1.06,30879.10,751.03,-1.19,10272.41,333.47,-1.11,11979.07,467.55,-2.36,8575.13,578.11,-1.71,31800.86
1439900,1548.43,535.25,1.00,1,1,1,520.51,-1.56,39065.16,116.55,-1.31,46725.31,317.06,-1.83,16889.81,534.20,-2.56,8919.17,711.92,-2.68,45115.00
1475500,1549.81,536.78,1.00,1,1,1,58.08,0.84,15857.97,333.33,-3.04,10396.37,556.29,-2.88,13583.85,725.35,-2.81,6987.08,1096.10,-2.98,13122.58
1489900,1531.84,533.61,1.00,2,2,2,1267.39,-2.97,91231.43,1525.54,-3.01,82808.01,965.18,-3.09,30415.81,1100.68,-2.93,27097.51,1252.12,-3.01,11149.49
1504100,1506.55,531.11,1.00,2,2,2,1789.50,-3.04,37644.63,2063.12,-3.11,39753.33,2131.76,-3.09,82157.44,1558.00,-3.06,34377.57,1240.39,-3.01,1085.93
1518700,1472.46,531.63,1.00,2,2,2,2335.72,3.13,40668.17,2731.96,-3.13,45907.05,2378.45,-3.09,16909.04,1880.95,-3.12,22974.80,1112.08,-3.00,8824.20
1533300,1426.79,529.92,1.00,3,3,3,3130.06,-3.10,55283.09,2629.06,-3.08,11269.25,2774.85,-3.11,27357.42,2738.91,-3.11,58766.72,978.77,-3.00,9146.38
1555000,1377.21,525.64,1.00,1,1,1,2293.28,-3.06,39023.85,2810.64,-3.10,8619.44,2996.74,-3.13,10498.39,2630.71,3.14,6204.16,956.70,-3.01,1025.57
1568900,1326.84,525.28,1.00,1,1,1,3623.94,-3.13,97121.92,3474.42,3.11,50913.48,3288.49,-3.13,21010.25,2319.45,3.13,22470.71,1039.77,-3.06,7104.69
1583400,1278.59,528.82,1.00,1,1,1,3336.57,3.07,27616.80,3891.84,3.12,28898.62,2893.01,3.09,29960.41,1896.91,3.14,29198.50,1186.10,-3.08,10215.37
1597300,1216.34,527.74,1.00,1,1,1,4479.09,-3.12,85957.69,2432.50,3.08,105429.26,1873.95,3.06,73515.80,1314.96,-3.13,41887.91,1609.60,-3.08,30468.87
1619200,1191.69,534.54,1.00,1,1,1,1167.42,2.87,154130.13,366.17,2.56,96847.70,798.69,3.08,49116.18,797.88,-3.12,23613.43,2000.05,-3.10,17882.63
1634100,1205.05,535.10,1.00,1,1,1,897.45,0.04,136935.27,1225.38,-0.08,104479.07,631.22,0.01,95917.71,467.00,-3.04,22446.16,2423.46,-3.12,28507.46
1648100,1227.00,531.75,1.00,1,1,1,1585.53,-0.15,51832.19,1876.28,-0.13,46877.94,1288.94,-0.13,47810.68,421.10,-2.90,5679.56,2782.07,-3.13,25685.89
1662200,1257.30,528.05,1.00,1,1,1,2165.37,-0.12,41310.45,1342.52,-0.17,38047.33,1000.13,-0.25,22616.16,552.11,-2.94,9394.89,3192.98,-3.14,29274.98
1683900,1274.38,523.71,1.00,1,1,1,812.02,-0.25,62848.00,362.50,-0.74,48630.39,251.40,-1.64,45429.91,1342.12,-3.01,36517.24,3244.29,3.13,3417.25
1697900,1266.89,519.36,1.00,1,1,1,619.14,-2.61,94781.86,1729.53,-2.98,141068.83,1738.66,-3.01,121920.14,2532.07,-3.08,85500.01,3128.17,3.11,9076.55
1712300,1225.93,515.65,1.00,1,1,1,2855.98,-3.05,160398.46,4215.12,-3.09,173935.76,4259.34,-3.10,175841.52,3584.50,-3.12,73534.81,421.10,-2.90,189259.84
1726500,1146.49,513.26,1.00,2,2,2,5596.86,-3.11,193763.19,6726.65,-3.13,177389.56,5970.00,-3.13,121027.71,4888.25,-3.14,92062.92,552.11,-2.94,9328.73
1741600,1028.86,512.81,1.00,2,2,2,7790.19,-3.14,145708.05,7360.12,3.14,43010.91,6497.16,3.13,35844.56,5245.58,3.12,24477.38,1342.12,-3.01,52478.42
1762700,880.06,514.85,1.00,2,2,2,7052.82,3.13,35480.26,6362.40,3.12,47575.14,7482.90,3.12,47039.40,5302.91,3.10,5987.78,2532.07,-3.08,56729.86
1790900,715.27,519.76,1.00,3,3,3,5846.17,3.11,42945.87,7589.99,3.10,43757.76,5822.06,3.10,59080.37,6497.16,3.13,42854.05,3584.50,-3.12,37549.69
1805000,559.26,527.75,1.00,1,1,1,11078.94,3.09,371318.61,5299.01,3.07,163069.96,4849.68,3.06,70488.62,7482.90,3.12,70392.30,4888.25,-3.14,92715.85
1841500,447.81,538.77,1.00,1,1,1,3068.23,3.04,219602.36,2596.94,2.95,74980.20,5299.01,3.07,12430.05,5822.06,3.10,45645.65,5245.58,3.12,10126.26
1856000,429.15,552.52,1.00,1,1,1,1598.36,2.51,129709.48,1598.36,2.51,92831.30,2596.94,2.95,188743.26,4849.68,3.06,68544.10,5302.91,3.10,8713.26
