%@metadata width_px 1920.0
%@metadata height_px 1080.0
%@metadata width_mm 540.0
%@metadata height_mm 254.0
%@metadata distance_mm 620.0
% The number after speed, direction denotes the step size that was used for the calculation.
% Acceleration was calculated between two adjacent samples of the already low pass filtered velocity
@RELATION gaze_labels

@ATTRIBUTE time INTEGER
@ATTRIBUTE x NUMERIC
@ATTRIBUTE y NUMERIC
@ATTRIBUTE confidence NUMERIC
@ATTRIBUTE handlabeller_final INTEGER
@ATTRIBUTE EYE_MOVEMENT_TYPE {UNKNOWN, FIX, SACCADE, SP, NOISE, BLINK, NOISE_CLUSTER, PSO}

@DATA
0,195.87,885.87,1.0,1,FIX
15200,228.76,889.22,1.0,1,FIX
30100,201.05,887.08,1.0,1,FIX
51700,181.43,887.64,1.0,1,FIX
66200,185.09,898.35,1.0,1,FIX
81200,206.09,885.48,1.0,1,FIX
111200,217.96,897.32,1.0,1,FIX
126200,210.1,896.13,1.0,1,FIX
148100,185.03,889.27,1.0,1,FIX
162300,214.98,892.34,1.0,1,FIX
176400,204.43,904.93,1.0,1,FIX
191100,179.66,894.93,1.0,1,SACCADE
206400,210.67,893.84,1.0,2,SACCADE
228500,176.25,892.27,1.0,2,SP
243000,354.14,840.06,1.0,3,FIX
257000,462.1,829.96,1.0,3,FIX
271700,462.1,829.96,1.0,1,FIX
308500,529.03,834.66,1.0,1,FIX
323700,493.43,838.92,1.0,1,FIX
353700,490.01,829.78,1.0,1,FIX
368700,452.33,824.82,1.0,2,FIX
383800,481.42,838.04,1.0,2,SACCADE
398600,470.51,834.47,1.0,3,SACCADE
420100,544.9,820.62,1.0,3,SP
434600,669.54,812.85,1.0,1,FIX
449700,754.96,825.46,1.0,1,FIX
480400,791.98,836.46,1.0,1,FIX
495500,779.7,828.81,1.0,1,FIX
510500,804.14,841.68,1.0,1,FIX
533700,772.49,823.92,1.0,1,FIX
548600,813.05,831.2,1.0,1,FIX
563700,815.17,841.96,1.0,1,FIX
578900,776.55,821.0,1.0,1,FIX
608100,785.47,828.52,1.0,2,SACCADE
624300,801.96,838.4,1.0,2,SACCADE
639000,794.76,828.78,1.0,2,SP
675800,1172.17,829.77,1.0,1,FIX
691800,1221.85,834.59,1.0,1,FIX
705600,1316.99,846.88,1.0,1,FIX
735900,1303.13,850.2,1.0,1,FIX
750900,1295.34,826.2,1.0,1,FIX
772500,1266.65,823.87,1.0,1,FIX
787600,1264.05,825.96,1.0,1,FIX
802100,1284.43,828.66,1.0,1,FIX
816100,1291.27,837.12,1.0,1,FIX
831200,1301.59,834.81,1.0,1,FIX
846100,1249.79,827.0,1.0,2,SACCADE
868500,1268.6,824.28,1.0,2,SACCADE
883700,1281.63,827.72,1.0,3,SP
898600,776.33,848.6,1.0,1,FIX
929200,767.05,843.73,1.0,1,FIX
943800,791.69,849.39,1.0,1,FIX
958700,784.98,834.92,1.0,1,FIX
974200,815.03,847.67,1.0,1,FIX
