@RELATION gaze_labels

%@METADATA width_px 1920
%@METADATA height_px 1080
%@METADATA width_mm 540.00
%@METADATA height_mm 254.00
%@METADATA distance_mm 620.00


@ATTRIBUTE time INTEGER
@ATTRIBUTE x NUMERIC
@ATTRIBUTE y NUMERIC
@ATTRIBUTE confidence NUMERIC
@ATTRIBUTE handlabeller1 INTEGER
@ATTRIBUTE handlabeller2 INTEGER
@ATTRIBUTE handlabeller_final INTEGER
@ATTRIBUTE speed_1 numeric
@ATTRIBUTE direction_1 numeric
@ATTRIBUTE acceleration_1 numeric
@ATTRIBUTE speed_2 numeric
@ATTRIBUTE direction_2 numeric
@ATTRIBUTE acceleration_2 numeric
@ATTRIBUTE speed_4 numeric
@ATTRIBUTE direction_4 numeric
@ATTRIBUTE acceleration_4 numeric
@ATTRIBUTE speed_8 numeric
@ATTRIBUTE direction_8 numeric
@ATTRIBUTE acceleration_8 numeric
@ATTRIBUTE speed_16 numeric
@ATTRIBUTE direction_16 numeric
@ATTRIBUTE acceleration_16 numeric

%The number after speed, direction denotes the step size that was used for the calculation.
%Acceleration was calculated between two adjacent samples of the already low pass filtered velocity

@DATA
0,127.71,464.61,1.00,1,1,1,0.00,0.00,0.00,2805.83,-2.33,0.00,1375.68,-1.35,0.00,628.35,-0.84,0.00,397.66,-0.08,0.00
15500,97.80,433.04,1.00,1,1,1,2805.83,-2.33,181020.98,1375.68,-1.35,150961.56,1226.56,0.28,122433.00,1092.59,0.37,67735.09,297.21,-0.25,7508.48
37100,139.00,414.84,1.00,1,1,1,2085.54,-0.42,186064.91,1226.56,0.28,87857.02,628.35,-0.84,51401.21,578.78,2.29,64829.11,247.76,0.72,11997.74
52100,140.90,445.61,1.00,1,1,1,2055.17,1.51,226563.79,840.26,0.84,45015.44,1092.59,0.37,69992.92,764.82,-2.93,46724.72,202.22,2.37,22136.59
66800,155.73,433.36,1.00,1,1,1,1308.76,-0.69,205219.70,938.41,0.51,20741.78,578.78,2.29,95259.10,397.66,-0.08,78315.18,238.69,-3.05,12656.91
81100,164.65,458.89,1.00,1,1,1,1890.94,1.23,185077.47,1356.60,2.96,151291.58,764.82,-2.93,49011.94,297.21,-0.25,8138.56,373.56,-1.99,23227.49
96200,116.51,440.61,1.00,1,1,1,3410.06,-2.78,321055.91,2364.87,-2.82,89366.76,548.51,0.82,83070.48,247.76,0.72,17162.32,3870.49,0.03,267841.88
111500,96.48,436.05,1.00,1,1,1,1342.57,-2.92,136514.81,1786.61,0.30,271315.97,675.19,-2.24,79924.38,202.22,2.37,21702.54,4573.78,0.04,46062.06
133800,180.74,460.29,1.00,1,1,1,3931.65,0.28,236441.77,1118.55,-0.31,48527.78,684.90,-0.11,53436.63,238.69,-3.05,8343.35,1741.76,-0.05,127507.57
148800,136.16,423.14,1.00,1,1,1,3868.58,-2.45,508886.68,1022.07,-2.21,115804.08,554.12,0.82,37626.40,373.56,-1.99,22143.54,1801.63,0.00,7710.15
163800,162.54,435.61,1.00,1,1,1,1945.29,0.44,384832.44,1385.56,1.90,142626.24,1027.86,-2.65,104200.17,3870.49,0.03,269627.50,1512.38,0.00,19283.21
179600,122.35,463.52,1.00,2,2,2,3096.85,2.53,278660.06,1205.69,-3.01,104341.24,200.35,-0.74,70275.10,4573.78,0.04,44604.40,1510.60,-0.06,5636.31
195000,125.25,430.66,1.00,2,2,2,2142.13,-1.48,309214.11,1768.67,-1.13,157316.13,6724.97,0.04,427548.29,2872.97,-0.05,112317.66,1567.42,-0.05,3782.19
210000,145.19,414.85,1.00,2,2,2,1696.56,-0.67,104704.51,12294.38,0.04,781967.59,8335.97,-0.01,109561.60,3069.98,0.02,19535.85,1548.81,-0.04,1681.84
239400,670.58,455.00,1.00,1,1,1,17922.54,0.08,568618.11,13451.68,0.07,41457.74,5232.76,0.01,105632.26,2575.24,-0.05,18173.27,1640.15,0.01,4112.70
255400,754.21,460.20,1.00,1,1,1,5236.94,0.06,792896.01,710.53,-2.66,881664.27,4897.76,0.04,22670.18,2852.68,-0.09,18969.80,1833.40,0.03,12237.78
292800,636.97,437.39,1.00,1,1,1,3193.50,-2.95,224964.46,2509.39,-2.94,49158.18,1295.70,-2.77,164081.49,3038.64,-0.04,6558.64,1531.08,-0.04,8658.61
308000,624.77,434.34,1.00,1,1,1,827.17,-2.90,155782.40,2362.93,-2.83,21287.18,2259.98,-2.93,66023.77,2877.73,0.06,21535.89,1931.11,0.04,27754.22
322400,570.49,415.67,1.00,1,1,1,3986.68,-2.81,219679.57,1822.81,-2.89,38797.20,724.22,-2.50,113224.70,480.19,-3.02,233132.22,2782.48,0.04,59123.24
337900,571.92,421.01,1.00,1,1,1,357.30,1.31,270781.25,1084.42,-0.13,184516.26,131.89,2.16,47921.82,802.99,-3.08,20934.80,3386.05,-0.01,40202.22
352200,602.54,411.59,1.00,1,1,1,2240.31,-0.30,159525.83,1398.91,0.41,50486.30,614.91,0.83,41812.01,152.61,2.84,46352.98,3303.89,0.03,10304.97
375200,619.83,441.69,1.00,1,1,1,1509.28,1.05,104737.81,921.01,1.68,62269.81,1040.27,0.46,22370.70,495.35,0.16,27628.46,3256.30,0.07,6009.96
390200,598.68,446.38,1.00,2,2,2,1444.04,2.92,158683.42,602.35,0.63,54205.76,521.92,1.10,46354.34,3069.35,0.13,171617.88,1743.53,0.00,101316.15
405000,634.34,452.26,1.00,2,2,2,2442.12,0.16,258136.81,674.37,-0.16,33547.54,1133.45,0.04,66912.30,4076.95,0.06,70156.69,1248.25,-0.02,33534.47
419900,618.45,443.14,1.00,2,2,2,1229.72,-2.62,242943.60,1818.00,-0.15,76760.36,6106.53,0.06,333776.66,3647.45,0.09,29923.98,1853.54,0.05,41171.65
433900,686.30,444.49,1.00,1,1,1,4847.92,0.02,425425.16,11765.61,0.07,714238.48,7614.52,0.00,111136.06,3751.39,0.07,8972.64,1769.36,0.07,6875.89
448500,954.08,467.22,1.00,1,1,1,18406.83,0.08,929641.77,13129.08,0.02,102455.96,7479.33,0.03,15651.36,4405.87,0.02,47387.78,2084.58,0.13,22895.04
464400,1086.64,453.34,1.00,1,1,1,8382.88,-0.10,647455.84,3593.69,-0.11,602336.84,6021.91,0.08,94373.42,3679.32,0.00,45854.35,1799.67,0.12,17977.75
479700,1065.55,455.13,1.00,1,1,1,1383.63,3.06,638318.79,658.45,1.32,232762.94,2948.25,-0.05,204077.24,3873.04,0.03,14719.19,1615.44,0.23,17520.39
501600,1092.68,477.08,1.00,1,1,1,1593.51,0.68,126173.26,2405.19,0.02,105769.59,175.36,0.08,126692.29,3036.60,0.06,38394.07,1558.45,0.19,4143.67
516000,1152.83,457.19,1.00,1,1,1,4399.65,-0.32,262738.10,794.63,-1.33,164161.33,603.27,0.13,29730.79,1110.64,0.13,134032.74,877.81,0.45,51627.43
531100,1098.30,454.32,1.00,1,1,1,3616.57,-3.09,521811.96,1619.31,3.08,132808.97,406.24,-2.73,66210.70,239.23,2.28,83245.37,553.27,1.35,45821.95
545600,1104.99,460.12,1.00,1,1,1,610.55,0.71,283833.37,1035.10,2.70,52805.45,1079.41,2.69,60018.87,449.79,2.02,15595.94,1107.38,1.46,38679.14
560700,1070.66,467.53,1.00,1,1,1,2326.41,2.93,181263.92,899.12,1.96,46597.94,529.62,2.50,37699.65,404.37,2.28,7911.52,1383.87,1.11,34465.97
576000,1094.52,485.36,1.00,1,1,1,1947.17,0.64,254424.04,280.83,2.07,40560.06,1064.64,2.46,35002.22,2218.61,2.86,123707.88,1007.20,1.58,43778.32
613100,1063.61,480.45,1.00,1,1,1,843.53,-2.98,73375.42,1250.48,2.67,27774.00,624.45,1.89,17159.34,2803.30,2.80,16317.06,919.17,1.90,8621.07
628300,1036.35,515.26,1.00,4,4,4,2908.53,2.24,171418.96,1038.64,1.84,62062.35,2946.17,2.90,175300.82,3324.89,2.55,59634.23,701.28,1.19,39258.54
657300,1051.55,524.75,1.00,4,4,4,617.95,0.56,104720.65,5051.60,2.97,162221.30,5137.45,2.83,76150.91,2405.09,2.12,52856.02,493.59,0.87,9710.33
671500,821.41,552.99,1.00,4,4,4,16328.83,3.02,1184064.24,10706.86,2.93,398830.23,5640.58,2.57,103532.04,1895.54,2.05,37224.62,269.86,1.87,29153.82
693900,668.70,608.36,1.00,4,4,4,7251.50,2.79,419758.09,7125.47,2.25,303687.49,4994.98,2.16,101643.38,1654.65,1.85,19440.95,424.83,0.77,17150.28
709200,652.31,761.71,1.00,4,4,4,10080.29,1.68,620158.54,9114.72,0.78,718696.68,3593.56,1.01,313770.64,1172.27,0.89,89257.54,340.55,0.30,12910.45
724400,866.21,804.00,1.00,4,4,4,14344.75,0.20,1104353.47,9834.52,-0.00,478869.35,5708.53,0.29,253345.37,1134.13,0.42,35448.88,519.82,0.27,11831.05
739600,951.27,760.41,1.00,4,4,4,6288.58,-0.47,670164.48,5542.22,-0.63,412667.36,8322.28,-0.24,290222.02,2300.64,-0.07,92445.43,472.03,0.02,8716.44
754400,1000.14,705.47,1.00,4,4,4,4967.58,-0.84,165217.58,7418.21,-0.55,131715.05,6479.47,-0.61,221824.43,4123.46,-0.13,123865.97,394.29,0.51,15245.81
769500,1140.18,644.17,1.00,4,4,4,10124.20,-0.41,396236.39,7435.89,-0.59,18468.44,4368.08,-0.91,174561.25,4853.30,-0.46,109025.93,258.86,2.18,32600.10
783900,1182.52,583.59,1.00,4,4,4,5132.12,-0.96,439991.98,3083.07,-1.66,454457.86,3765.65,-0.73,65719.79,3646.85,-0.70,109484.65,911.61,2.64,47925.36
806000,1130.14,532.08,1.00,1,1,1,3324.29,-2.36,254841.18,1189.74,-1.48,87007.06,2527.96,-1.21,86931.17,2817.34,-0.76,38414.70,1145.61,2.69,10829.37
820500,1186.27,540.21,1.00,1,1,1,3911.36,0.14,474376.92,2793.72,-0.56,157870.84,1260.00,-1.16,87635.25,1595.32,-0.81,84533.57,2259.15,-3.11,92958.42
835100,1199.20,489.19,1.00,1,1,1,3605.16,-1.32,344900.85,1497.95,-0.84,97372.95,1575.39,-0.39,75527.23,1101.41,-2.71,151648.15,1883.26,-2.85,44546.20
850200,1215.87,507.00,1.00,4,4,4,1615.95,0.82,309902.55,864.12,-0.04,72188.67,293.54,-2.97,121204.72,2416.28,2.97,108195.48,3646.85,-0.70,326918.70
880100,1238.05,487.56,1.00,4,4,4,986.44,-0.72,62398.29,1177.45,2.64,66525.44,2758.46,2.74,84181.73,4392.64,2.88,66807.56,2817.34,-0.76,28393.47
901600,1162.82,536.12,1.00,4,4,4,4164.87,2.57,239196.80,7240.16,2.79,282751.81,5040.64,2.80,106642.02,7448.64,3.10,153260.33,1595.32,-0.81,57011.02
916000,993.77,576.35,1.00,4,4,4,12067.53,2.91,573453.64,11825.40,2.83,319176.64,11162.14,2.86,426332.02,6623.54,3.03,66199.07,1101.41,-2.71,153754.38
931000,832.20,643.65,1.00,4,4,4,11668.27,2.75,129984.12,15999.99,2.90,286111.85,15308.49,3.09,342473.47,5040.64,2.80,137942.05,2416.28,2.97,108916.79
945300,538.63,688.72,1.00,4,4,4,20769.51,2.99,688707.15,18004.66,-3.07,391522.48,10618.48,3.10,328110.01,11162.14,2.86,429313.36,4392.64,2.88,139688.53
975500,32.80,589.87,1.00,4,4,4,17066.39,-2.95,246834.06,7984.86,-2.95,335678.44,18004.66,-3.07,249166.59,15308.49,3.09,170102.72,7448.64,3.10,109109.18
997200,132.13,608.13,1.00,4,4,4,4654.33,0.18,1000944.20,4654.33,0.18,582437.67,7984.86,-2.95,467165.39,10618.48,3.10,216219.96,6623.54,3.03,43929.34
