%@metadata width_px 1920.0
%@metadata height_px 1080.0
%@metadata width_mm 540.0
%@metadata height_mm 254.0
%@metadata distance_mm 620.0
% The number after speed, direction denotes the step size that was used for the calculation.
% Acceleration was calculated between two adjacent samples of the already low pass filtered velocity
@RELATION gaze_labels

@ATTRIBUTE time INTEGER
@ATTRIBUTE x NUMERIC
@ATTRIBUTE y NUMERIC
@ATTRIBUTE confidence NUMERIC
@ATTRIBUTE handlabeller_final INTEGER
@ATTRIBUTE EYE_MOVEMENT_TYPE {UNKNOWN, FIX, SACCADE, SP, NOISE, BLINK, NOISE_CLUSTER, PSO}

@DATA
0,688.56,948.93,1.0,1,FIX
14700,629.5,951.99,1.0,1,FIX
30700,589.77,946.2,1.0,1,FIX
62800,631.64,951.44,1.0,1,FIX
78900,561.04,958.98,1.0,1,FIX
94800,568.52,956.58,1.0,1,FIX
110700,524.12,959.76,1.0,1,FIX
126700,536.01,957.54,1.0,1,FIX
142700,514.47,962.58,1.0,1,FIX
159100,497.73,956.69,1.0,1,FIX
175100,490.59,954.86,1.0,1,SACCADE
190600,521.45,963.48,1.0,2,SACCADE
206600,498.91,954.45,1.0,2,SACCADE
222700,414.33,965.76,1.0,3,SP
254900,128.25,951.86,1.0,1,FIX
270800,139.49,961.98,1.0,1,FIX
286800,151.53,971.86,1.0,1,FIX
302700,54.99,962.64,1.0,1,FIX
318600,26.28,963.62,1.0,1,FIX
335800,88.32,967.88,1.0,1,FIX
351500,91.18,967.62,1.0,1,FIX
382600,47.12,965.48,1.0,1,FIX
398800,55.64,966.72,1.0,1,FIX
431400,68.44,961.53,1.0,2,FIX
446900,105.33,960.16,1.0,2,FIX
462600,81.54,960.13,1.0,1,FIX
478800,97.45,954.66,1.0,1,FIX
494700,118.34,970.74,1.0,1,FIX
510700,93.41,959.97,1.0,1,FIX
526600,84.46,967.62,1.0,1,FIX
542700,171.07,971.68,1.0,1,FIX
558600,151.35,966.53,1.0,1,FIX
574700,81.33,970.78,1.0,1,FIX
590600,189.23,970.85,1.0,2,FIX
606500,144.6,972.69,1.0,3,FIX
622700,109.74,967.83,1.0,1,FIX
638600,72.18,958.29,1.0,1,FIX
654700,92.1,973.67,1.0,1,FIX
687000,71.38,973.38,1.0,2,SACCADE
702600,50.99,959.66,1.0,2,SACCADE
718600,104.57,969.95,1.0,2,SP
750600,678.27,981.64,1.0,1,FIX
766700,711.62,974.94,1.0,1,FIX
782700,631.9,966.73,1.0,1,FIX
814900,658.54,966.89,1.0,2,SACCADE
830600,664.59,971.0,1.0,3,SACCADE
846700,692.02,970.7,1.0,1,SP
862700,930.2,982.35,1.0,1,FIX
878600,980.48,979.33,1.0,1,FIX
895100,986.29,982.94,1.0,1,FIX
910800,1055.77,986.9,1.0,1,FIX
926700,1009.96,989.25,1.0,1,FIX
942700,993.19,981.49,1.0,1,FIX
958700,964.65,983.08,1.0,2,SACCADE
974700,1096.64,985.1,1.0,2,SACCADE
1006700,1109.29,989.13,1.0,3,SP
1022700,1294.24,985.82,1.0,1,FIX
1038700,1357.96,980.91,1.0,1,FIX
1054700,1436.89,992.12,1.0,1,FIX
1087000,1417.33,988.66,1.0,1,FIX
1102600,1386.52,975.53,1.0,1,FIX
1134700,1404.62,982.79,1.0,1,FIX
1150500,1408.74,985.16,1.0,1,FIX
1182700,1410.7,982.88,1.0,1,FIX
1198900,1402.69,983.5,1.0,1,FIX
1230700,1414.17,987.03,1.0,1,FIX
1246800,1417.77,983.33,1.0,1,FIX
1262600,1398.28,982.43,1.0,1,FIX
1278700,1402.61,987.68,1.0,1,FIX
1311000,1383.78,985.78,1.0,1,FIX
1326600,1414.46,985.99,1.0,1,FIX
1342700,1425.92,988.48,1.0,1,FIX
1358700,1411.67,979.32,1.0,1,FIX
1374700,1427.91,985.16,1.0,1,FIX
1407000,1421.56,985.13,1.0,2,FIX
