%@metadata width_px 1920.0
%@metadata height_px 1080.0
%@metadata width_mm 540.0
%@metadata height_mm 254.0
%@metadata distance_mm 620.0
% The number after speed, direction denotes the step size that was used for the calculation.
% Acceleration was calculated between two adjacent samples of the already low pass filtered velocity
@RELATION gaze_labels

@ATTRIBUTE time INTEGER
@ATTRIBUTE x NUMERIC
@ATTRIBUTE y NUMERIC
@ATTRIBUTE confidence NUMERIC
@ATTRIBUTE handlabeller_final INTEGER
@ATTRIBUTE EYE_MOVEMENT_TYPE {UNKNOWN, FIX, SACCADE, SP, NOISE, BLINK, NOISE_CLUSTER, PSO}

@DATA
0,494.36,956.16,1.0,1,FIX
16200,464.1,948.49,1.0,1,FIX
32100,408.04,959.07,1.0,1,FIX
48000,430.98,942.19,1.0,1,FIX
65000,431.4,936.7,1.0,1,FIX
80200,373.31,944.99,1.0,1,FIX
96200,396.03,945.77,1.0,1,FIX
112200,390.32,941.69,1.0,2,SACCADE
128100,351.03,954.96,1.0,2,SACCADE
144100,321.7,946.3,1.0,2,SP
161100,161.78,939.98,1.0,1,FIX
176100,7.67,938.43,1.0,1,FIX
208200,-139.69,953.55,1.0,1,FIX
224100,-201.82,952.68,1.0,1,FIX
256200,-151.16,938.96,1.0,1,FIX
272200,-122.86,964.03,1.0,1,FIX
288100,-172.72,939.73,1.0,1,FIX
304300,-165.02,950.1,1.0,2,SACCADE
320200,-185.65,955.49,1.0,2,SACCADE
336100,-142.42,954.25,1.0,3,SP
352200,-21.92,950.99,1.0,1,FIX
368000,91.16,957.74,1.0,1,FIX
400300,116.27,976.96,1.0,1,FIX
416100,137.85,963.63,1.0,1,FIX
432300,85.05,965.81,1.0,1,FIX
448100,44.49,955.37,1.0,1,FIX
464000,107.4,963.7,1.0,1,FIX
481000,102.87,964.84,1.0,1,FIX
496200,124.63,971.87,1.0,1,FIX
512200,98.92,968.2,1.0,1,FIX
528100,151.69,975.61,1.0,1,FIX
544100,102.93,959.78,1.0,1,FIX
576200,56.56,965.31,1.0,1,FIX
592100,73.41,961.88,1.0,1,FIX
608700,65.09,971.77,1.0,1,FIX
640000,71.28,952.11,1.0,2,SACCADE
656100,106.69,963.08,1.0,1,FIX
672200,41.47,963.99,1.0,1,FIX
704500,-0.1,968.1,1.0,1,FIX
720100,-38.71,963.11,1.0,1,FIX
736100,-5.21,975.16,1.0,1,FIX
752100,-39.95,963.5,1.0,1,FIX
768000,-36.82,971.07,1.0,1,FIX
784200,-1.05,952.53,1.0,1,FIX
800200,-39.2,961.76,1.0,1,FIX
816000,-53.45,965.51,1.0,1,FIX
832200,21.47,960.35,1.0,1,FIX
848000,-3.67,969.09,1.0,2,FIX
864600,-4.28,954.6,1.0,3,FIX
880400,21.51,971.92,1.0,1,FIX
896000,-51.53,961.13,1.0,1,FIX
912200,-32.69,957.52,1.0,1,FIX
928200,-32.11,972.77,1.0,1,SACCADE
960200,-61.32,951.98,1.0,2,SACCADE
976100,-73.14,973.13,1.0,2,SACCADE
1008000,43.95,971.62,1.0,1,FIX
1024100,338.29,974.1,1.0,1,FIX
1057400,424.75,983.11,1.0,1,FIX
1072100,396.89,965.67,1.0,1,FIX
1088100,382.53,974.09,1.0,1,FIX
1104000,441.22,977.1,1.0,2,SACCADE
1136300,418.77,964.27,1.0,2,SACCADE
1152100,472.9,968.39,1.0,3,SP
1168200,743.17,972.63,1.0,1,FIX
1184000,952.81,981.22,1.0,1,FIX
1200100,950.44,980.97,1.0,1,FIX
1217400,971.3,980.53,1.0,1,FIX
1232300,917.08,978.18,1.0,1,FIX
1248300,903.91,976.28,1.0,1,FIX
1264000,943.86,982.72,1.0,2,SACCADE
1280100,933.54,976.71,1.0,2,SACCADE
1296200,945.5,982.62,1.0,2,SP
1328500,1194.16,990.76,1.0,1,FIX
1344100,1246.01,992.19,1.0,1,FIX
1360100,1212.03,975.83,1.0,1,FIX
1392000,1251.31,983.24,1.0,1,FIX
1409500,1225.17,976.19,1.0,1,FIX
1424200,1216.45,977.13,1.0,1,FIX
1440100,1223.7,990.79,1.0,1,FIX
1456100,1232.34,989.12,1.0,1,FIX
1472000,1252.55,991.6,1.0,2,SACCADE
1488200,1173.84,974.9,1.0,2,SACCADE
1504200,1267.05,985.88,1.0,2,SACCADE
1520000,1123.76,971.28,1.0,2,SP
1536300,898.93,950.83,1.0,2,FIX
1552100,779.12,925.75,1.0,2,FIX
1569100,767.03,929.57,1.0,2,NOISE
1584100,781.21,930.81,1.0,2,NOISE
1600100,699.36,936.74,1.0,1,NOISE
1616000,688.1,936.12,1.0,1,NOISE
1632500,569.83,938.07,1.0,1,NOISE
1664500,455.86,952.43,1.0,1,NOISE
