%@metadata width_px 1920.0
%@metadata height_px 1080.0
%@metadata width_mm 540.0
%@metadata height_mm 254.0
%@metadata distance_mm 620.0
% The number after speed, direction denotes the step size that was used for the calculation.
% Acceleration was calculated between two adjacent samples of the already low pass filtered velocity
@RELATION gaze_labels

@ATTRIBUTE time INTEGER
@ATTRIBUTE x NUMERIC
@ATTRIBUTE y NUMERIC
@ATTRIBUTE confidence NUMERIC
@ATTRIBUTE handlabeller_final INTEGER
@ATTRIBUTE EYE_MOVEMENT_TYPE {UNKNOWN, FIX, SACCADE, SP, NOISE, BLINK, NOISE_CLUSTER, PSO}

@DATA
0,257.56,283.21,1.0,1,FIX
21900,260.36,266.79,1.0,1,FIX
36600,272.34,294.83,1.0,1,FIX
51300,273.69,273.59,1.0,1,FIX
66000,279.5,282.77,1.0,2,SACCADE
80700,267.38,275.95,1.0,2,SACCADE
96100,279.86,296.77,1.0,3,SP
118200,527.29,325.65,1.0,1,FIX
147500,643.93,360.6,1.0,1,FIX
162300,632.42,322.39,1.0,1,FIX
191900,649.03,289.76,1.0,1,FIX
214100,667.66,335.88,1.0,1,FIX
228800,718.92,365.65,1.0,1,FIX
243500,673.54,311.9,1.0,2,SACCADE
258100,735.14,356.09,1.0,2,SACCADE
272900,681.55,341.46,1.0,2,SP
287600,904.21,478.95,1.0,3,FIX
324700,1088.14,484.35,1.0,1,FIX
339500,1082.71,481.78,1.0,1,FIX
354100,1094.63,499.77,1.0,1,FIX
368800,1098.43,499.86,1.0,1,FIX
383600,1123.47,496.16,1.0,1,FIX
405700,1088.34,479.72,1.0,1,FIX
420400,1098.14,486.76,1.0,1,SACCADE
450100,1028.17,460.46,1.0,2,SACCADE
464800,1106.2,479.57,1.0,2,SACCADE
479700,920.28,455.57,1.0,3,FIX
516900,602.01,359.32,1.0,1,FIX
531000,613.75,415.09,1.0,1,FIX
545800,607.82,389.85,1.0,1,FIX
575500,659.25,414.2,1.0,1,FIX
598100,595.72,417.9,1.0,1,FIX
612400,635.57,398.67,1.0,1,FIX
626900,580.36,380.73,1.0,1,SACCADE
656300,601.47,374.48,1.0,2,SACCADE
678400,575.02,400.52,1.0,3,SACCADE
693100,799.58,479.42,1.0,3,SP
707800,772.8,442.31,1.0,1,FIX
722500,958.67,514.39,1.0,1,FIX
736800,874.11,468.34,1.0,1,FIX
752300,911.92,458.38,1.0,1,FIX
774600,966.28,532.97,1.0,1,FIX
789300,945.18,449.49,1.0,1,FIX
803900,923.43,457.68,1.0,1,FIX
819200,925.22,479.64,1.0,1,FIX
833900,957.27,434.19,1.0,1,SACCADE
870400,906.62,447.57,1.0,2,SACCADE
900200,923.69,467.95,1.0,2,SACCADE
914900,1011.6,447.83,1.0,3,FIX
944400,1159.38,536.81,1.0,1,FIX
966700,1232.04,592.43,1.0,1,FIX
980900,1218.11,565.35,1.0,1,FIX
995800,1219.37,494.23,1.0,1,FIX
1010400,1255.83,557.49,1.0,1,FIX
1025300,1221.05,485.74,1.0,2,FIX
1040800,1279.47,584.04,1.0,2,NOISE
1055600,1185.25,489.54,1.0,2,NOISE
1077500,1167.32,544.94,1.0,2,NOISE
1092200,883.58,519.2,1.0,3,NOISE
1107000,756.26,584.42,1.0,3,NOISE
1121400,711.42,600.34,1.0,1,NOISE
1136100,584.39,611.66,1.0,1,NOISE
1158200,601.96,557.83,1.0,1,FIX
1173000,551.63,497.75,1.0,1,FIX
1187600,603.97,457.23,1.0,1,FIX
1217200,536.56,399.67,1.0,1,FIX
1231900,584.58,408.72,1.0,1,UNKNOWN
