%@metadata width_px 1920.0
%@metadata height_px 1080.0
%@metadata width_mm 540.0
%@metadata height_mm 254.0
%@metadata distance_mm 620.0
% The number after speed, direction denotes the step size that was used for the calculation.
% Acceleration was calculated between two adjacent samples of the already low pass filtered velocity
@RELATION gaze_labels

@ATTRIBUTE time INTEGER
@ATTRIBUTE x NUMERIC
@ATTRIBUTE y NUMERIC
@ATTRIBUTE confidence NUMERIC
@ATTRIBUTE handlabeller_final INTEGER
@ATTRIBUTE EYE_MOVEMENT_TYPE {UNKNOWN, FIX, SACCADE, SP, NOISE, BLINK, NOISE_CLUSTER, PSO}

@DATA
0,332.45,774.89,1.0,1,FIX
21100,244.82,803.81,1.0,1,FIX
34900,276.48,761.91,1.0,1,FIX
49000,268.67,766.97,1.0,1,FIX
70500,313.4,771.99,1.0,1,FIX
84900,270.26,798.34,1.0,1,FIX
99400,267.94,792.7,1.0,1,FIX
134400,281.24,815.1,1.0,1,FIX
148800,296.05,787.3,1.0,1,FIX
163300,298.68,773.68,1.0,2,SACCADE
192000,284.02,786.89,1.0,3,SACCADE
213200,357.33,783.8,1.0,1,SP
227400,505.11,772.83,1.0,1,FIX
242400,527.61,763.41,1.0,1,FIX
256400,547.52,764.06,1.0,1,FIX
277600,609.55,777.94,1.0,1,FIX
291500,531.74,786.97,1.0,1,FIX
305600,571.66,774.94,1.0,1,FIX
320000,563.14,792.57,1.0,1,FIX
341000,577.81,776.06,1.0,2,FIX
355000,542.78,786.24,1.0,2,SACCADE
368900,462.93,775.84,1.0,2,SACCADE
390800,590.35,787.64,1.0,3,FIX
420600,760.0,738.42,1.0,1,FIX
434700,741.33,748.83,1.0,1,FIX
448700,833.01,719.98,1.0,1,FIX
470800,841.39,742.12,1.0,1,SACCADE
484800,813.57,729.52,1.0,2,SACCADE
513600,854.14,753.72,1.0,3,SP
534800,960.84,727.85,1.0,1,FIX
563300,1023.29,715.92,1.0,1,FIX
577700,1035.97,712.4,1.0,1,FIX
592000,1020.05,729.15,1.0,1,FIX
612800,987.91,737.68,1.0,1,FIX
626900,992.11,732.71,1.0,1,FIX
641300,1024.82,719.71,1.0,1,FIX
662500,1038.17,714.68,1.0,1,FIX
676400,1038.59,717.83,1.0,1,FIX
690400,959.38,741.61,1.0,1,SACCADE
704900,1033.22,743.95,1.0,2,SACCADE
726500,1030.23,746.9,1.0,2,SACCADE
740800,879.04,748.04,1.0,2,SP
754800,710.47,750.84,1.0,3,FIX
768800,710.47,750.84,1.0,1,FIX
790600,555.32,770.46,1.0,1,FIX
804500,615.74,799.59,1.0,1,FIX
818900,581.34,762.2,1.0,1,FIX
833000,580.56,791.3,1.0,1,FIX
854300,580.56,791.3,1.0,1,FIX
882600,592.9,803.49,1.0,1,FIX
897500,530.83,796.33,1.0,1,FIX
919000,556.11,784.88,1.0,1,FIX
947500,595.26,753.69,1.0,1,FIX
961500,598.5,776.15,1.0,2,SACCADE
976500,595.25,780.16,1.0,3,SACCADE
997900,578.54,769.32,1.0,1,FIX
1011600,494.01,794.22,1.0,1,FIX
1025800,494.2,763.83,1.0,1,FIX
1040300,552.83,769.1,1.0,1,FIX
1061400,481.8,793.01,1.0,1,FIX
1075600,522.46,800.94,1.0,1,FIX
1091000,487.47,796.11,1.0,1,FIX
1105300,498.75,763.8,1.0,1,FIX
1120200,487.13,791.29,1.0,1,FIX
1141400,494.6,762.25,1.0,1,FIX
1155500,512.11,786.32,1.0,1,FIX
1170400,514.94,752.9,1.0,1,FIX
1184500,473.83,785.08,1.0,1,FIX
