@RELATION gaze_labels

%@METADATA width_px 1920
%@METADATA height_px 1080
%@METADATA width_mm 540.00
%@METADATA height_mm 254.00
%@METADATA distance_mm 620.00


@ATTRIBUTE time INTEGER
@ATTRIBUTE x NUMERIC
@ATTRIBUTE y NUMERIC
@ATTRIBUTE confidence NUMERIC
@ATTRIBUTE handlabeller1 INTEGER
@ATTRIBUTE handlabeller2 INTEGER
@ATTRIBUTE handlabeller_final INTEGER
@ATTRIBUTE speed_1 numeric
@ATTRIBUTE direction_1 numeric
@ATTRIBUTE acceleration_1 numeric
@ATTRIBUTE speed_2 numeric
@ATTRIBUTE direction_2 numeric
@ATTRIBUTE acceleration_2 numeric
@ATTRIBUTE speed_4 numeric
@ATTRIBUTE direction_4 numeric
@ATTRIBUTE acceleration_4 numeric
@ATTRIBUTE speed_8 numeric
@ATTRIBUTE direction_8 numeric
@ATTRIBUTE acceleration_8 numeric
@ATTRIBUTE speed_16 numeric
@ATTRIBUTE direction_16 numeric
@ATTRIBUTE acceleration_16 numeric

%The number after speed, direction denotes the step size that was used for the calculation.
%Acceleration was calculated between two adjacent samples of the already low pass filtered velocity

@DATA
0,301.72,416.42,1.00,1,1,1,0.00,0.00,0.00,3957.46,-0.19,0.00,1997.85,-0.04,0.00,512.07,-0.42,0.00,617.75,2.35,0.00
22100,387.60,399.89,1.00,1,1,1,3957.46,-0.19,179070.77,1997.85,-0.04,90652.18,1747.00,2.25,154597.50,2679.95,2.61,144322.51,1231.49,2.69,30753.43
36900,375.38,413.34,1.00,2,2,2,1228.03,2.31,337499.75,1747.00,2.25,230851.67,512.07,-0.42,149744.68,1771.38,2.71,63038.34,875.59,2.72,24115.47
51200,355.51,439.31,1.00,2,2,2,2287.06,2.22,74723.93,1516.14,-2.90,123183.16,2679.95,2.61,223043.88,1293.59,2.95,41616.65,686.39,2.76,13422.48
66000,332.58,402.63,1.00,3,3,3,2923.03,-2.13,290416.32,3390.26,2.73,160354.04,1771.38,2.71,63038.34,617.75,2.35,57714.47,962.45,2.40,26936.59
95500,217.69,499.00,1.00,1,1,1,5083.18,2.44,210355.86,2172.86,2.46,48233.27,1293.59,2.95,20173.50,1231.49,2.69,23039.01,282.36,0.53,36647.20
117300,245.96,472.80,1.00,1,1,1,1768.30,-0.75,314215.32,1455.05,-0.84,165923.53,1375.93,2.45,30561.94,875.59,2.72,16371.97,267.66,2.13,18116.69
131900,253.11,459.62,1.00,1,1,1,1026.63,-1.07,59006.90,465.31,2.36,131490.83,196.27,-1.65,102575.63,686.39,2.76,13146.68,79.64,1.36,14916.69
162100,231.15,487.46,1.00,1,1,1,1174.15,2.24,72608.59,973.38,2.57,17468.78,94.07,-0.51,5921.06,962.45,2.40,13200.71,324.72,2.16,9133.23
176700,216.37,483.11,1.00,1,1,1,1055.29,-2.86,85808.27,937.23,-0.71,130522.54,263.86,1.62,22169.90,282.36,0.53,74047.42,609.12,2.49,21905.04
191600,252.06,469.37,1.00,1,1,1,2566.49,-0.37,232489.65,967.76,-0.05,41444.60,376.28,2.17,13739.32,267.66,2.13,26506.29,444.39,2.66,12397.72
213700,252.12,481.18,1.00,1,1,1,534.54,1.56,126726.51,1414.20,2.30,99908.25,791.43,0.78,36748.95,79.64,1.36,9854.47,437.32,2.94,5566.54
228500,217.14,508.15,1.00,1,1,1,2984.74,2.48,182074.60,1327.06,1.53,70037.63,663.79,2.20,64641.58,143.71,0.44,7707.81,470.12,2.50,13393.03
242900,253.68,519.90,1.00,1,1,1,2665.43,0.31,347473.33,330.96,-0.37,101922.49,193.55,-1.27,58976.52,293.11,0.60,10628.57,118.77,0.21,38590.37
257600,226.12,504.68,1.00,1,1,1,2141.50,-2.64,325490.59,1722.79,-1.53,110280.08,512.19,-0.38,28371.84,55.55,0.92,16392.40,526.23,0.45,28012.36
271600,255.48,470.49,1.00,1,1,1,3219.01,-0.86,300958.53,656.71,-0.39,112132.56,239.10,-1.92,39897.60,213.49,-2.62,18968.47,943.92,0.42,29876.85
294100,248.30,495.58,1.00,1,1,1,1159.93,1.85,191127.74,950.95,1.78,63423.98,523.84,-0.75,21515.50,149.70,-1.49,8986.89,931.79,0.29,5159.57
308800,248.23,505.11,1.00,1,1,1,648.62,1.58,38289.74,488.61,-1.16,97454.14,361.71,-3.00,54539.74,93.65,-1.70,4192.47,1089.49,0.25,11125.72
338200,256.98,475.86,1.00,1,1,1,1038.63,-1.28,56844.36,1011.37,-2.08,27809.37,414.87,-2.87,2485.31,1086.66,0.21,38151.07,844.79,0.34,8837.59
352800,226.41,466.33,1.00,2,2,2,2192.95,-2.84,165447.06,1352.62,2.85,102982.73,47.19,0.31,31646.18,1792.68,0.38,51033.22,903.91,0.29,5122.35
367600,218.92,487.40,1.00,2,2,2,1510.79,1.91,176590.16,1280.03,1.00,141771.66,2110.08,0.46,139424.58,1676.44,0.28,14221.25,901.14,0.17,7376.50
389800,251.88,506.26,1.00,3,3,3,1710.44,0.52,93311.31,4634.10,0.30,168822.01,4407.88,0.36,104475.96,1861.08,0.20,10598.82,705.04,-0.09,12759.84
404500,382.18,538.28,1.00,1,1,1,9127.44,0.24,510058.65,8691.42,0.25,276985.68,3987.86,0.28,36305.23,1637.47,0.32,21179.55,805.97,0.10,11838.48
419400,501.26,569.47,1.00,1,1,1,8261.76,0.26,58777.53,3186.06,0.24,369495.56,4355.93,0.20,33897.27,1953.45,0.31,21240.52,691.69,0.21,9514.45
434100,473.75,560.80,1.00,1,1,1,1961.78,-2.84,695348.61,446.08,-1.40,221005.57,1291.42,0.14,208695.46,1688.39,0.24,19954.41,902.11,0.14,14805.81
448700,503.46,556.59,1.00,1,1,1,2054.92,-0.14,268299.52,288.79,-0.57,22496.43,178.92,-1.63,91689.02,1379.83,-0.02,35078.85,958.74,0.02,8896.00
485900,486.31,552.67,1.00,1,1,1,472.92,-2.92,67265.83,67.58,-2.68,8830.36,138.98,-0.57,4443.52,558.89,-0.11,22157.78,772.73,0.15,5879.58
500200,500.34,555.04,1.00,1,1,1,995.18,0.17,102628.04,37.08,2.50,4228.41,699.38,-2.17,50144.51,399.01,-2.16,57565.09,1041.45,0.20,19108.97
530000,484.99,553.64,1.00,1,1,1,517.09,-3.05,50714.03,1439.54,-2.14,48406.44,403.84,-2.22,9954.10,320.41,-0.54,17576.11,1088.51,0.22,1716.14
544800,465.69,500.99,1.00,1,1,1,3788.81,-1.92,243092.50,1004.60,-2.16,29430.85,646.99,-2.30,16674.58,359.07,-0.93,9349.76,1479.03,0.18,26654.33
559700,468.40,528.84,1.00,1,1,1,1877.86,1.47,377593.40,394.90,1.60,90318.85,582.15,-0.53,63813.87,320.81,-1.79,19057.53,918.43,0.16,37672.19
581800,465.25,515.60,1.00,1,1,1,616.01,-1.80,112649.31,1365.17,0.10,63033.86,1098.61,0.12,32869.68,241.41,-0.97,10666.85,534.25,0.21,17471.38
596500,518.37,534.03,1.00,1,1,1,3825.14,0.33,284944.95,2486.85,-0.08,79735.82,326.84,-1.18,72049.34,355.69,0.10,21812.55,584.94,-0.03,9621.74
611200,538.12,509.65,1.00,2,2,2,2134.23,-0.89,251199.95,1675.36,-2.60,270067.38,949.39,0.21,64449.20,1661.31,0.38,89958.89,613.14,0.15,7518.65
625600,476.58,508.92,1.00,2,2,2,4273.66,-3.13,405711.54,882.62,2.39,115830.84,424.20,1.07,51712.62,1328.03,0.27,25612.26,742.24,0.18,9074.70
640200,519.47,527.18,1.00,3,3,3,3192.69,0.40,501873.86,2017.81,0.73,155460.73,2281.94,0.50,132691.75,1527.67,0.42,20237.92,698.86,0.01,8803.61
662400,531.83,558.53,1.00,1,1,1,1517.94,1.20,107476.55,4334.35,0.35,115944.53,2393.12,0.38,13587.98,959.62,0.17,29193.08,583.03,0.06,5389.30
677200,670.12,582.16,1.00,1,1,1,9479.21,0.17,593833.99,2866.60,0.18,107112.89,1967.84,0.50,33443.31,1162.32,0.46,24987.29,632.58,0.31,10755.59
706500,656.21,581.14,1.00,1,1,1,475.98,-3.07,339697.09,546.31,2.07,105176.91,1613.93,-0.02,33484.39,1588.06,0.36,15266.65,689.44,0.10,5147.40
720800,658.73,603.09,1.00,1,1,1,1544.91,1.46,118845.63,881.42,-1.81,93508.37,259.42,0.15,95039.25,1248.64,0.17,30335.91,835.94,0.27,13817.35
735700,650.11,556.13,1.00,1,1,1,3203.83,-1.75,318549.09,990.42,-0.51,76459.05,616.06,0.25,24080.01,797.70,0.04,31384.21,1094.56,0.25,17400.26
757800,690.79,585.33,1.00,1,1,1,2265.58,0.62,230070.61,1542.30,0.65,66167.84,925.77,-0.81,37389.83,350.20,-2.53,50150.11,1221.22,0.30,6300.72
773200,696.03,591.30,1.00,1,1,1,515.96,0.85,114735.11,975.66,-1.20,132631.59,142.36,2.29,69353.13,238.80,-1.15,24893.04,1422.69,0.28,13229.52
788000,701.45,557.86,1.00,1,1,1,2289.23,-1.41,178908.09,1994.53,-2.65,142669.39,1145.59,-2.66,75695.37,296.97,-0.54,11580.54,1244.02,0.16,16434.08
802900,643.81,563.33,1.00,1,1,1,3886.10,3.05,334485.97,2418.11,-3.08,69586.76,609.15,-2.11,47210.24,1215.11,0.31,70022.18,1191.91,0.16,3518.86
817600,629.99,553.75,1.00,1,1,1,1143.65,-2.54,210962.84,590.95,-0.49,199838.21,285.28,1.78,57199.14,1301.26,0.17,13364.76,710.14,-0.12,37133.34
854400,670.59,548.88,1.00,2,2,2,1111.12,-0.12,57281.35,1389.40,0.38,30133.97,2108.84,0.27,57354.36,1274.81,0.19,907.65,979.77,-0.09,7357.68
869300,696.64,580.55,1.00,3,3,3,2752.03,0.88,157591.76,4092.68,0.39,181429.32,2808.48,0.25,47069.77,1239.91,0.15,4151.10,910.31,0.02,8043.16
898700,838.50,617.28,1.00,1,1,1,4984.25,0.25,108812.36,4502.96,0.20,30312.38,3174.13,0.35,15917.86,1541.99,0.22,10748.45,874.84,0.03,1322.92
913100,889.85,620.18,1.00,1,1,1,3571.58,0.06,113786.24,1796.74,0.21,187945.18,2525.96,0.03,76157.95,1565.82,0.01,21927.38,856.09,-0.04,4818.11
927800,889.60,628.36,1.00,1,1,1,556.85,1.60,244938.32,930.03,-1.27,132818.24,739.39,-0.01,121618.13,1907.03,0.03,23281.26,755.46,-0.02,7001.64
949800,899.86,587.55,1.00,1,1,1,1912.86,-1.32,111804.07,328.13,-1.78,30144.76,960.29,-1.68,57473.66,1618.63,0.12,14944.68,748.08,0.08,3331.04
964400,887.07,616.62,1.00,1,1,1,2175.31,1.99,279027.72,1181.27,-2.07,59699.40,1299.71,-0.99,56501.63,660.14,-0.69,86266.11,939.71,0.09,13138.97
979300,883.17,556.96,1.00,1,1,1,4012.57,-1.64,404464.14,2633.42,-0.88,164663.27,486.48,0.75,98127.95,495.37,-0.77,11415.98,1072.74,0.10,8974.44
994100,936.90,556.33,1.00,1,1,1,3630.85,-0.01,375277.29,2126.66,0.93,253436.14,915.08,-1.29,82196.10,363.79,-0.87,9326.97,820.06,0.06,17343.58
1008800,920.87,607.10,1.00,1,1,1,3621.54,1.88,399612.31,1220.29,2.91,193717.83,852.82,0.31,86691.96,209.34,-0.41,13555.31,750.24,-0.05,7268.28
1023600,901.84,564.50,1.00,1,1,1,3152.75,-1.99,428046.13,984.66,-1.11,134955.12,411.49,1.95,65690.67,343.03,-0.61,9766.92,383.55,-0.37,27297.30
1045800,937.10,574.48,1.00,1,1,1,1650.94,0.28,198098.95,618.95,0.79,59583.10,389.69,-1.38,35920.56,537.58,0.41,20914.03,442.32,-0.18,4322.17
1075500,924.37,587.39,1.00,1,1,1,610.64,2.35,67923.55,232.13,3.00,26258.88,426.58,0.78,24246.74,213.23,2.96,24384.12,650.21,-0.38,7889.82
1090300,926.87,575.91,1.00,1,1,1,794.14,-1.36,91237.90,89.60,0.61,20549.06,268.48,0.70,10823.94,255.74,-1.80,21887.83,542.56,0.19,23669.39
1105000,926.54,588.90,1.00,1,1,1,883.88,1.60,113642.38,948.26,0.42,58526.16,473.94,-2.20,50169.17,257.51,0.33,30553.42,517.57,-0.12,11248.92
1119600,952.22,587.29,1.00,1,1,1,1762.25,-0.06,139715.00,921.95,-2.22,124189.81,237.88,-2.78,20832.16,512.91,0.25,17592.47,498.40,0.10,7951.26
1141800,905.91,561.96,1.00,1,1,1,2377.50,-2.64,179299.26,1171.66,-2.74,26421.55,228.59,-0.63,18455.32,961.40,-0.22,25049.00,389.70,0.17,5098.49
1156800,912.09,570.28,1.00,1,1,1,690.76,0.93,201250.70,878.39,0.42,136662.91,726.92,0.13,38862.78,868.71,0.30,32216.47,493.61,-0.06,9747.51
1186200,941.50,577.91,1.00,2,2,2,1033.57,0.25,22397.78,1908.94,0.23,36028.81,1780.27,-0.05,36487.72,699.81,0.06,8622.65,420.72,0.23,5125.26
1215700,1021.51,596.13,1.00,3,3,3,2781.68,0.22,59282.87,2661.74,-0.18,40442.62,1639.80,0.31,21353.87,505.00,-0.16,7941.94,340.56,-0.25,6630.12
1237800,1076.59,553.11,1.00,1,1,1,3162.24,-0.66,116448.18,1238.00,0.50,84829.58,1150.22,0.17,23828.28,904.95,0.10,19784.11,570.05,-0.01,11363.24
1252200,1061.09,617.94,1.00,1,1,1,4628.75,1.81,511802.03,1143.45,2.12,119522.66,368.35,-0.88,70701.22,966.73,0.16,5616.21,1113.33,0.04,37863.18
1282100,1050.25,596.38,1.00,1,1,1,807.00,-2.04,176301.85,1110.61,-2.00,66552.01,412.43,2.20,26099.79,586.07,0.19,12750.98,1515.49,0.09,13586.76
1296600,1040.48,573.14,1.00,1,1,1,1738.62,-1.97,64486.85,693.39,-1.14,58093.13,351.05,-0.80,52522.92,353.55,-1.17,42498.93,1502.28,0.01,7924.40
1311600,1058.76,577.78,1.00,1,1,1,1257.30,0.25,179347.79,1271.07,0.54,100884.54,231.78,-3.09,35510.97,268.77,1.01,36848.81,1692.06,0.12,17327.82
1333700,1080.95,597.34,1.00,2,2,2,1338.71,0.72,27825.45,808.94,2.50,79059.87,375.77,-1.51,20049.68,1452.58,-0.13,61693.57,1589.93,0.03,8215.80
1348400,1034.90,595.59,1.00,2,2,2,3134.59,-3.10,289574.62,2121.15,-2.24,152964.42,582.95,0.19,49831.86,2605.38,0.10,84217.70,1639.88,0.05,4108.34
1363300,1041.97,548.12,1.00,2,2,2,3220.71,-1.42,317702.70,2137.51,-0.17,245736.21,3101.69,-0.04,170243.69,2839.60,0.05,17756.96,1359.51,-0.04,21101.33
1377700,1096.62,584.93,1.00,3,3,3,4575.79,0.59,460632.76,7730.56,0.19,401391.67,5442.31,0.10,166906.67,2600.33,0.13,22373.61,1303.88,0.15,17865.96
1392400,1262.89,590.54,1.00,1,1,1,11317.46,0.03,532245.20,8131.41,0.15,34500.54,5697.49,0.12,19408.06,2393.35,-0.03,31238.51,1378.80,-0.13,25362.81
1414700,1394.08,630.04,1.00,1,1,1,6143.80,0.29,251263.83,4152.90,0.02,181844.33,4245.38,0.13,65135.79,2869.20,0.02,22265.43,1448.32,0.02,10034.64
1429800,1418.19,592.93,1.00,1,1,1,2930.79,-0.99,398757.06,1001.59,-0.04,208853.54,1880.71,-0.03,159185.28,2590.77,0.08,21406.21,1540.78,0.07,7565.56
1458800,1438.21,628.07,1.00,1,1,1,1394.34,1.05,130327.82,163.10,-1.98,36914.59,671.81,-0.55,46262.48,2382.59,0.07,7312.93,1363.58,0.07,6111.27
1473500,1415.36,586.39,1.00,1,1,1,3233.14,-2.07,314785.59,813.04,-1.65,44935.33,176.37,-1.31,37949.70,1308.72,-0.12,76283.60,1272.13,-0.11,17377.90
1488300,1436.21,604.17,1.00,1,1,1,1851.40,0.71,338312.02,261.96,-0.84,44650.63,333.73,-1.15,10975.45,400.99,-0.45,63382.01,1516.02,-0.01,19357.58
1510400,1421.80,579.18,1.00,1,1,1,1305.05,-2.09,140809.27,316.76,0.32,14534.40,652.58,-0.44,20516.42,299.09,0.22,11244.05,1316.28,0.09,10952.98
1525200,1447.30,607.86,1.00,1,1,1,2592.99,0.84,262167.08,1175.64,-0.33,63813.00,130.12,0.20,37419.64,211.54,-0.86,18507.29,1046.01,-0.03,20643.98
1539800,1454.46,567.87,1.00,1,1,1,2782.99,-1.39,331296.79,113.06,-2.50,85081.58,744.80,0.55,42770.62,281.27,-0.84,4792.64,608.48,0.02,30109.67
1554500,1444.66,605.87,1.00,1,1,1,2669.76,1.82,370672.53,1191.43,1.45,86581.69,144.07,-0.29,44793.63,351.52,-0.20,14218.50,200.60,-0.98,36005.16
1568700,1458.73,602.03,1.00,1,1,1,1026.81,-0.27,232494.14,270.78,-0.10,85563.25,208.96,-2.33,21297.74,100.70,0.31,18915.61,54.77,-1.47,10859.95
1605300,1458.35,604.52,1.00,1,1,1,68.61,1.72,28865.89,952.50,-1.90,28636.57,513.72,-0.27,17459.15,265.53,-2.27,9695.86,180.23,-1.68,3477.59
1620100,1442.90,555.70,1.00,1,1,1,3459.34,-1.88,237906.41,797.45,-0.34,83557.21,299.25,-2.46,49239.52,167.89,1.70,26949.59,63.39,0.02,13453.59
1649800,1491.82,592.74,1.00,1,1,1,2065.98,0.65,177844.02,655.46,1.79,42860.81,596.30,-2.49,10010.28,193.71,-2.15,11420.97,127.66,-2.20,5842.75
1664300,1436.54,583.97,1.00,1,1,1,3860.09,-2.98,397595.37,2005.47,-2.90,146408.84,490.11,1.37,70249.09,286.47,-2.56,9212.29,147.53,0.32,18068.33
1686800,1419.79,574.94,1.00,1,1,1,845.99,-2.65,136643.38,483.75,0.64,109239.63,988.25,-2.94,56167.21,271.24,-2.32,3022.21,38.25,-3.03,8226.51
1701500,1450.93,594.78,1.00,1,1,1,2511.96,0.57,228316.63,308.06,0.55,12222.22,273.93,-2.72,49206.09,232.11,1.86,29713.28,875.95,3.02,57058.12
1716200,1427.52,579.65,1.00,1,1,1,1896.01,-2.57,299859.86,1224.84,-2.61,104276.97,216.03,0.14,33009.16,600.89,-2.90,43055.37,1611.00,3.05,50065.24
1730900,1419.88,576.53,1.00,1,1,1,561.19,-2.75,91737.70,192.73,-0.55,90278.64,325.76,-2.71,36490.55,201.64,0.33,54556.69,2143.17,3.07,36267.84
1745600,1432.37,576.71,1.00,1,1,1,849.16,0.01,94345.48,583.77,0.65,36938.17,219.04,-2.72,7260.72,254.16,1.10,12174.18,2218.59,3.10,6470.29
1760200,1433.53,586.84,1.00,1,1,1,698.64,1.46,70410.82,494.82,-2.98,71756.02,676.50,0.36,61320.52,1851.17,3.12,135286.25,2147.42,2.96,20856.97
1782800,1414.21,573.68,1.00,1,1,1,1034.40,-2.54,70000.70,778.17,0.20,56319.24,372.01,1.45,26677.91,3379.93,2.99,69148.68,2460.41,3.09,18838.07
1797500,1461.98,592.58,1.00,2,2,2,3495.01,0.38,306796.77,901.48,0.99,44657.39,2981.54,3.09,205975.83,4256.98,3.02,60193.34,2022.56,3.05,30177.23
1826500,1435.85,606.60,1.00,2,2,2,1022.71,2.65,145791.75,6171.89,3.12,230732.97,6304.19,2.98,115803.31,4175.49,3.05,4521.25,1934.13,3.03,3437.91
1841200,1192.36,599.60,1.00,3,3,3,16570.43,-3.11,1067464.75,16365.28,3.05,694795.06,8268.98,3.06,139219.15,4099.15,3.01,12500.13,2085.18,-3.10,22984.73
1855600,961.54,649.29,1.00,3,3,3,16396.88,2.93,275188.78,10767.92,3.01,390208.89,9323.01,3.10,77559.54,4093.98,3.05,11511.91,1954.86,3.11,13482.39
1878200,797.15,650.02,1.00,1,1,1,7273.64,3.14,415918.67,3813.73,-3.03,315001.05,5492.69,2.95,175430.63,3687.79,3.07,18359.68,1982.83,3.06,4321.39
1892400,822.06,633.69,1.00,1,1,1,2097.11,-0.58,641166.29,1489.96,0.41,370248.99,2161.63,-3.04,244503.79,3681.34,3.09,4124.35,1943.43,3.02,6400.19
1907100,836.72,667.00,1.00,1,1,1,2475.37,1.16,237941.17,787.60,-3.10,152645.63,196.26,-0.63,157276.83,2291.18,-3.06,98273.09,1969.98,3.10,10521.13
1936600,787.28,632.19,1.00,1,1,1,2049.67,-2.53,147830.04,554.46,-2.29,19392.22,189.28,0.34,6069.47,906.76,-2.83,48320.20,1909.41,3.08,2450.97
1974100,812.37,638.94,1.00,1,1,1,692.90,0.26,72290.56,1006.62,0.14,39242.83,1019.11,-1.72,29884.85,141.40,-1.74,22667.81,2025.80,-3.14,4697.72
1988800,839.28,639.71,1.00,1,1,1,1831.59,0.03,79505.07,2369.34,-1.44,175717.32,407.55,-0.99,52105.93,138.07,2.25,17338.67,2064.80,-3.14,2657.12
2003500,821.69,569.91,1.00,1,1,1,4897.03,-1.82,386117.96,1148.42,-2.22,119212.45,311.43,-2.56,34879.75,378.83,-2.25,29291.62,1153.74,3.07,62455.81
2032900,808.73,599.33,1.00,1,1,1,1093.32,1.99,197227.40,1421.70,2.04,74311.56,432.74,2.76,12262.41,189.65,-0.71,14207.77,504.64,-2.86,23892.89
2048000,793.11,626.35,1.00,1,1,1,2067.30,2.09,65408.47,1446.59,1.61,40682.49,640.54,2.12,25975.51,353.21,-1.40,15909.57,95.76,-1.59,32116.63
2069900,806.72,652.81,1.00,1,1,1,1358.84,1.10,80160.38,326.74,-1.44,80921.38,193.61,1.42,23200.05,325.36,-2.23,12464.77,187.10,-1.97,4782.52
2084800,794.67,614.43,1.00,1,1,1,2700.00,-1.88,271518.76,1383.16,-1.47,70915.69,687.44,-0.92,55930.91,412.34,1.18,49068.27,330.31,-1.58,11603.32
2099500,810.72,612.07,1.00,1,1,1,1103.42,-0.15,209066.55,1211.95,-0.75,63270.46,837.78,-1.47,30050.38,46.98,1.21,24855.50,231.70,-0.48,20757.63
2114100,820.62,590.19,1.00,1,1,1,1644.80,-1.15,95900.76,288.71,-1.48,69567.67,838.23,0.19,84738.13,48.34,-0.98,5798.76,124.79,-1.14,10495.71
2128900,811.46,603.61,1.00,1,1,1,1097.98,2.17,184651.14,1348.19,0.97,106867.37,102.72,-1.53,58076.51,527.90,-1.68,33230.03,134.57,-2.93,13708.61
2144200,843.61,623.63,1.00,1,1,1,2475.16,0.56,179697.82,43.94,1.87,86367.78,580.50,2.23,43567.21,474.40,-0.91,24816.17,207.49,1.58,17538.33
2166500,810.97,605.19,1.00,1,1,1,1680.96,-2.63,186332.05,1266.52,-3.09,56349.62,339.54,-2.04,35289.02,290.31,-0.31,12809.88,91.83,0.17,9562.56
2181300,796.69,621.00,1.00,1,1,1,1439.36,2.31,132407.82,654.93,-2.00,75644.60,766.24,-1.70,31186.95,118.00,1.17,20506.83,136.76,0.11,3071.83
2210800,798.79,578.85,1.00,1,1,1,1430.32,-1.52,91630.45,1604.15,-0.99,46686.05,529.84,-0.14,31320.93,201.92,1.92,4752.89,474.38,-0.43,12329.85
2225500,835.76,561.83,1.00,1,1,1,2768.86,-0.43,167260.04,1867.19,0.39,150466.38,421.01,-0.45,12197.43,158.61,2.88,11641.28,665.36,-0.12,17423.21
2240200,849.62,599.60,1.00,1,1,1,2736.67,1.22,275207.20,1232.59,1.76,137457.84,799.89,1.52,70645.81,161.32,-0.07,21664.01,495.13,-0.00,12517.17
2262200,827.41,606.29,1.00,1,1,1,1054.15,2.85,135911.84,1576.34,2.55,51635.39,1048.01,1.78,15666.03,249.18,0.27,5070.69,466.43,0.11,2776.30
2277000,801.33,631.75,1.00,1,1,1,2462.59,2.37,108361.07,820.92,1.84,74233.44,251.02,2.90,65154.74,905.77,0.13,44605.56,578.01,0.31,10365.50
2291800,821.00,629.73,1.00,2,2,2,1336.19,-0.10,243654.65,1454.04,-0.72,147714.50,411.92,1.45,30738.56,1030.56,0.19,9362.95,415.55,-0.33,23501.66
2306400,833.48,603.57,1.00,3,3,3,1984.88,-1.13,117922.69,315.99,0.07,85761.30,1662.13,-0.27,121389.99,689.08,0.11,23870.65,528.80,-0.09,10829.11
2321100,830.24,630.39,1.00,3,3,3,1837.33,1.69,256598.75,1898.12,-0.08,107915.72,2079.16,-0.23,28719.88,863.60,-0.01,13273.96,568.90,-0.26,6925.56
2357900,930.94,595.92,1.00,1,1,1,2892.21,-0.33,109930.08,3087.17,-0.25,34261.05,1329.54,0.06,24384.91,1154.03,0.14,8870.20,924.82,-3.09,40110.94
2372800,984.81,590.62,1.00,1,1,1,3633.27,-0.10,70741.73,757.86,0.49,173039.61,1389.33,-0.19,23152.29,939.73,-0.32,34994.79,992.83,3.10,7845.98
2402200,960.60,611.65,1.00,1,1,1,1090.84,2.43,155333.04,637.89,2.58,41133.91,1049.49,0.92,44628.84,847.35,-0.09,7457.79,1134.48,-2.97,9017.32
2416900,961.01,605.61,1.00,1,1,1,411.28,-1.50,96023.08,1660.33,1.21,112707.50,261.72,-2.75,87271.19,882.29,-0.39,17301.77,912.63,-2.96,15119.30
2431700,978.00,657.43,1.00,1,1,1,3684.41,1.25,274896.13,643.96,-1.39,151028.41,345.20,-1.16,29510.01,2854.87,-3.06,247615.70,879.75,-2.82,8900.57
2453400,965.34,582.51,1.00,2,2,2,3501.42,-1.74,330221.42,1857.59,-1.70,58050.64,438.32,-1.52,7787.61,3113.01,-3.10,13234.11,939.73,-0.32,79592.10
2467800,969.65,590.89,1.00,2,2,2,654.69,1.09,286806.53,219.57,-2.05,114825.83,6912.89,-2.93,476143.55,3371.33,-2.99,31507.95,847.35,-0.09,15226.32
2482700,962.36,576.80,1.00,3,3,3,1064.50,-2.05,115382.20,14787.66,-3.08,984941.37,7051.74,-3.12,88094.03,2982.67,-3.02,27111.81,882.29,-0.39,17069.54
2497300,534.25,563.98,1.00,3,3,3,29336.10,-3.11,1974914.47,13975.82,-3.13,77704.31,6797.14,-3.04,43666.13,3015.62,-2.89,27432.59,2854.87,-3.06,251007.70
2512100,551.48,574.09,1.00,3,3,3,1350.20,0.53,2062664.52,659.80,-2.16,920184.24,5932.08,-3.10,63783.59,7051.74,-3.12,282043.11,3113.01,-3.10,19404.07
2534200,520.80,543.68,1.00,1,1,1,1954.71,-2.36,148413.90,649.86,-0.68,39849.32,284.18,-0.81,277049.06,6797.14,-3.04,28847.31,3371.33,-2.99,20530.07
2548900,570.06,559.03,1.00,1,1,1,3510.15,0.30,362026.46,672.12,0.12,35295.18,649.86,-0.68,25148.46,5932.08,-3.10,64217.50,2982.67,-3.02,27480.67
2578200,550.14,547.37,1.00,1,1,1,787.89,-2.61,146122.48,787.89,-2.61,48818.19,672.12,0.12,17707.82,284.18,-0.81,208968.75,3015.62,-2.89,13669.48
