@RELATION gaze_labels

%@METADATA width_px 1920
%@METADATA height_px 1080
%@METADATA width_mm 540.00
%@METADATA height_mm 254.00
%@METADATA distance_mm 620.00


@ATTRIBUTE time INTEGER
@ATTRIBUTE x NUMERIC
@ATTRIBUTE y NUMERIC
@ATTRIBUTE confidence NUMERIC
@ATTRIBUTE handlabeller1 INTEGER
@ATTRIBUTE handlabeller2 INTEGER
@ATTRIBUTE handlabeller_final INTEGER
@ATTRIBUTE speed_1 numeric
@ATTRIBUTE direction_1 numeric
@ATTRIBUTE acceleration_1 numeric
@ATTRIBUTE speed_2 numeric
@ATTRIBUTE direction_2 numeric
@ATTRIBUTE acceleration_2 numeric
@ATTRIBUTE speed_4 numeric
@ATTRIBUTE direction_4 numeric
@ATTRIBUTE acceleration_4 numeric
@ATTRIBUTE speed_8 numeric
@ATTRIBUTE direction_8 numeric
@ATTRIBUTE acceleration_8 numeric
@ATTRIBUTE speed_16 numeric
@ATTRIBUTE direction_16 numeric
@ATTRIBUTE acceleration_16 numeric

%The number after speed, direction denotes the step size that was used for the calculation.
%Acceleration was calculated between two adjacent samples of the already low pass filtered velocity

@DATA
0,404.06,434.95,1.00,2,2,2,0.00,0.00,0.00,3291.69,0.03,0.00,3317.71,0.07,0.00,1962.63,0.07,0.00,2905.95,0.11,0.00
29400,500.79,437.93,1.00,2,2,2,3291.69,0.03,111962.08,3317.71,0.07,4018.12,1839.84,0.13,50545.34,2522.14,0.08,19049.56,2487.52,0.02,16626.61
44300,550.72,444.59,1.00,2,2,2,3380.61,0.13,23572.28,1839.84,0.13,99733.76,1962.63,0.07,10815.46,2445.26,-0.00,15746.38,1902.05,-0.00,39414.81
59000,554.80,444.91,1.00,2,2,2,278.48,0.08,211059.72,801.91,0.10,70641.31,2522.14,0.08,38099.12,3663.51,0.00,82895.67,1735.78,0.11,18602.60
96000,591.97,448.82,1.00,3,3,3,1009.90,0.10,19771.70,2914.15,0.07,57103.93,2445.26,-0.00,6341.11,2905.95,0.11,22483.48,1697.06,0.06,2726.91
110700,705.11,455.29,1.00,3,3,3,7709.31,0.06,455831.28,5355.11,-0.03,168278.76,3663.51,0.00,82895.67,2487.52,0.02,33253.23,847.44,0.11,57957.43
125300,748.79,443.70,1.00,1,1,1,3095.34,-0.26,333166.94,5002.56,-0.06,26134.69,4449.76,0.14,65002.30,1902.05,-0.00,40224.70,648.51,0.34,17694.23
140100,851.91,446.35,1.00,1,1,1,6970.13,0.03,276585.95,3735.46,0.38,153453.66,2461.39,-0.07,142079.70,1735.78,0.11,18476.91,144.91,3.07,52966.47
154800,851.18,484.44,1.00,1,1,1,2591.58,1.59,504814.27,416.54,-0.16,230320.65,1234.37,-0.01,83819.24,1697.06,0.06,6863.65,1252.86,0.10,94971.20
176600,866.91,443.86,1.00,1,1,1,1996.40,-1.20,207287.35,1271.85,-2.04,66660.59,784.40,2.58,89176.78,847.44,0.11,39081.38,958.60,0.19,14250.16
191200,830.13,443.20,1.00,1,1,1,2519.51,-3.12,254460.53,2243.28,2.67,176941.65,385.92,-2.39,53677.75,648.51,0.34,17694.23,136.65,0.62,57308.60
206000,808.29,474.08,1.00,1,1,1,2555.74,2.19,160364.81,449.56,1.66,137844.13,690.05,2.63,46023.15,144.91,3.07,52966.47,205.80,0.89,5558.30
235600,828.45,463.09,1.00,1,1,1,775.60,-0.50,110472.95,345.87,-0.37,22835.57,407.59,1.30,24098.84,486.26,-2.95,11759.24,257.75,1.24,3260.67
250200,822.57,468.63,1.00,1,1,1,552.86,2.39,90264.85,433.29,0.85,30945.37,424.58,-0.87,50378.72,752.13,2.70,31517.81,432.05,2.70,32681.68
272600,838.98,475.18,1.00,1,1,1,788.63,0.38,50805.65,602.72,-1.20,39798.59,725.29,2.98,48399.57,1594.71,3.04,41052.55,739.71,2.84,14159.04
287300,830.63,447.77,1.00,1,1,1,1949.26,-1.87,171345.65,1975.95,-3.07,151493.61,824.18,2.76,13164.45,1319.41,3.05,18746.75,915.70,2.97,14186.21
302100,780.85,470.87,1.00,2,2,2,3708.28,2.71,298768.84,2439.60,2.53,104015.21,3461.96,-3.12,184000.01,1491.60,2.89,19242.74,966.96,3.06,6352.02
316800,771.55,488.86,1.00,3,3,3,1377.74,2.05,187202.73,4457.99,-3.13,193761.58,2961.83,2.95,58830.54,1472.65,2.96,7960.77,1050.17,2.91,11295.11
346200,584.26,468.62,1.00,3,3,3,6407.41,-3.03,205719.90,3423.54,3.11,35632.26,2124.90,2.86,29437.09,1973.66,3.02,17405.66,769.88,2.90,9539.14
368400,594.98,494.32,1.00,1,1,1,1254.24,1.18,319700.46,1611.53,1.01,200891.28,1938.10,3.02,17088.99,1556.33,2.96,19391.23,841.37,2.99,4647.45
383000,615.77,518.86,1.00,1,1,1,2203.19,0.87,73787.01,418.20,2.00,97745.37,793.73,2.42,92967.37,1386.30,2.98,11709.00,991.13,2.87,12953.06
412600,587.21,511.09,1.00,1,1,1,999.93,-2.88,104044.60,1815.18,-3.04,58230.72,374.34,3.08,18479.20,1305.22,3.01,3125.49,981.71,3.04,5881.12
427300,535.75,510.93,1.00,1,1,1,3500.69,-3.14,173347.59,610.01,-2.66,86291.19,805.64,-3.04,29927.81,206.25,1.32,91478.94,940.41,3.08,3701.33
464600,559.03,496.53,1.00,1,1,1,733.97,-0.55,111041.92,54.49,0.15,17744.65,562.19,2.96,8239.99,350.20,2.79,10381.45,952.31,2.83,6300.38
479300,538.55,511.36,1.00,1,1,1,1720.24,2.51,166860.86,964.22,2.21,67395.89,705.76,-0.17,86253.06,517.17,2.82,11401.84,792.53,2.96,13240.71
494100,542.16,519.43,1.00,1,1,1,596.86,1.15,114953.35,1855.06,-0.19,178663.78,380.08,2.31,69716.56,467.37,-2.95,17045.41,701.23,3.10,9347.86
508900,592.50,501.15,1.00,1,1,1,3619.04,-0.35,244950.00,223.06,-1.28,119192.60,553.98,1.54,25896.53,180.46,-0.78,39809.09,134.36,2.72,39100.49
523500,544.03,513.14,1.00,1,1,1,3420.57,2.90,481491.54,2313.24,2.46,171256.64,470.52,-2.39,64773.43,328.60,1.93,34121.53,205.85,2.25,7214.71
538400,539.47,544.09,1.00,1,1,1,2099.54,1.72,219177.95,780.83,-2.60,146166.64,583.08,-2.91,19537.35,49.33,2.40,19153.56,332.40,0.89,23614.29
560600,519.27,498.09,1.00,1,1,1,2263.04,-1.98,188874.85,1465.48,-1.28,66392.94,326.03,1.62,32345.08,160.64,-1.26,9235.15,543.23,0.21,15980.34
575300,554.83,492.24,1.00,1,1,1,2451.01,-0.16,253444.33,1082.73,1.06,159889.52,354.16,-1.78,45883.02,329.85,-2.82,24877.47,837.27,0.26,20165.61
604600,542.74,539.55,1.00,1,1,1,1666.56,1.82,118550.50,725.15,2.30,37351.85,404.62,-0.00,20142.67,215.92,1.19,16957.59,678.11,0.41,6644.05
619400,533.46,516.04,1.00,1,1,1,1707.71,-1.95,216921.83,1415.27,-1.42,139230.81,132.58,-2.50,34900.94,1007.93,0.37,59239.52,821.57,0.22,13810.77
634300,549.09,498.00,1.00,2,2,2,1601.87,-0.86,115276.30,876.48,-1.17,40530.86,200.57,0.25,21946.03,1507.51,0.20,36126.55,822.79,0.34,6500.52
656900,546.18,485.73,1.00,2,2,2,557.93,-1.80,59906.55,1213.89,1.42,89172.76,2479.19,0.51,101142.66,1556.04,0.36,10842.42,673.28,0.37,6708.58
671700,555.77,542.90,1.00,3,3,3,3917.09,1.40,302292.27,5826.93,0.70,336677.69,2514.90,0.23,46765.57,1340.23,0.18,22838.40,679.13,0.07,13759.84
686700,679.08,597.49,1.00,3,3,3,8990.13,0.42,505089.75,4376.17,0.01,246719.47,3425.02,0.37,66512.20,1553.74,0.20,14316.92,825.49,0.16,10873.60
715700,748.31,545.13,1.00,1,1,1,2993.15,-0.65,275159.08,2372.27,-0.20,72882.83,2285.95,0.17,43656.28,1541.99,0.43,12269.06,897.25,0.25,3605.07
730400,780.74,577.15,1.00,1,1,1,3100.50,0.78,271331.77,854.52,1.91,197385.97,1125.75,-0.31,94490.59,1632.67,0.36,9374.34,794.35,0.39,10600.28
752600,737.92,574.90,1.00,1,1,1,1931.50,-3.09,212699.32,234.53,-1.51,48741.83,780.78,1.09,56630.64,1182.49,-0.07,33617.40,1176.10,0.19,19218.76
782100,781.46,565.05,1.00,1,1,1,1513.37,-0.22,115688.96,1074.77,0.59,41041.85,37.77,-0.93,27052.31,710.20,-0.08,16010.95,1759.87,0.29,20370.85
796800,777.34,601.40,1.00,1,1,1,2488.68,1.68,225233.12,329.14,1.46,61004.72,561.77,-1.06,35670.11,322.55,0.47,31765.83,1792.62,0.22,8855.34
811600,782.57,574.70,1.00,1,1,1,1838.66,-1.38,292156.00,1446.71,-1.75,119954.19,394.49,0.78,51938.87,79.48,1.01,17383.93,1786.02,0.34,14592.76
848400,764.18,527.92,1.00,2,2,2,1365.83,-1.95,27343.81,486.82,0.54,49038.48,456.12,-1.08,18555.85,1018.96,0.21,26222.51,1816.97,0.21,6706.19
863400,804.19,587.68,1.00,2,2,2,4794.45,0.98,409045.15,1747.03,0.93,87292.43,176.71,1.21,39149.02,2002.85,0.38,67445.00,1362.08,0.16,30627.20
877700,794.83,568.91,1.00,3,3,3,1466.34,-2.03,437179.04,575.31,3.12,149236.51,2571.00,0.56,170109.49,2132.82,0.06,46479.57,1089.24,0.10,19819.07
892200,787.62,588.01,1.00,3,3,3,1407.98,1.93,181670.93,3572.73,0.38,283346.99,4034.72,0.33,113271.60,1947.82,0.33,39580.91,954.98,0.23,12744.94
906900,891.68,607.70,1.00,3,3,3,7204.25,0.19,515376.53,7597.85,0.31,275061.51,4528.71,0.17,56672.08,2707.29,0.36,51903.94,1279.13,0.26,22182.72
929200,1055.59,673.01,1.00,3,3,3,7912.10,0.38,72329.64,5375.64,0.06,122076.31,4175.82,0.29,27608.23,2224.84,0.26,24036.28,1243.52,0.08,10085.01
944000,1090.75,619.75,1.00,1,1,1,4312.32,-0.99,554503.20,229.95,-1.80,368016.04,2866.76,0.23,89483.54,1960.75,0.04,36496.84,2143.00,0.08,60777.23
958700,1054.02,666.41,1.00,1,1,1,4039.74,2.24,567674.35,1116.53,0.97,90720.15,659.11,-0.10,153238.19,1942.81,0.19,21070.83,1895.56,0.09,16940.70
988200,1118.71,660.42,1.00,1,1,1,2202.14,-0.09,195956.07,1129.82,0.04,34238.32,505.97,-1.75,29231.93,1553.60,0.29,14374.67,2454.15,0.18,20064.46
1002900,1103.93,668.21,1.00,1,1,1,1136.50,2.66,223205.98,2400.45,-1.98,208350.32,335.03,-1.01,23309.18,809.64,-0.77,92199.53,2232.55,0.14,16941.43
1025000,1083.46,579.42,1.00,2,2,2,4122.87,-1.80,205789.60,1183.46,-2.53,69005.14,231.02,2.10,25610.34,2154.69,0.10,78917.06,2128.00,0.13,4770.13
1039500,1068.38,643.46,1.00,2,2,2,4537.44,1.80,581716.52,3348.89,1.29,298930.42,1222.54,-1.15,100169.22,1953.88,-0.15,38140.02,2231.66,0.09,8912.98
1054300,1110.99,673.60,1.00,3,3,3,3526.91,0.62,309855.78,2853.66,-0.62,342177.26,5351.70,0.23,354799.10,2283.95,-0.03,27813.03,1573.03,0.09,44502.29
1069100,1137.14,594.41,1.00,3,3,3,5635.10,-1.25,504786.26,9482.16,-0.08,484945.24,4340.42,-0.07,118131.84,2279.16,0.00,6029.03,1146.26,-0.06,32218.50
1083900,1390.67,650.01,1.00,3,3,3,17537.56,0.22,1206786.71,6427.98,0.16,243988.31,4695.51,-0.08,24044.75,2321.26,0.21,32293.14,1094.37,0.05,9329.09
1098600,1324.25,625.22,1.00,1,1,1,4823.08,-2.78,1518568.23,816.17,-0.00,382627.57,4215.19,0.27,110120.55,2554.45,0.01,36538.92,105.08,0.73,69027.59
1120400,1420.46,649.93,1.00,1,1,1,4556.76,0.25,429667.03,2527.22,0.50,85034.60,123.05,-0.26,188505.79,1642.26,-0.08,42678.33,171.40,2.56,10223.47
1135200,1405.45,669.50,1.00,1,1,1,1666.62,2.22,366955.24,459.96,-3.02,199960.50,1288.47,0.22,79760.22,1666.14,0.21,32021.25,891.61,-3.13,51041.59
1164600,1400.28,647.49,1.00,1,1,1,769.06,-1.80,75998.71,671.36,-0.81,34548.63,466.62,3.07,59196.54,203.13,-0.44,51335.85,920.48,2.70,13763.46
1179500,1425.97,647.97,1.00,1,1,1,1724.62,0.02,137885.92,485.68,2.91,74506.80,204.61,-1.83,31796.96,1573.73,2.89,119032.20,997.26,2.93,15526.49
1216100,1375.93,653.21,1.00,2,2,2,1374.77,3.04,84525.16,500.96,3.04,1765.21,285.82,-0.52,8365.46,2230.54,3.03,19288.12,1066.97,3.01,2945.96
1230700,1400.46,650.61,1.00,2,2,2,1689.55,-0.11,209885.14,1616.05,-0.37,144085.64,4343.66,3.03,315610.06,3477.87,-3.14,88220.55,1071.43,2.98,1997.23
1245600,1420.41,636.06,1.00,2,2,2,1657.34,-0.63,58281.43,11013.06,3.03,844549.27,5097.09,3.03,50568.30,3516.02,3.05,22395.43,1957.11,3.07,60100.71
1260200,1077.67,687.49,1.00,3,3,3,23738.08,2.99,1727326.90,11788.30,2.99,59775.07,8385.52,3.11,228573.87,4041.08,3.05,35965.68,1701.47,3.11,18172.56
1275000,1077.67,687.49,1.00,3,3,3,0.00,0.00,1603924.24,6378.88,-3.05,391434.19,7283.76,3.04,84907.30,4196.45,3.03,11538.41,2072.53,3.13,25206.87
1297400,841.35,665.98,1.00,1,1,1,10593.50,-3.05,472923.95,4742.82,3.10,80033.42,3743.12,3.08,158348.87,4148.71,-3.13,21623.66,2113.01,3.13,1824.99
1326800,832.22,697.95,1.00,1,1,1,1130.95,1.85,355163.80,1788.48,2.59,111982.39,3542.52,3.04,8156.85,4314.19,3.05,14800.93,2456.78,-3.14,11733.53
1341500,773.98,706.99,1.00,1,1,1,4009.00,2.99,250421.68,1513.52,2.72,23143.50,421.74,-2.44,221998.57,1918.94,-2.98,170277.11,2789.90,3.13,22721.66
1356100,791.82,716.24,1.00,1,1,1,1375.76,0.48,355001.67,2527.33,-0.95,267860.87,686.32,-2.99,27130.51,1932.79,-3.03,7132.15,2919.15,-3.07,17837.02
1371200,817.58,645.89,1.00,1,1,1,4961.22,-1.22,351905.00,687.81,-1.75,139424.05,1070.44,-1.21,91856.25,533.85,2.99,94266.28,2668.19,-3.11,18258.90
1392900,787.34,691.32,1.00,1,1,1,2515.09,2.16,342387.75,537.54,-2.87,30666.32,917.30,-1.53,15832.31,1296.62,-2.86,38822.09,2957.83,-3.11,13348.98
1407600,798.72,640.70,1.00,1,1,1,3529.63,-1.35,404525.62,1239.53,-1.37,89562.22,892.83,2.59,108933.31,1472.74,-2.90,12693.34,1783.94,-3.02,81151.30
1422400,794.58,655.48,1.00,2,2,2,1037.07,1.84,308488.72,1618.61,2.28,186960.60,1851.96,-2.81,98829.90,1904.33,-2.69,37614.29,1547.51,-3.08,17333.41
1437100,767.58,676.90,1.00,2,2,2,2344.61,2.47,110445.95,3088.95,-3.08,168538.00,2907.65,3.08,94735.49,1384.10,-3.05,53462.90,1069.20,-2.94,34799.99
1466600,658.33,646.76,1.00,3,3,3,3841.72,-2.87,105179.26,3982.45,-3.04,30704.25,3242.10,-2.90,32989.47,1762.20,-2.83,17457.17,1069.95,-2.87,2481.03
1488600,563.64,655.13,1.00,1,1,1,4320.84,3.05,69349.31,3541.14,-2.72,56945.96,1881.30,-2.86,62077.08,1670.37,-3.06,18323.02,820.94,-2.70,13459.98
1503300,539.66,593.79,1.00,1,1,1,4480.97,-1.94,359203.63,958.15,-0.75,273257.56,1681.09,-2.85,13640.40,1232.25,-3.14,30839.56,1044.34,-2.74,15400.27
1532800,594.76,626.41,1.00,1,1,1,2170.85,0.53,214709.15,411.78,2.25,46340.34,691.97,-2.49,36062.27,1522.47,-2.84,16988.19,951.79,-2.93,7265.64
1547400,528.19,607.86,1.00,1,1,1,4733.71,-2.87,469400.53,1774.10,-3.03,108907.69,735.60,1.04,95966.08,875.63,-2.88,44432.86,815.20,-2.97,9643.12
1578400,514.38,617.25,1.00,1,1,1,538.49,2.54,142107.39,1272.11,0.78,92931.56,1105.06,-2.81,55840.09,364.97,-1.82,24820.57,879.49,-2.94,2248.24
1600100,575.61,655.25,1.00,1,1,1,3320.67,0.56,164670.01,579.91,-1.83,82796.66,99.72,2.83,47340.98,247.48,-3.08,17274.12,852.48,-2.90,2045.87
1614900,509.01,596.78,1.00,1,1,1,5988.01,-2.42,626999.40,2419.38,-2.46,133874.86,601.86,-0.45,47352.29,526.87,-2.57,22586.35,676.79,-2.99,12764.66
1629500,520.40,610.40,1.00,1,1,1,1216.07,0.87,492611.18,1414.67,0.08,251698.11,1665.77,-2.43,136010.15,296.02,1.21,53788.90,164.81,1.13,53509.39
1643900,549.90,600.15,1.00,1,1,1,2168.74,-0.33,144256.64,915.13,-2.36,152588.29,356.76,-0.57,125147.69,291.69,-0.92,35614.86,537.90,0.37,30073.31
1658900,501.21,591.54,1.00,1,1,1,3296.05,-2.97,353069.54,705.72,-2.49,15382.50,678.94,1.02,51549.19,562.25,-2.16,36279.45,782.24,0.58,18496.55
1681300,528.99,584.04,1.00,1,1,1,1284.24,-0.26,200534.35,1928.40,0.93,116723.91,271.14,-2.30,42270.24,469.68,0.80,45882.04,550.93,0.28,13437.63
1696000,543.91,648.95,1.00,1,1,1,4530.35,1.34,323476.47,316.91,0.29,114629.93,377.62,-0.06,39899.81,1217.43,0.48,53488.45,850.43,0.31,20405.34
1710500,537.85,586.69,1.00,2,2,2,4313.56,-1.67,608657.24,1368.15,-1.77,106437.95,885.26,1.16,57529.86,1361.46,0.60,15018.34,857.52,0.11,11524.49
1740100,531.83,589.83,1.00,3,3,3,229.50,2.66,148802.34,1340.96,1.28,91437.20,1762.35,0.31,45714.60,1839.63,0.51,16999.44,622.93,0.10,7933.42
1755100,554.88,644.02,1.00,3,3,3,3926.13,1.17,260993.52,4859.39,0.61,260187.26,2694.84,0.62,76712.32,1678.31,0.38,18484.05,740.87,0.32,12799.95
1777300,680.24,693.04,1.00,1,1,1,6062.87,0.37,195621.52,4791.87,0.41,42305.52,3712.06,0.57,46414.24,1578.70,0.15,17302.44,791.08,0.33,2311.14
1791700,715.50,714.45,1.00,1,1,1,2865.11,0.55,227616.26,2255.66,0.47,176626.83,2936.55,0.14,112667.19,1540.91,0.26,12631.05,744.25,0.43,5985.19
1806300,738.51,722.76,1.00,1,1,1,1675.42,0.35,86780.43,1836.95,-0.94,183350.34,1414.49,-0.14,111115.83,1721.30,0.37,16916.13,844.46,0.37,7452.80
1821300,747.48,670.47,1.00,1,1,1,3536.45,-1.40,278046.74,1614.51,-1.05,19482.26,1324.15,-1.16,89529.27,1071.23,0.12,48566.50,747.96,0.24,9604.31
1835700,762.04,681.53,1.00,1,1,1,1269.55,0.65,296765.79,944.00,-1.61,66080.30,783.04,-1.46,42858.99,398.38,-0.16,48395.35,705.42,0.09,7994.35
1850700,746.49,642.74,1.00,1,1,1,2786.04,-1.95,261961.76,553.31,-2.62,53396.02,461.72,-2.95,58530.86,278.70,-0.72,14814.12,771.42,0.36,13802.63
1872400,744.47,671.34,1.00,1,1,1,1321.51,1.64,185098.93,802.67,2.62,32894.03,336.28,3.03,7932.55,224.65,-1.40,8043.30,987.07,0.51,11706.06
1901900,710.95,663.36,1.00,1,1,1,1168.08,-2.91,64423.81,366.59,2.19,16659.51,570.17,1.61,20933.59,204.31,-1.54,1224.70,653.44,0.26,13216.83
1916500,735.02,684.46,1.00,1,1,1,2192.51,0.72,224053.68,1432.56,0.64,100794.56,161.30,1.56,28026.53,89.10,-1.99,8903.99,352.94,0.00,22277.53
1931300,744.63,688.65,1.00,1,1,1,708.07,0.41,103569.08,191.09,0.24,85063.28,560.74,-0.61,44893.43,168.85,1.21,17422.35,151.57,-0.91,19292.04
1968500,744.67,686.84,1.00,1,1,1,48.73,-1.55,19567.27,988.64,-1.50,27893.65,325.75,-0.65,6340.31,472.62,0.94,8426.63,347.81,-1.31,5829.28
1983300,748.48,637.39,1.00,1,1,1,3351.27,-1.49,223148.65,736.11,-1.02,32246.41,287.46,-1.06,8670.26,315.06,0.69,12414.38,80.36,2.01,28858.47
1998100,756.14,668.32,1.00,1,1,1,2152.70,1.33,367375.62,1087.37,1.33,113925.57,923.08,0.80,70395.99,322.53,0.16,11201.88,115.02,2.82,5595.77
2012600,756.14,668.32,1.00,1,1,1,0.00,0.00,148461.80,1722.36,1.08,49559.74,718.69,1.53,42600.55,63.29,-1.65,23687.07,766.95,1.26,53384.71
2042700,792.24,736.12,1.00,1,1,1,2552.07,1.08,84786.53,540.15,1.77,44812.88,485.38,0.68,18047.51,491.41,-1.26,14402.90,2017.98,0.09,61676.25
2065000,750.58,696.07,1.00,1,1,1,2591.36,-2.38,227778.39,1186.11,-1.70,76547.62,195.52,2.46,25091.52,400.90,1.77,39959.70,2822.35,-0.05,39128.28
2079300,786.82,693.05,1.00,1,1,1,2543.11,-0.08,327193.75,651.01,-1.94,40248.72,1777.41,-1.80,130904.18,259.79,2.41,17192.82,2737.62,-0.08,8539.08
2094100,743.79,678.39,1.00,1,1,1,3072.01,-2.81,371468.03,2513.10,-1.86,126011.12,238.53,-2.88,113397.03,1363.41,1.26,86374.80,2564.58,-0.13,14450.89
2109200,765.64,620.96,1.00,1,1,1,4069.15,-1.21,343308.51,529.07,2.01,193962.00,979.02,-3.14,49721.08,4015.04,-0.01,254752.25,2941.37,-0.05,29327.63
2123500,737.11,692.43,1.00,1,1,1,5381.74,1.95,660880.43,2766.57,2.04,156486.54,2670.79,1.19,221623.44,5858.11,-0.09,131853.43,2457.18,0.16,51027.13
2138300,729.06,692.68,1.00,4,4,4,544.05,3.11,350606.44,3995.49,1.14,212892.37,7782.43,0.17,458267.97,5562.31,-0.10,20106.36,2360.62,0.05,18311.64
2175000,823.16,879.35,1.00,4,4,4,5696.02,1.10,162032.53,12747.17,0.06,311663.28,10255.91,-0.09,92631.12,5403.70,-0.12,5081.52,2159.45,0.19,9939.66
2189600,1382.00,728.68,1.00,4,4,4,39643.69,-0.26,2663997.57,26696.24,-0.34,1075486.08,10334.98,-0.09,6174.31,5627.26,0.03,58900.47,1449.21,0.24,49012.16
2204400,1563.55,618.88,1.00,4,4,4,14335.61,-0.54,1768349.22,7171.60,-0.57,1336290.81,11631.37,-0.39,238716.60,4629.08,0.08,69525.20,1620.07,0.44,23815.99
2219100,1560.52,615.15,1.00,4,4,4,326.61,-2.25,978505.18,1269.03,-2.32,510340.27,3359.94,-0.38,562734.99,4584.70,0.02,20479.09,1079.93,0.73,44954.45
2241000,1532.05,584.74,1.00,4,4,4,1902.11,-2.32,71986.05,1164.31,0.88,111068.43,1984.22,2.13,232744.35,3884.91,-0.13,42830.04,1130.91,0.93,10356.46
2255300,1587.34,647.66,1.00,4,4,4,5857.53,0.85,542581.78,4074.19,1.88,250098.56,1641.37,2.39,39746.78,1194.12,2.52,347598.27,961.15,1.10,17072.86
2284300,1479.00,752.99,1.00,4,4,4,5210.55,2.37,263500.61,3093.97,2.70,103919.89,2449.49,1.97,39685.95,2912.05,2.49,59268.55,597.25,1.04,12621.04
2298900,1465.26,705.05,1.00,4,4,4,3415.98,-1.85,510917.60,1141.98,2.27,144592.62,4307.95,2.65,195247.10,3775.66,2.64,67701.29,354.05,0.87,17479.20
2335500,1441.32,797.70,1.00,4,4,4,2614.61,1.82,159080.05,5340.65,2.63,117180.92,4013.69,2.66,8157.26,4482.92,2.58,20265.80,157.99,-1.90,13790.05
2350400,1225.81,840.36,1.00,4,4,4,14744.48,2.95,927082.22,9162.73,2.75,262563.36,5945.63,2.70,130343.72,4491.29,2.81,68395.84,1864.75,2.96,124009.88
2365100,1190.98,902.05,1.00,1,1,1,4819.08,2.08,827739.67,7070.57,2.81,146137.89,8723.22,2.84,200515.22,4451.89,2.99,54998.84,2517.27,2.95,44462.81
2379800,1029.44,908.57,1.00,1,1,1,10997.75,3.10,639515.22,8370.50,2.95,114366.83,4926.94,3.01,268702.90,4113.49,3.03,25474.60,2356.35,2.87,16315.70
2394700,947.94,950.21,1.00,1,1,1,6142.68,2.67,402583.06,3523.72,-2.95,354027.68,5467.86,-3.00,101233.25,4519.69,3.08,31622.57,2578.91,2.90,15657.51
2416900,901.07,883.87,1.00,1,1,1,3658.94,-2.19,301247.67,4149.17,-2.45,90663.61,3207.75,-2.63,123724.11,2826.98,-3.11,77551.01,2679.45,2.97,9369.43
2431800,829.78,851.54,1.00,1,1,1,5253.02,-2.72,187602.76,3235.94,-2.33,67291.65,2239.19,-2.45,72371.32,2783.20,-2.81,56176.03,2379.87,3.10,29193.16
2461100,802.32,780.40,1.00,1,1,1,2602.81,-1.94,131585.75,632.65,-2.48,89130.26,1226.93,-2.48,34591.47,1332.39,-2.60,51351.67,2253.09,2.99,9099.37
2475900,807.81,834.35,1.00,1,1,1,3664.39,1.47,419800.17,1872.74,1.05,166871.45,1068.55,-1.88,47191.04,1682.93,-2.32,37069.70,2129.99,-3.08,32077.30
2490600,829.64,828.41,1.00,1,1,1,1539.12,-0.27,285712.32,1787.66,-1.63,242577.64,977.36,0.44,127687.09,1051.84,-2.40,43579.38,1356.05,-2.96,54544.22
2512100,803.82,769.76,1.00,1,1,1,2980.73,-1.99,165214.78,1012.14,-0.58,72530.74,1078.35,-1.99,89657.04,534.24,-2.03,27399.97,1234.45,-2.81,10638.74
2527200,860.66,808.16,1.00,1,1,1,4542.37,0.59,479538.34,835.38,-3.13,117164.18,866.14,-2.28,23556.63,176.25,1.28,46928.61,903.79,-2.52,29847.33
2541600,779.18,769.55,1.00,1,1,1,6261.36,-2.70,748158.49,2465.77,-2.82,117447.50,278.22,2.00,70384.67,530.99,-1.27,47548.59,734.59,-2.04,28975.25
2556400,792.39,785.29,1.00,1,1,1,1388.29,0.87,509824.97,788.97,0.71,216972.51,785.19,-3.04,50273.67,394.52,-1.65,14884.57,403.65,-1.99,22456.26
2571200,796.95,784.70,1.00,1,1,1,310.95,-0.13,84342.24,650.71,0.81,10645.63,647.09,-0.19,95769.31,176.71,0.25,32565.54,554.68,-2.56,20785.84
2593400,808.96,802.75,1.00,1,1,1,976.64,0.98,39819.61,814.61,-0.63,44003.07,398.48,-0.56,14069.97,527.20,-2.31,30703.66,780.45,-2.99,16162.79
2622700,830.76,759.86,1.00,1,1,1,1642.12,-1.10,78024.07,700.21,-1.18,14424.54,345.93,-0.22,4603.25,387.88,-0.46,25067.86,1004.15,-2.69,11743.25
2651500,824.49,765.15,1.00,1,1,1,284.85,2.44,66241.15,334.46,1.53,35194.52,609.35,-1.66,22899.35,341.94,-0.30,2594.01,1122.06,-2.78,5152.12
2673500,831.45,776.83,1.00,1,1,1,618.36,1.03,28969.82,786.00,-2.38,47844.38,239.91,-1.14,19017.29,666.06,-2.89,44281.24,860.40,-2.85,12390.17
2688000,803.73,745.34,1.00,2,2,2,2893.40,-2.29,241594.58,883.21,-1.34,57338.80,315.43,0.10,22645.38,1431.06,-2.90,52765.47,1025.75,-2.80,12016.90
2717200,840.18,739.23,1.00,2,2,2,1265.56,-0.17,127393.53,1166.07,0.45,55171.89,2042.75,-3.00,80750.56,1907.90,-2.95,16496.23,767.78,-2.81,8851.91
2731800,849.70,767.60,1.00,3,3,3,2049.65,1.25,152968.74,5366.16,3.04,437398.25,2954.66,-3.13,66432.34,2201.61,-2.96,20162.81,963.26,-2.78,13561.93
2746500,683.82,755.81,1.00,3,3,3,11312.48,-3.07,833188.15,7721.63,-3.06,180364.32,4709.29,-3.02,123108.92,2061.92,-2.86,16958.14,855.05,-2.82,7801.34
2768800,565.00,743.70,1.00,1,1,1,5356.02,-3.04,267318.33,4412.23,-2.79,163551.23,5248.74,-2.96,27054.00,1630.59,-2.95,20916.00,968.86,-2.60,10139.12
2783700,529.48,699.96,1.00,1,1,1,3781.34,-2.25,254625.40,2364.95,-2.55,146920.78,2129.62,-2.71,216888.82,2035.58,-2.98,27302.43,1012.20,-2.95,23291.49
2798100,507.33,705.28,1.00,1,1,1,1581.70,2.91,236872.97,908.75,-0.13,215741.90,623.78,-1.75,127818.97,2441.99,-2.88,31878.45,976.06,-2.75,14565.33
2812800,555.69,696.49,1.00,1,1,1,3343.90,-0.18,334961.63,1128.54,-0.13,14951.60,223.69,-0.60,38908.56,1083.53,-2.77,93263.05,1115.90,-2.68,10453.42
2842200,556.66,698.68,1.00,1,1,1,81.51,1.16,113124.16,253.12,-2.61,45459.21,384.79,-1.75,12194.58,708.13,-1.75,31573.50,719.76,-2.81,13969.57
2864500,544.44,689.82,1.00,1,1,1,677.13,-2.51,33571.83,1617.18,-2.73,61266.40,251.89,3.10,19281.54,29.54,0.87,32912.08,578.00,-2.90,6877.26
2879300,501.73,674.54,1.00,1,1,1,3064.32,-2.80,163627.97,403.88,2.45,100005.72,801.94,-1.76,54441.42,497.71,-0.77,33813.31,584.16,-2.70,7860.91
2893800,535.31,697.35,1.00,1,1,1,2799.33,0.60,401160.46,1837.88,-0.55,154389.02,309.50,2.32,70165.27,419.58,-1.75,30331.49,127.37,-1.22,40413.30
2908200,546.94,646.65,1.00,1,1,1,3612.08,-1.35,368904.54,225.05,2.07,141445.42,937.34,-0.33,84625.25,330.50,-0.54,30150.86,708.13,-1.75,41809.16
2923000,532.14,703.10,1.00,1,1,1,3943.30,1.83,510437.69,416.59,0.54,31457.92,941.20,-1.42,65930.41,968.38,0.07,48751.83,29.54,0.87,49590.51
2945100,560.10,654.60,1.00,2,2,2,2533.42,-1.05,290590.35,1851.58,-1.39,92138.72,713.58,0.48,61280.27,1144.67,0.08,8004.93,497.71,-0.77,22644.21
2960000,544.57,635.73,1.00,2,2,2,1639.77,-2.26,166930.27,959.06,0.46,154834.36,1815.43,-0.03,83398.67,1007.24,0.13,9893.52,419.58,-1.75,29517.22
2989900,598.59,673.68,1.00,3,3,3,2208.02,0.61,127546.27,3375.06,0.44,80812.96,1364.14,0.27,21755.08,713.58,0.48,13940.87,330.50,-0.54,14520.82
3004100,679.31,698.96,1.00,3,3,3,5956.76,0.30,275444.10,1739.36,0.18,123321.94,1809.68,0.50,40165.45,1815.43,-0.03,87509.88,968.38,0.07,50811.77
3041300,686.55,689.68,1.00,1,1,1,316.36,-0.91,157341.12,515.54,0.83,36712.18,1739.36,0.18,15213.57,1364.14,0.27,17485.94,1144.67,0.08,4755.61
3056100,697.37,718.77,1.00,1,1,1,2097.06,1.21,153982.91,2097.06,1.21,110157.00,515.54,0.83,92276.56,1809.68,0.50,38537.12,1007.24,0.13,9960.37
