@RELATION gaze_labels

%@METADATA width_px 1920
%@METADATA height_px 1080
%@METADATA width_mm 540.00
%@METADATA height_mm 254.00
%@METADATA distance_mm 620.00


@ATTRIBUTE time INTEGER
@ATTRIBUTE x NUMERIC
@ATTRIBUTE y NUMERIC
@ATTRIBUTE confidence NUMERIC
@ATTRIBUTE handlabeller1 INTEGER
@ATTRIBUTE handlabeller2 INTEGER
@ATTRIBUTE handlabeller_final INTEGER
@ATTRIBUTE speed_1 numeric
@ATTRIBUTE direction_1 numeric
@ATTRIBUTE acceleration_1 numeric
@ATTRIBUTE speed_2 numeric
@ATTRIBUTE direction_2 numeric
@ATTRIBUTE acceleration_2 numeric
@ATTRIBUTE speed_4 numeric
@ATTRIBUTE direction_4 numeric
@ATTRIBUTE acceleration_4 numeric
@ATTRIBUTE speed_8 numeric
@ATTRIBUTE direction_8 numeric
@ATTRIBUTE acceleration_8 numeric
@ATTRIBUTE speed_16 numeric
@ATTRIBUTE direction_16 numeric
@ATTRIBUTE acceleration_16 numeric

%The number after speed, direction denotes the step size that was used for the calculation.
%Acceleration was calculated between two adjacent samples of the already low pass filtered velocity

@DATA
0,-87.61,730.68,1.00,1,1,1,0.00,0.00,0.00,2074.27,-0.74,0.00,1793.44,-0.44,0.00,358.49,-1.29,0.00,415.94,-0.68,0.00
21900,-53.92,700.21,1.00,1,1,1,2074.27,-0.74,94715.31,1793.44,-0.44,28844.07,552.25,1.55,94961.64,298.87,-2.94,22089.37,215.40,-2.40,22640.12
36100,-29.05,703.06,1.00,1,1,1,1762.32,0.11,113091.83,552.25,1.55,146454.92,358.49,-1.29,63450.01,484.34,-2.96,13074.66,140.92,2.76,14029.41
50200,-53.56,715.83,1.00,1,1,1,1959.83,2.66,252431.34,1009.79,-3.10,83736.98,298.87,-2.94,34309.03,285.72,-1.62,35754.62,272.37,-0.72,28930.25
85800,-79.20,701.09,1.00,1,1,1,830.95,-2.62,46820.43,620.83,-2.42,18418.97,484.34,-2.96,5215.17,415.94,-0.68,9466.97,253.57,-0.01,5168.14
99800,-76.73,695.55,1.00,1,1,1,433.10,-1.15,64090.51,206.07,-0.75,48086.60,285.72,-1.62,36010.01,215.40,-2.40,35415.61,431.35,0.07,12842.75
128000,-72.85,695.14,1.00,1,1,1,138.10,-0.11,13579.86,472.83,-0.35,10459.84,597.66,-0.29,21184.41,140.92,2.76,7064.45,447.97,0.09,619.08
148900,-54.89,687.66,1.00,1,1,1,930.95,-0.39,38256.51,1103.01,-0.19,30641.72,232.47,-1.68,28727.93,272.37,-0.72,19517.54,194.25,1.18,19057.31
162900,-35.04,687.93,1.00,1,1,1,1418.01,0.01,48109.07,907.49,-2.74,137500.61,396.25,0.63,41301.68,253.57,-0.01,13141.84,311.95,-0.25,24590.34
177300,-78.64,677.64,1.00,1,1,1,3110.44,-2.91,312861.71,792.97,2.15,76130.13,542.34,-0.03,23089.57,431.35,0.07,12486.01,58.78,0.04,17794.33
198300,-50.30,711.49,1.00,1,1,1,2102.22,0.87,236026.27,1660.96,0.15,100621.40,241.03,2.15,33712.60,447.97,0.09,831.34,38.90,0.16,983.11
212900,-20.20,686.66,1.00,1,1,1,2672.53,-0.69,232071.79,444.53,-1.00,105156.26,1040.63,0.34,76807.67,194.25,1.18,27280.66,100.81,-1.23,6920.75
226800,-43.45,700.83,1.00,1,1,1,1958.94,2.59,332375.15,495.01,1.25,61075.02,631.70,-0.32,48021.81,308.02,0.44,15119.85,168.08,0.07,12333.97
241400,-15.82,700.07,1.00,1,1,1,1893.40,-0.03,254999.10,953.23,-0.03,64447.63,456.97,2.31,72177.13,337.68,0.50,2448.21,121.27,0.23,3538.55
255800,-15.82,700.07,1.00,1,1,1,0.00,0.00,131485.89,626.63,2.71,107549.62,613.87,0.12,66207.38,234.16,-0.20,15204.96,142.63,0.76,5025.59
291600,-44.35,713.30,1.00,1,1,1,878.68,2.71,24544.15,431.90,0.31,27594.91,261.77,3.10,24391.07,159.99,3.14,10961.38,580.55,-0.03,13707.65
306000,4.81,706.77,1.00,1,1,1,3443.92,-0.13,297972.90,516.81,-1.00,40514.56,58.71,1.87,17261.52,87.50,0.31,16992.09,445.78,0.14,11077.80
320100,-36.40,700.91,1.00,1,1,1,2951.79,-3.00,449388.32,616.14,-3.06,68928.33,410.26,-1.53,33145.32,161.64,3.00,17254.39,639.52,0.10,13816.66
342000,-17.30,704.91,1.00,1,1,1,891.20,0.21,175412.57,432.19,-2.02,24908.40,562.42,-3.08,31606.04,215.92,2.41,5516.93,521.19,-0.10,7618.19
356300,-43.14,686.79,1.00,1,1,1,2207.22,-2.53,213051.14,495.47,-3.12,34349.38,70.18,2.60,35379.11,1054.08,-0.19,86969.41,462.12,0.07,7209.57
370600,-31.47,704.67,1.00,1,1,1,1493.41,0.99,254282.40,389.01,1.46,46718.26,396.18,2.49,22833.40,587.76,-0.00,34123.47,472.35,-0.08,5025.69
400300,-41.23,703.80,1.00,3,3,3,330.05,-3.05,57824.74,434.89,2.09,8712.42,1737.46,-0.03,69772.89,940.82,-0.03,11902.29,397.22,-0.00,2806.10
421800,-42.48,724.02,1.00,1,1,1,942.38,1.63,46834.86,3258.27,-0.13,164568.43,1369.37,0.01,17367.98,759.55,-0.08,8696.73,373.05,-0.05,1394.20
450200,119.95,682.44,1.00,1,1,1,5903.87,-0.25,220358.67,3246.07,-0.12,1031.20,1949.37,-0.04,20696.25,974.81,0.06,8667.23,459.79,-0.01,3096.39
465600,98.61,706.50,1.00,1,1,1,2088.15,2.30,501473.96,525.71,1.96,229506.72,1697.49,-0.19,23530.44,796.25,-0.12,15397.29,372.95,-0.10,6069.39
480000,113.98,696.93,1.00,1,1,1,1257.59,-0.56,230082.18,396.02,-0.66,61922.48,193.37,1.16,115685.12,929.87,-0.02,10853.90,513.98,0.02,10368.35
515800,114.28,694.27,1.00,1,1,1,74.79,-1.46,33872.85,241.27,-0.02,6935.93,250.48,-1.18,11435.74,947.20,-0.20,4555.92,453.98,-0.05,1922.24
530200,126.09,696.64,1.00,1,1,1,836.52,0.20,58769.61,350.54,-2.50,38910.67,35.57,1.77,19825.97,261.84,2.27,80780.84,725.80,0.05,19282.02
544700,106.18,688.19,1.00,1,1,1,1491.96,-2.74,159823.61,361.35,2.89,21308.46,136.75,3.13,9224.72,150.58,-0.51,28004.36,1162.63,-0.03,30492.48
566600,113.36,699.95,1.00,1,1,1,629.06,1.02,93001.61,171.62,1.70,15383.99,520.66,2.69,18332.35,60.35,0.86,6859.30,1477.64,-0.04,14402.38
581000,105.37,694.37,1.00,1,1,1,676.94,-2.53,88769.91,734.59,2.56,44194.14,212.06,0.60,45298.45,51.32,0.52,1420.79,1379.05,-0.09,8365.72
595700,95.46,711.63,1.00,1,1,1,1353.81,2.09,106527.83,428.05,0.13,74548.20,126.49,0.51,5900.65,423.36,0.01,25818.84,934.43,0.13,34480.23
609800,117.59,695.96,1.00,1,1,1,1923.42,-0.62,227154.82,909.21,-0.32,39502.22,234.73,0.22,8472.48,1595.26,0.02,83117.14,827.94,-0.06,13861.57
623800,119.67,703.48,1.00,2,2,2,557.78,1.30,155491.71,83.25,0.59,61504.15,1191.01,-0.16,69725.74,2120.72,-0.05,38735.82,887.85,0.05,8031.23
644900,120.02,697.59,1.00,2,2,2,279.93,-1.51,39227.80,1361.31,-0.09,61512.12,2689.84,-0.01,72118.66,1872.25,-0.03,11943.56,885.08,-0.02,2805.90
673200,186.63,697.23,1.00,1,1,1,2353.85,-0.01,83133.86,4556.18,-0.02,113091.49,3484.05,-0.06,28642.20,2049.83,0.01,6955.83,852.18,-0.07,1963.29
694200,344.60,693.76,1.00,1,1,1,7524.38,-0.02,246237.78,6472.76,-0.05,91754.05,3214.65,-0.04,13208.06,1530.17,-0.02,24905.71,732.69,-0.05,5743.15
708300,413.50,685.06,1.00,1,1,1,4924.93,-0.13,189713.42,957.82,-0.25,392717.06,3112.35,0.09,31418.58,1703.28,0.02,13246.25,839.39,-0.05,7568.52
723200,371.49,686.80,1.00,1,1,1,2821.57,3.10,519470.24,1395.81,2.29,151174.99,160.98,-2.94,219629.83,1648.34,-0.03,7360.59,1220.22,0.02,25894.11
737700,386.50,715.97,1.00,1,1,1,2262.47,1.10,296211.84,1255.32,3.00,64325.97,720.75,2.58,42331.96,1331.35,-0.10,22839.40,1927.07,0.01,48752.96
752200,335.45,691.92,1.00,1,1,1,3891.67,-2.70,403459.33,396.21,-2.69,65756.35,271.26,2.95,32912.85,200.49,-2.56,102928.88,1856.81,0.05,7501.94
773100,373.89,709.82,1.00,1,1,1,2028.95,0.44,283282.38,545.43,-0.09,43421.85,718.69,-2.27,30319.30,421.56,3.08,13821.71,1965.73,0.05,5240.63
787200,354.46,690.14,1.00,1,1,1,1961.47,-2.35,278542.59,1177.07,-2.10,105779.88,238.87,-2.38,34196.19,639.43,0.13,74888.50,2000.06,0.03,3024.12
801700,356.91,680.75,1.00,1,1,1,669.46,-1.32,118545.63,712.82,-2.79,53620.76,372.14,-2.36,9202.52,1817.01,0.00,81770.03,1807.24,0.06,13588.17
837700,320.61,677.89,1.00,2,2,2,1011.54,-3.06,36323.46,182.87,2.02,19955.18,1251.09,0.09,43208.51,2143.57,0.10,10416.46,1251.85,0.09,15489.25
852300,352.93,689.10,1.00,2,2,2,2343.03,0.33,228191.09,3509.38,0.15,244345.56,3386.18,0.11,146297.05,2213.51,0.06,6964.76,1103.89,0.13,10750.98
881200,471.63,700.20,1.00,1,1,1,4125.20,0.09,66859.59,7378.43,0.09,134279.60,4642.08,0.13,43519.95,2319.59,0.08,3810.37,1191.90,0.12,3085.66
896000,674.13,717.32,1.00,1,1,1,13731.21,0.08,649070.14,5996.50,0.12,94608.04,4708.00,0.12,6711.52,2209.93,0.13,10988.10,1113.27,0.04,8391.05
917600,688.29,726.65,1.00,1,1,1,785.37,0.58,604018.58,1465.30,0.29,211067.89,3857.80,0.07,40246.60,2736.67,0.13,24392.10,1928.74,0.10,38001.15
931700,724.23,732.35,1.00,1,1,1,2580.81,0.16,134287.31,1227.79,-0.23,51598.87,507.25,0.28,238522.45,2613.84,0.10,9787.30,2648.63,0.05,51738.05
946500,722.87,718.67,1.00,1,1,1,929.13,-1.67,199777.33,664.21,-2.83,123702.11,131.84,-0.19,26635.47,1861.89,0.12,50853.86,2685.61,0.06,3161.20
960900,705.75,726.47,1.00,1,1,1,1306.26,2.71,127142.36,945.72,2.90,35532.03,107.66,-0.74,4791.02,350.74,0.23,105124.10,2718.40,0.05,2568.11
975900,695.84,725.22,1.00,1,1,1,665.69,-3.02,54571.44,655.38,0.05,105684.62,217.70,2.38,21689.77,1671.67,0.11,88273.65,3047.83,0.09,23024.08
997100,729.45,727.62,1.00,1,1,1,1589.11,0.07,106325.61,478.75,0.19,9104.65,225.21,0.13,18880.98,3124.03,0.04,68912.83,2662.09,0.05,18801.81
1011500,712.59,728.40,1.00,2,2,2,1171.97,3.10,191419.02,137.08,2.95,42243.68,2799.52,0.12,178772.27,3087.30,0.05,3094.01,2425.67,0.09,17300.84
1040700,723.58,728.75,1.00,3,3,3,376.51,0.03,53000.62,4665.53,0.11,164267.95,5618.51,0.05,96984.54,3287.37,-0.00,8658.96,1631.06,0.01,27707.95
1055800,917.99,751.41,1.00,3,3,3,12961.98,0.12,833565.41,12526.96,0.05,521680.98,5706.74,0.02,11070.40,3347.95,0.06,14725.26,1866.09,-0.04,16589.85
1077000,1177.83,749.65,1.00,1,1,1,12256.79,-0.01,80175.41,7024.23,-0.05,262821.48,7014.75,-0.01,62403.63,2716.00,0.01,30745.88,1465.32,0.01,19260.29
1091900,1171.28,739.42,1.00,1,1,1,815.40,-2.14,853037.07,852.71,-1.33,458578.32,4033.91,0.02,200215.64,2934.61,0.07,18409.06,1330.27,0.03,9249.63
1106300,1183.73,725.38,1.00,1,1,1,1303.38,-0.85,92757.64,621.95,1.10,96213.64,884.64,-2.82,339156.47,3065.46,-0.02,20165.13,884.84,-0.04,31380.32
1120600,1179.36,755.34,1.00,1,1,1,2117.32,1.72,229782.90,1697.45,3.04,140499.02,611.15,2.67,44177.06,2083.22,-0.15,72748.71,831.00,-0.05,3809.49
1142100,1123.25,731.26,1.00,1,1,1,2839.61,-2.74,183943.91,1212.06,3.10,22854.08,954.08,-3.08,24649.92,218.80,-2.67,105294.55,528.79,-0.07,14070.99
1156200,1136.25,757.22,1.00,1,1,1,2059.05,1.11,326835.26,346.47,-1.66,88231.61,773.74,-0.95,107204.55,283.60,-2.92,6342.26,802.09,-0.15,19682.95
1170800,1122.33,721.36,1.00,1,1,1,2634.86,-1.94,321152.27,2150.22,-0.58,137701.43,333.43,0.15,47217.05,1299.08,-3.09,69931.39,898.58,0.04,12933.66
1200100,1215.03,705.22,1.00,1,1,1,3211.49,-0.17,154845.82,597.04,0.47,65700.79,309.98,-1.88,18626.72,1474.40,-2.95,8738.58,106.45,-1.16,29561.44
1222000,1149.61,735.15,1.00,3,3,3,3285.11,2.71,294208.46,1796.08,2.87,103840.82,1531.69,-3.10,66388.04,1456.85,-3.07,8034.73,761.56,-3.05,36595.34
1250700,1127.39,729.30,1.00,1,1,1,800.37,-2.88,94565.50,3930.73,-3.02,82413.96,3335.43,3.12,63091.24,1195.73,-2.80,15658.59,739.80,-3.09,1225.94
1266500,975.90,714.62,1.00,1,1,1,9633.26,-3.04,559758.37,6121.92,-3.04,138817.65,3237.29,-3.07,21600.04,864.53,3.01,37049.93,606.44,3.04,10714.34
1280100,948.27,711.70,1.00,1,1,1,2042.63,-3.04,558141.74,2388.72,3.13,276221.54,2650.80,-2.93,52291.82,1947.25,3.08,79906.02,710.34,-3.13,9432.59
1302300,890.39,715.61,1.00,1,1,1,2613.37,3.07,31366.12,559.41,-1.24,118543.87,412.29,1.24,130009.18,1349.74,-3.12,27670.40,465.89,-3.09,11065.89
1317200,955.09,692.09,1.00,1,1,1,4620.20,-0.35,481056.55,3333.88,0.25,223829.82,319.19,2.58,30900.76,1300.22,-3.13,3721.90,93.89,-1.62,31283.95
1331500,984.64,739.95,1.00,1,1,1,3933.44,1.02,379374.42,1347.53,2.25,285073.59,1273.05,0.20,106283.11,266.62,0.89,103802.68,683.71,0.16,49540.31
1346600,930.31,723.01,1.00,1,1,1,3769.15,-2.84,477846.98,823.29,-2.73,91763.92,561.91,1.51,82831.30,299.02,1.24,6846.95,583.21,0.32,9469.64
1360400,962.86,730.38,1.00,1,1,1,2418.52,0.22,448043.11,788.07,0.19,116021.89,204.22,0.28,38393.45,684.70,0.09,45306.84,751.25,0.09,16185.62
1381500,957.33,728.16,1.00,1,1,1,282.62,-2.76,127864.97,794.01,0.36,6415.03,554.91,0.75,18189.93,1272.02,0.20,28285.70,963.53,0.13,10137.94
1410600,1000.18,744.40,1.00,2,2,2,1574.61,0.36,63820.97,569.87,1.36,23503.45,283.44,-0.30,16471.48,2375.36,0.04,39094.15,1140.72,0.09,6234.73
1425800,962.58,752.85,1.00,2,2,2,2535.44,2.92,259610.75,871.95,-2.22,92675.13,2220.59,0.00,128387.02,3099.25,0.08,48110.52,1472.59,0.09,21833.34
1440300,984.52,723.76,1.00,3,3,3,2512.90,-0.92,326862.58,4876.72,-0.14,369390.19,4988.65,0.03,190997.27,2568.21,0.06,36745.78,1537.41,0.09,4509.91
1461500,1134.97,728.59,1.00,1,1,1,7100.43,0.03,283643.97,9546.47,0.09,232032.28,6353.41,0.01,64515.82,2804.88,0.08,11380.69,1217.94,0.12,15169.49
1476500,1328.79,753.89,1.00,1,1,1,13030.64,0.13,400284.20,8264.65,0.12,87901.91,4869.25,0.08,102374.50,2003.55,0.00,54820.11,1321.15,-0.00,12691.97
1490900,1376.15,758.17,1.00,1,1,1,3302.16,0.09,675830.13,1004.03,0.06,504382.31,3397.44,0.13,103102.09,2713.03,-0.00,49277.34,1507.93,0.03,13476.33
1520300,1372.70,756.35,1.00,1,1,1,132.67,-2.66,116496.30,593.64,0.21,14525.30,112.89,-2.22,118283.55,2272.90,0.10,17168.06,1306.55,0.06,7004.06
1541900,1405.76,764.46,1.00,1,1,1,1576.16,0.24,78943.62,1008.69,-2.93,74181.80,226.55,-0.30,13190.52,1179.35,0.05,50742.49,947.16,0.02,16788.50
1571400,1322.35,745.33,1.00,1,1,1,2901.12,-2.92,151768.41,356.52,-2.19,26491.77,329.36,3.04,18748.76,452.97,-0.20,25410.65,704.02,0.03,8248.40
1585800,1396.66,751.73,1.00,1,1,1,5179.74,0.09,559914.59,959.18,0.51,89666.32,741.55,-2.77,32759.51,223.74,-0.52,17405.97,796.12,-0.18,12617.09
1600300,1346.48,758.97,1.00,1,1,1,3496.51,3.00,594586.46,1141.47,-2.92,143306.52,1062.36,-0.09,121295.30,86.85,0.07,10978.14,823.94,0.03,11671.40
1636100,1340.61,739.26,1.00,2,2,2,574.39,-1.86,96646.28,1258.32,-0.34,64458.76,234.27,-0.78,24971.95,949.40,-2.94,28925.49,277.52,0.12,15316.62
1650400,1405.96,738.07,1.00,2,2,2,4570.25,-0.02,332613.83,2413.36,-0.01,90192.79,475.18,-0.04,23776.10,758.12,3.09,20263.44,271.12,-2.96,38348.53
1664800,1409.87,738.77,1.00,3,3,3,276.40,0.18,298572.45,765.36,2.35,208528.42,1284.12,-3.08,122049.37,1411.58,-2.93,49098.93,294.07,-2.90,1979.42
1685700,1387.03,757.35,1.00,1,1,1,1408.91,2.46,76700.14,4304.88,-3.11,183105.84,3001.37,3.07,83067.57,736.85,-2.89,32367.75,465.34,-2.87,8205.76
1699900,1258.84,734.20,1.00,1,1,1,9173.12,-2.96,586212.54,6011.06,-3.11,120167.77,3335.13,-3.01,50936.99,828.75,3.14,15537.76,778.11,-2.94,22199.71
1714500,1214.02,751.20,1.00,1,1,1,3283.65,2.78,450683.67,2239.27,-2.76,272689.26,2324.10,-2.97,69698.52,1133.77,-3.14,20892.48,467.69,-3.08,22068.46
1728400,1199.69,710.25,1.00,1,1,1,3121.24,-1.91,330116.96,915.65,-0.66,202151.94,467.37,3.00,135708.31,841.90,-3.11,21100.30,804.41,-3.06,24246.78
1750100,1239.68,731.10,1.00,1,1,1,2078.13,0.48,223491.77,734.32,0.91,54236.27,424.07,-0.41,40727.63,1100.42,-2.89,15439.93,941.93,-2.91,8525.81
1778800,1222.35,739.51,1.00,1,1,1,671.07,2.69,88356.89,198.39,0.96,18686.38,1017.39,0.29,25872.54,589.78,-2.94,17837.31,1740.44,3.10,30254.92
1792800,1244.51,738.05,1.00,1,1,1,1586.06,-0.07,158719.45,1721.38,-0.07,116380.46,178.94,-1.97,81357.46,202.22,-2.64,28648.71,2084.95,-3.09,27663.90
1814600,1283.81,735.03,1.00,1,1,1,1808.32,-0.08,10232.59,619.62,-2.05,93837.22,797.88,-2.69,30896.86,273.08,2.54,11760.42,2028.36,-3.14,5341.75
1829100,1234.19,718.07,1.00,1,1,1,3616.37,-2.81,367288.40,3774.04,-2.97,237120.53,860.08,-3.13,25193.28,1157.29,-2.93,68123.83,1810.39,-3.11,15517.52
1843600,1175.89,716.83,1.00,1,1,1,4021.95,-3.12,85445.29,1725.20,2.74,171950.99,2031.16,-3.12,80766.52,2655.50,3.09,107981.69,1433.33,3.13,26497.54
1857700,1188.70,737.15,1.00,2,2,2,1703.76,1.01,365980.32,623.89,2.08,91681.74,2466.71,-3.01,35537.35,2910.14,-3.07,30156.77,1307.72,-3.08,11372.61
1872000,1167.26,732.30,1.00,2,2,2,1537.17,-2.92,209408.32,3333.62,-2.79,230175.22,4304.68,3.01,141625.83,3162.21,3.14,23594.44,1301.97,3.06,12572.93
1893100,1077.74,696.96,1.00,3,3,3,4561.09,-2.77,144600.03,6586.44,3.06,181089.40,4246.89,-3.06,41551.91,2436.57,3.09,34933.58,1335.76,3.12,3872.37
1921100,844.99,759.31,1.00,1,1,1,8605.60,2.88,201367.88,4842.14,3.12,63436.03,3815.91,3.13,20052.44,2128.36,3.08,11051.43,1605.44,-3.05,11383.80
1957300,766.97,704.49,1.00,1,1,1,2634.08,-2.53,199020.91,1217.76,-2.77,103585.74,2458.58,2.98,39547.68,2212.19,-3.11,5865.32,1394.41,-3.11,6384.59
1971400,787.98,736.90,1.00,1,1,1,2739.52,1.00,374137.59,1449.58,0.59,188058.25,505.65,-2.76,144786.84,2163.24,3.11,9300.49,1608.06,-3.11,15157.75
2000000,818.31,739.06,1.00,1,1,1,1063.22,0.07,79176.27,207.94,0.35,43657.93,442.93,0.68,32803.33,1525.34,2.98,23970.41,1486.67,-3.08,4535.50
2021600,797.78,740.50,1.00,1,1,1,952.89,3.07,93107.36,755.49,-2.66,44536.27,108.90,2.32,21477.84,796.29,-2.61,48402.86,798.04,3.11,32211.38
2036100,794.19,726.34,1.00,1,1,1,1007.63,-1.82,86759.08,556.93,2.97,31843.82,24.03,1.11,7105.27,371.94,0.39,80409.47,52.88,1.29,56022.57
2050100,782.14,743.17,1.00,1,1,1,1478.75,2.19,161685.32,984.82,0.52,104215.93,1265.33,-2.52,91901.61,141.37,-0.83,25043.72,399.16,0.24,26856.46
2065100,819.02,740.46,1.00,1,1,1,2465.23,-0.07,239743.64,1987.31,-2.36,196639.59,342.18,-0.07,102998.62,423.50,-2.13,27202.04,443.43,0.14,4096.07
2085800,731.65,693.32,1.00,1,1,1,4795.56,-2.65,338178.24,452.93,-1.76,79002.77,446.72,-0.83,14923.69,869.35,-0.12,53933.45,1094.70,-0.16,32947.08
2100200,816.07,724.84,1.00,1,1,1,6257.62,0.36,765800.02,2622.79,0.39,200965.86,881.49,-2.13,60615.20,2813.31,0.07,136532.25,1939.22,0.03,61484.23
2114600,801.57,721.90,1.00,2,2,2,1027.23,-2.94,505133.52,1460.50,-2.26,275769.01,2456.47,0.17,216052.06,3560.15,0.04,52279.01,1499.15,-0.02,31109.36
2128700,789.51,692.79,1.00,2,2,2,2234.90,-1.96,132402.32,2418.60,0.03,252351.61,4844.24,0.08,170891.14,2783.92,-0.06,59367.66,1261.77,-0.17,22102.34
2163800,920.51,725.65,1.00,3,3,3,3847.88,0.25,156187.96,8232.81,0.15,166319.94,6244.22,0.08,39900.36,3111.39,0.03,12133.87,1453.61,-0.07,6625.73
2178300,1193.32,753.46,1.00,1,1,1,18912.17,0.10,1042366.44,12609.96,0.10,303925.45,5387.19,0.05,60187.41,3520.24,-0.01,29691.54,889.67,0.05,40046.60
2193400,1291.94,762.52,1.00,1,1,1,6558.41,0.09,818162.98,1477.25,-1.03,797750.66,3937.56,-0.07,103379.56,2767.38,0.01,50061.78,195.13,-2.93,71708.16
2208000,1216.08,715.95,1.00,1,1,1,6096.48,-2.59,844080.78,3495.61,-2.69,268276.47,2034.38,-0.25,135006.98,2431.44,-0.04,24656.40,926.51,-3.04,50195.86
2229500,1178.54,707.15,1.00,1,1,1,1793.34,-2.91,206061.47,2955.99,0.04,293590.57,786.61,-2.54,121856.73,1974.81,-0.05,21288.63,546.86,2.92,20537.11
2244300,1323.31,719.84,1.00,1,1,1,9819.25,0.09,783588.42,1486.10,0.31,106771.07,683.94,-2.38,10687.77,829.33,-3.04,188992.20,810.38,-3.13,20515.68
2273100,1240.17,727.15,1.00,1,1,1,2898.00,3.05,440380.60,3491.38,-2.86,172804.51,607.29,0.04,41908.87,3583.28,-3.09,95666.06,772.28,-3.04,2959.33
2288000,1176.56,678.12,1.00,1,1,1,5390.68,-2.48,255368.37,366.85,-1.82,223036.66,2812.05,3.07,229274.85,3861.53,-3.13,22204.57,810.47,-3.14,5879.90
2323600,1235.65,709.19,1.00,2,2,2,1875.47,0.48,203523.27,2628.98,2.65,77026.28,6535.86,3.13,104931.23,3575.39,3.10,9355.08,1123.41,-3.13,8790.66
2337500,1062.00,739.85,1.00,3,3,3,12686.62,2.97,1022737.16,18014.47,3.10,1128858.43,6566.15,3.09,20122.67,4429.96,3.14,62277.60,2021.59,-3.10,64697.70
2352000,724.51,730.96,1.00,3,3,3,23283.19,-3.12,768556.27,10741.34,-3.09,510020.47,8606.67,3.11,141023.66,4172.47,-3.10,23009.74,2266.24,-3.10,16909.83
2387900,521.41,710.79,1.00,1,1,1,5685.04,-3.04,490751.67,3243.91,-3.14,209022.56,6347.16,-3.11,64400.10,3954.75,3.12,9635.29,1996.11,3.14,8036.89
2401800,562.96,730.82,1.00,1,1,1,3318.18,0.45,638499.16,1388.70,0.30,330111.42,2035.10,-2.94,313253.63,4595.76,3.12,46116.26,1945.83,3.14,3635.47
2416700,559.59,722.70,1.00,1,1,1,589.94,-1.96,253612.55,1006.57,-1.84,141673.47,314.19,-1.27,140153.16,3355.25,-3.12,83916.59,2266.56,3.13,21546.16
2437900,553.26,695.80,1.00,1,1,1,1303.52,-1.80,34317.94,1264.92,-2.37,30507.90,302.68,-0.40,12365.72,869.39,3.14,117272.44,2141.65,-3.12,6794.54
2452200,527.32,691.47,1.00,1,1,1,1839.05,-2.98,125685.31,1382.78,0.78,185149.05,401.28,0.34,18759.39,630.15,0.09,104748.56,1994.99,3.09,14838.83
2466100,580.91,723.30,1.00,1,1,1,4483.83,0.54,448467.02,2466.90,0.61,81181.15,861.57,0.71,36738.34,140.23,-1.49,46501.11,2347.35,3.14,26500.14
2480100,583.62,731.07,1.00,1,1,1,587.93,1.24,289413.56,454.26,0.55,143851.44,1241.49,0.34,38445.81,341.16,0.13,26752.08,1764.44,-3.06,43322.85
2501400,594.62,731.62,1.00,1,1,1,517.20,0.05,29132.99,624.25,-0.63,28755.98,259.91,-2.49,69999.61,230.03,0.59,7945.71,667.90,3.14,51635.91
2515800,601.68,718.02,1.00,1,1,1,1063.71,-1.09,67341.66,836.88,-2.53,83249.13,307.29,-0.09,36729.94,283.22,0.51,3917.36,310.38,3.03,25095.06
2545000,564.65,710.81,1.00,1,1,1,1292.29,-2.95,64793.44,286.57,1.04,37782.73,281.24,-2.24,17758.87,146.09,-2.60,14700.86,660.21,-3.08,12294.69
2559900,608.05,728.94,1.00,1,1,1,3156.84,0.40,297327.85,453.10,0.20,22721.23,490.86,-2.98,22754.38,279.09,-2.28,9877.44,837.89,-2.99,12809.05
2581100,580.68,714.07,1.00,1,1,1,1469.47,-2.64,217975.85,1339.16,-2.77,84317.81,35.88,2.41,22144.35,459.89,-3.13,16353.96,875.94,-3.08,4316.55
2596100,562.81,711.52,1.00,1,1,1,1203.15,-3.00,36077.24,613.15,-3.05,51115.24,901.24,-2.63,59362.37,1133.37,3.13,44913.09,689.29,-3.08,12444.69
2610200,562.91,712.38,1.00,2,2,2,61.48,1.45,86559.98,432.55,-2.04,37575.81,850.66,2.83,49811.36,1393.16,3.09,18648.14,864.88,-3.02,12929.66
2624400,557.30,700.59,1.00,2,2,2,919.70,-2.01,68885.51,1101.83,2.65,84119.46,1942.68,3.07,79925.61,2002.99,-2.99,48905.72,769.23,-3.01,6738.52
2646100,528.08,731.12,1.00,3,3,3,1947.70,2.33,112051.95,3334.52,2.98,106858.58,2744.20,3.10,37098.14,1940.48,-3.02,4183.47,1047.06,-3.00,12814.22
2660900,437.25,720.63,1.00,1,1,1,6177.60,-3.03,353824.31,4877.29,-3.06,123590.20,2943.76,-3.08,24206.83,1546.70,-3.01,26682.05,963.22,-3.01,5732.82
2676100,382.21,719.60,1.00,1,1,1,3621.66,-3.12,170797.27,2765.39,-2.85,148452.18,2903.64,-2.92,29430.85,1529.16,-3.05,4607.86,797.63,-3.09,11839.83
2704800,321.12,685.26,1.00,1,1,1,2441.91,-2.63,65191.08,1793.59,-2.70,35774.88,1331.98,-2.80,55425.82,1267.09,-3.14,10107.61,1062.66,-3.02,9504.55
2726100,301.25,681.03,1.00,1,1,1,953.69,-2.93,73124.64,142.73,-1.90,79680.56,730.07,-2.70,28655.26,1583.51,-2.96,18906.12,942.34,-3.04,5684.12
2755300,318.81,678.43,1.00,1,1,1,607.76,-0.15,52668.35,506.58,0.44,21046.30,347.73,0.53,36882.15,832.60,-2.83,26231.79,859.51,-3.02,2859.73
2769100,320.93,690.37,1.00,1,1,1,878.95,1.40,76382.06,1010.24,0.66,38221.32,287.02,2.90,42665.29,330.35,-2.75,36531.09,1529.16,-3.05,48575.10
2790500,346.84,700.31,1.00,1,1,1,1296.78,0.37,52830.41,1144.17,-3.05,96628.42,125.95,2.92,7527.92,137.60,2.77,11669.46,1267.09,-3.14,13555.54
2805900,279.00,686.47,1.00,1,1,1,4495.60,-2.94,375240.01,1383.21,-2.63,37089.74,240.29,0.62,21898.58,111.45,0.33,15190.95,1583.51,-2.96,26149.38
2820300,310.83,680.26,1.00,1,1,1,2251.68,-0.19,460503.77,1948.28,0.23,229255.77,763.16,-2.97,68432.97,37.27,2.14,8717.62,832.60,-2.83,53192.25
2834800,333.77,699.56,1.00,1,1,1,2067.68,0.70,129060.70,506.47,2.16,150251.01,634.77,-0.01,95991.64,240.29,0.62,16639.86,330.35,-2.75,34767.52
2849400,302.58,692.47,1.00,1,1,1,2190.75,-2.92,283458.39,776.52,-2.50,64926.31,89.98,0.40,37896.82,763.16,-2.97,67495.53,137.60,2.77,17104.55
2863800,315.75,686.04,1.00,1,1,1,1018.03,-0.45,211913.32,474.17,-0.63,70890.05,776.52,-2.50,60001.47,634.77,-0.01,96658.25,111.45,0.33,16245.88
2885000,316.20,682.50,1.00,1,1,1,168.56,-1.45,44178.69,168.56,-1.45,17870.03,474.17,-0.63,48151.73,89.98,0.40,26098.75,37.27,2.14,5921.40
