@RELATION gaze_labels

%@METADATA width_px 1920
%@METADATA height_px 1080
%@METADATA width_mm 540.00
%@METADATA height_mm 254.00
%@METADATA distance_mm 620.00


@ATTRIBUTE time INTEGER
@ATTRIBUTE x NUMERIC
@ATTRIBUTE y NUMERIC
@ATTRIBUTE confidence NUMERIC
@ATTRIBUTE handlabeller1 INTEGER
@ATTRIBUTE handlabeller2 INTEGER
@ATTRIBUTE handlabeller_final INTEGER
@ATTRIBUTE speed_1 numeric
@ATTRIBUTE direction_1 numeric
@ATTRIBUTE acceleration_1 numeric
@ATTRIBUTE speed_2 numeric
@ATTRIBUTE direction_2 numeric
@ATTRIBUTE acceleration_2 numeric
@ATTRIBUTE speed_4 numeric
@ATTRIBUTE direction_4 numeric
@ATTRIBUTE acceleration_4 numeric
@ATTRIBUTE speed_8 numeric
@ATTRIBUTE direction_8 numeric
@ATTRIBUTE acceleration_8 numeric
@ATTRIBUTE speed_16 numeric
@ATTRIBUTE direction_16 numeric
@ATTRIBUTE acceleration_16 numeric

%The number after speed, direction denotes the step size that was used for the calculation.
%Acceleration was calculated between two adjacent samples of the already low pass filtered velocity

@DATA
0,-60.92,707.58,1.00,1,1,1,0.00,0.00,0.00,527.96,0.86,0.00,1866.89,0.08,0.00,863.29,-0.11,0.00,50.91,1.26,0.00
14400,-55.96,713.35,1.00,1,1,1,527.96,0.86,36663.58,1866.89,0.08,106922.09,840.85,-0.07,72322.65,784.10,-0.21,7935.05,431.01,0.02,28964.97
28500,-7.86,711.59,1.00,1,1,1,3413.74,-0.04,220717.40,840.85,-0.07,73861.43,863.29,-0.11,2980.11,133.14,-3.04,64664.73,97.05,-0.32,24189.36
57400,-19.89,710.92,1.00,1,1,1,416.78,-3.09,132489.66,371.42,-0.65,19700.32,784.10,-0.21,3953.80,98.29,0.94,7327.31,33.88,2.02,4257.86
79300,7.14,700.15,1.00,1,1,1,1328.56,-0.38,78335.14,740.23,-0.40,17870.63,133.14,-3.04,41633.46,50.91,1.26,2390.10,317.07,2.62,13226.96
93500,4.71,700.48,1.00,1,1,1,172.63,3.00,105403.04,966.05,2.76,120157.31,98.29,0.94,14912.62,431.01,0.02,29372.93,1006.92,0.00,90915.16
107800,-18.37,710.52,1.00,1,1,1,1759.73,2.73,111481.49,904.14,2.50,17243.29,1050.89,2.93,76508.56,97.05,-0.32,23851.05,1687.05,0.04,47672.59
122300,-16.14,716.08,1.00,1,1,1,413.20,1.19,123838.69,1137.77,3.04,40856.66,221.79,1.50,71961.06,33.88,2.02,8486.35,1563.24,-0.00,9778.72
143400,-58.67,714.53,1.00,1,1,1,2017.14,-3.11,105074.01,620.60,-0.06,83323.24,324.62,-0.15,19244.47,317.07,2.62,13728.46,926.78,0.02,30208.20
157700,5.79,714.68,1.00,1,1,1,4507.52,0.00,456212.57,1557.87,-0.12,65647.42,70.41,-3.04,27503.43,1006.92,0.00,90279.39,1000.35,0.00,5302.14
185600,6.62,706.81,1.00,1,1,1,283.52,-1.47,160834.49,561.36,3.11,75900.47,269.80,0.43,12082.19,1687.05,0.04,24434.34,875.56,-0.01,4502.94
207400,-22.10,715.50,1.00,2,2,2,1376.26,2.85,69227.42,914.87,2.74,20327.62,1699.24,-0.09,67493.38,1563.24,-0.00,6504.19,1077.26,-0.04,9348.76
236200,-35.94,725.03,1.00,3,3,3,583.48,2.54,29148.82,4311.11,-0.08,180079.83,2917.93,0.06,43759.28,1687.68,0.00,4329.64,919.70,0.06,6482.29
250400,162.69,700.81,1.00,3,3,3,14091.98,-0.12,1028983.62,8205.85,-0.01,275647.41,3061.00,-0.00,15957.65,1473.65,0.00,15072.59,737.09,-0.00,13343.05
272100,258.62,720.98,1.00,1,1,1,4517.17,0.21,457323.79,2012.80,0.14,286829.19,3389.38,-0.04,16080.28,1619.13,0.01,6716.97,1061.36,-0.03,14988.18
300200,261.96,714.75,1.00,1,1,1,251.68,-1.08,158473.63,662.59,-2.91,95138.72,1231.63,0.14,77928.55,2117.32,-0.05,18174.90,903.07,-0.04,5655.15
315000,230.94,714.54,1.00,1,1,1,2096.23,-3.13,150318.05,70.83,3.08,40200.85,255.84,-0.66,72310.02,2219.16,-0.03,8018.79,1029.33,0.01,9132.64
330100,259.84,714.87,1.00,1,1,1,1914.63,0.01,265618.96,1220.15,-0.14,85482.32,805.90,-0.34,37691.27,442.92,-0.01,117636.56,922.53,-0.05,7922.39
351100,274.58,708.58,1.00,1,1,1,762.87,-0.40,59752.34,1552.62,-0.33,20175.21,804.87,0.04,14450.37,375.24,-0.38,7912.09,927.72,0.03,3483.03
365100,311.31,697.42,1.00,1,1,1,2742.02,-0.29,141813.06,410.88,0.75,100401.83,568.75,-2.73,96462.31,84.72,-1.61,25385.16,1106.75,-0.03,13468.92
380100,283.29,716.71,1.00,1,1,1,2267.87,2.54,330076.61,2908.46,3.11,214181.69,538.82,-0.23,70072.97,244.54,0.05,17720.34,1010.33,-0.07,7024.22
394300,226.43,700.15,1.00,1,1,1,4170.55,-2.86,228991.76,834.41,-0.56,257241.96,771.65,3.02,92173.93,276.55,-0.38,8141.25,261.50,0.01,52813.07
416100,308.70,700.70,1.00,1,1,1,3774.24,0.01,360965.95,986.30,0.10,28012.48,218.45,-3.12,25525.46,137.98,0.34,8952.89,113.03,-0.45,7714.48
430100,261.55,703.75,1.00,1,1,1,3374.92,3.08,510331.56,1061.08,2.79,142492.10,888.02,0.00,79031.58,58.02,1.58,9373.39,525.82,3.05,45200.61
458900,266.08,716.36,1.00,1,1,1,465.37,1.23,122633.03,815.08,-0.10,64636.18,269.52,2.39,38194.26,223.42,-2.76,8686.20,355.45,2.99,5973.98
473400,296.67,700.22,1.00,1,1,1,2385.50,-0.49,171994.68,759.85,-0.04,4905.72,632.42,0.04,58175.95,80.19,0.12,20807.99,543.63,3.10,13378.36
494700,293.25,715.19,1.00,1,1,1,720.87,1.80,136486.11,440.99,0.36,18557.82,263.48,-2.40,39956.69,152.89,2.86,10739.62,503.01,3.12,1942.45
508700,311.22,705.75,1.00,1,1,1,1449.60,-0.48,142501.60,1429.88,-2.89,133488.13,913.65,3.12,53270.87,1009.95,2.97,61302.92,555.22,3.01,5346.17
523400,253.53,704.90,1.00,1,1,1,3925.12,-3.13,356757.17,2525.54,-3.08,78732.33,156.78,-2.15,57240.89,1022.33,3.05,5149.09,477.19,-3.12,7499.34
537800,237.85,701.58,1.00,2,2,2,1113.23,-2.93,197292.20,968.24,0.05,242623.35,2995.84,3.03,203398.42,1314.10,3.03,20286.69,384.39,3.07,6998.57
558800,287.75,706.78,1.00,3,3,3,2389.35,0.10,166589.76,3430.04,2.92,208107.87,1881.90,2.94,53888.62,1137.27,-3.12,11131.61,641.28,3.07,12232.94
573300,118.96,727.91,1.00,1,1,1,11731.54,3.02,970290.14,5355.45,3.00,134624.81,1618.10,3.00,19419.96,1104.75,3.07,7519.02,440.40,2.52,24410.81
587600,135.09,728.76,1.00,1,1,1,1129.32,0.05,898232.47,391.64,-2.80,350538.86,1989.06,3.11,29256.39,713.56,3.07,27357.52,606.07,1.59,34359.90
623600,100.42,721.27,1.00,1,1,1,985.35,-2.93,58553.30,341.88,-1.85,9361.67,454.42,-0.29,67530.87,790.23,3.09,2168.23,2103.70,0.42,54190.32
638000,130.31,712.21,1.00,1,1,1,2169.28,-0.29,213066.31,1857.99,-0.07,135990.35,157.20,-1.48,29279.82,1089.32,3.10,20776.79,1983.57,0.69,40152.60
652100,153.24,717.55,1.00,1,1,1,1669.72,0.23,78315.94,125.54,0.14,123077.79,198.87,-1.02,6474.13,406.92,0.98,95490.75,2444.97,0.71,32777.01
687800,136.50,713.07,1.00,4,4,4,485.31,-2.88,60359.47,922.54,-2.93,29350.21,171.74,3.01,9381.22,1269.52,0.91,24203.11,3118.02,0.51,24154.38
701600,108.57,708.07,1.00,4,4,4,2056.38,-2.96,114008.95,698.75,3.10,21887.00,813.44,1.55,58867.82,5550.00,0.29,331743.71,2079.37,0.57,75984.23
715600,117.10,713.93,1.00,4,4,4,739.08,0.60,196192.10,3021.43,1.01,244355.45,3428.10,0.96,199290.77,4904.75,0.55,105977.32,1252.97,0.72,61551.07
730100,154.37,780.99,1.00,4,4,4,5291.18,1.06,320072.18,6332.15,0.89,231150.29,12140.19,0.31,664845.61,5421.11,0.57,36877.33,777.98,0.68,32852.36
752200,262.88,894.10,1.00,4,4,4,7092.20,0.81,108181.89,19851.87,0.23,693780.39,10847.59,0.54,130948.53,7370.02,0.45,95226.92,582.02,0.59,9250.71
766700,861.19,949.26,1.00,4,4,4,41438.23,0.09,2508761.11,17221.73,0.38,256157.72,10278.65,0.51,43352.33,5184.65,0.47,150895.16,442.79,0.63,9667.46
781400,730.68,1078.60,1.00,4,4,4,12499.60,2.36,3427868.76,5392.92,1.52,1073962.82,10994.79,0.33,142573.12,3555.89,0.49,110970.82,191.51,-2.91,42449.71
810200,872.54,1183.58,1.00,4,4,4,6127.87,0.64,511626.03,7423.76,0.26,269074.76,1585.42,2.27,405219.69,1206.48,0.57,81805.25,290.55,-2.96,3461.74
831900,1093.18,1174.21,1.00,4,4,4,10176.84,-0.04,306016.56,4576.09,-2.16,519704.82,2529.81,-2.48,135128.19,504.37,-1.31,66533.15,354.21,-3.00,3016.63
846500,779.57,1045.93,1.00,4,4,4,23208.15,-2.75,2241949.13,19674.14,-2.74,1098646.45,10014.23,-2.65,515869.46,4704.89,-2.91,325141.42,217.52,3.12,9814.44
860600,572.64,955.45,1.00,4,4,4,16017.54,-2.73,511018.03,17812.21,-2.80,151459.61,15339.19,-2.74,385972.49,5291.67,-2.62,112420.55,269.65,-2.93,5431.15
875000,301.31,875.69,1.00,4,4,4,19638.98,-2.86,295641.66,11035.15,-2.73,475818.98,9847.86,-2.73,381376.07,6563.49,-2.60,88504.35,490.72,-2.58,17637.23
889500,280.66,827.17,1.00,4,4,4,3637.14,-1.97,1210662.67,3584.99,-2.46,526933.95,8770.73,-2.66,85797.05,8090.19,-2.72,120635.15,746.84,-2.20,23818.21
910300,203.25,795.70,1.00,4,4,4,4017.16,-2.76,141297.19,6926.77,-2.58,163403.96,3731.26,-2.50,246395.58,5146.30,-2.71,141547.60,2333.78,-2.81,85474.56
924200,76.98,699.54,1.00,1,1,1,11418.44,-2.49,547777.99,3856.77,-2.54,221525.61,3225.49,-2.66,53687.81,3772.71,-2.69,99060.73,2186.50,-2.59,38328.68
953200,67.24,701.48,1.00,1,1,1,342.58,2.94,386027.57,810.34,-3.13,110993.38,1947.00,-2.65,44099.68,1858.44,-2.58,66851.20,2733.92,-2.55,19073.29
975200,35.66,699.16,1.00,1,1,1,1439.48,-3.07,50597.94,505.36,2.83,16627.29,422.63,-3.07,71388.66,1114.56,-2.47,34531.25,3392.57,-2.67,33669.79
1003900,42.82,709.25,1.00,2,2,2,431.14,0.95,60842.67,71.90,-0.99,19623.17,474.12,-3.04,1859.43,545.02,-2.03,23060.75,1976.11,-2.52,50971.34
1018200,37.37,696.58,1.00,2,2,2,964.36,-1.98,97124.71,525.91,-2.64,37538.86,943.48,0.04,99078.72,386.36,0.22,58935.14,1126.54,-2.38,61389.34
1054800,19.34,696.40,1.00,1,1,1,492.57,-3.13,24251.59,1709.57,0.07,60047.74,1487.80,0.02,14885.41,613.63,0.13,6313.41,620.97,-0.92,33336.74
1069100,124.20,702.31,1.00,1,1,1,7344.18,0.06,547990.14,4970.89,0.10,228194.84,1337.36,0.16,17921.86,939.07,0.04,23235.39,494.75,-0.96,8932.28
1083500,161.24,711.17,1.00,1,1,1,2644.95,0.23,330862.91,753.79,0.56,299225.01,2318.97,0.12,68351.09,1754.00,-0.03,56960.45,863.76,-0.31,38558.06
1097900,142.53,713.92,1.00,1,1,1,1312.90,3.00,270442.24,223.94,0.46,36917.00,932.70,0.05,96540.39,2016.80,0.08,23233.69,963.29,0.01,21800.43
1119600,168.48,714.75,1.00,2,2,2,1196.44,0.03,115179.68,1194.92,-0.20,47351.01,2088.90,-0.07,53868.83,2812.98,0.05,36859.55,1233.40,0.01,12448.13
1133400,184.09,705.40,1.00,3,3,3,1318.34,-0.54,52092.17,4544.30,-0.10,243273.71,2864.18,0.03,59085.34,1715.47,-0.03,80400.58,1258.91,-0.00,2167.42
1147500,294.58,701.56,1.00,1,1,1,7841.16,-0.03,476452.15,4951.76,0.10,74313.38,3228.80,0.00,26569.26,2091.97,-0.00,26927.07,1204.49,-0.03,4778.44
1162500,327.47,719.73,1.00,1,1,1,2504.85,0.50,389039.81,2533.48,0.11,161234.01,2342.15,-0.05,59950.93,1663.95,-0.04,28973.46,1322.85,0.03,9592.06
1198200,422.27,715.54,1.00,1,1,1,2657.98,-0.04,39413.12,995.43,-0.49,50395.01,2101.82,0.05,9431.17,1987.27,-0.03,9068.52,1656.66,0.10,9733.50
1214100,372.85,695.67,1.00,1,1,1,3349.79,-2.76,369403.67,1406.85,-0.11,38153.60,730.66,-0.27,89852.12,1606.99,-0.03,23922.05,1145.94,0.01,32951.20
1228600,464.78,710.90,1.00,1,1,1,6426.73,0.16,670636.99,485.87,0.62,75408.03,380.79,-0.44,24886.41,663.65,-0.04,65063.51,1736.39,-0.03,40944.49
1243400,384.43,703.94,1.00,1,1,1,5449.39,-3.06,801837.19,775.07,-2.92,83607.93,702.65,0.07,27962.16,644.48,-0.12,3659.53,1791.68,-0.06,4732.49
1257700,442.78,705.92,1.00,1,1,1,4082.88,0.03,666367.96,959.93,-0.15,119291.14,1151.49,-2.96,129486.23,358.75,0.56,30077.00,1963.82,0.06,19074.01
1279400,418.62,698.89,1.00,1,1,1,1159.83,-2.86,240309.02,1459.25,-2.98,110251.15,565.04,0.13,79086.00,514.67,0.16,10753.99,1840.19,0.07,5783.53
1293400,391.33,697.76,1.00,1,1,1,1950.64,-3.10,62144.89,352.47,1.37,115557.64,583.06,1.10,38149.73,1380.13,-0.08,63437.27,1271.95,0.12,40920.48
1308100,420.67,708.80,1.00,2,2,2,2132.15,0.36,274234.97,2808.30,0.55,175584.85,331.91,0.35,27843.00,1921.72,-0.07,36858.80,1389.97,0.09,8296.74
1321900,459.75,739.29,1.00,3,3,3,3592.14,0.66,121854.55,512.56,-0.15,176501.77,3434.24,-0.01,226483.03,1956.34,0.13,28398.25,1075.85,0.13,23032.95
1343500,438.62,706.15,1.00,1,1,1,1819.72,-2.14,247316.21,4111.02,-0.21,166657.02,3049.41,-0.10,22395.97,2068.84,0.14,5227.53,1267.07,0.17,9119.40
1372400,662.63,695.23,1.00,1,1,1,7760.36,-0.05,304696.77,5128.71,-0.10,39869.72,3011.63,0.03,13703.84,1846.73,0.17,7949.07,934.45,0.11,11720.57
1386700,659.16,684.89,1.00,1,1,1,763.00,-1.89,559534.61,2258.58,0.49,243513.85,3272.73,0.12,27267.79,2068.14,0.15,15659.38,1221.79,0.14,20213.90
1422300,761.98,748.44,1.00,1,1,1,3395.45,0.55,112696.43,2013.09,0.62,10482.28,677.54,1.29,86212.51,1644.89,0.06,12709.75,867.54,0.14,9950.83
1436400,740.38,743.31,1.00,1,1,1,1574.71,-2.91,348585.46,3000.14,-3.11,340537.31,1431.46,0.66,68809.72,1888.45,0.18,22289.21,939.82,0.20,6163.60
1450500,677.41,746.04,1.00,1,1,1,4469.91,3.10,211774.70,628.18,0.81,246455.80,527.13,2.90,128250.95,575.15,0.60,98176.55,917.81,0.05,9672.41
1472000,755.83,759.48,1.00,1,1,1,3700.49,0.17,377883.92,1486.30,0.20,48213.39,282.06,2.19,16957.54,736.00,0.65,7640.01,1042.80,0.10,6258.62
1486100,729.30,756.39,1.00,1,1,1,1894.05,-3.03,396648.17,918.68,-3.08,170175.77,828.11,-0.09,73329.60,403.05,-3.05,77897.32,952.63,-0.03,11505.59
1500200,729.96,757.99,1.00,1,1,1,123.00,1.18,138783.01,537.17,-1.52,75156.11,32.28,-2.15,59838.13,338.98,2.93,9011.83,2158.56,0.07,86201.65
1514300,730.03,741.26,1.00,1,1,1,1186.78,-1.57,92278.89,498.08,-0.02,50043.86,352.71,-2.64,23026.80,233.36,-1.74,29757.14,2272.48,0.07,8092.12
1549400,754.46,757.39,1.00,1,1,1,834.19,0.58,50876.75,504.77,3.06,28557.60,474.38,-3.01,5489.66,187.00,-2.36,3876.29,2265.33,0.12,3121.54
1563400,705.33,743.39,1.00,1,1,1,3648.80,-2.86,317954.32,2164.81,-3.07,119130.37,770.05,-2.67,25616.20,243.09,-0.91,20583.94,1999.71,0.04,22297.59
1577600,693.55,753.24,1.00,1,1,1,1081.61,2.44,223250.15,1289.47,-2.39,100229.82,375.95,-2.38,29874.70,2479.42,-0.02,164425.40,1737.70,-0.02,20075.32
1599200,671.65,711.82,1.00,2,2,2,2169.31,-2.06,121216.20,1275.05,-0.28,103347.79,740.00,-0.30,45348.29,3975.02,-0.00,69278.08,1971.12,0.01,11072.48
1613100,737.10,740.89,1.00,2,2,2,5152.24,0.42,502686.13,2888.64,0.22,134370.36,6057.29,-0.00,385243.75,4363.57,0.01,28078.94,1751.39,-0.00,15890.01
1627100,750.32,729.31,1.00,3,3,3,1255.30,-0.72,340220.88,12123.37,0.03,664280.50,10170.20,0.04,294964.41,4370.11,0.04,11408.34,1656.89,-0.02,6920.23
1641400,1080.01,752.13,1.00,3,3,3,23110.12,0.07,1555448.59,15836.45,0.02,259961.38,8954.87,0.04,85160.41,3503.69,-0.04,64438.40,1649.93,-0.00,1586.53
1663200,1321.91,740.61,1.00,1,1,1,11108.83,-0.05,557152.02,6471.10,0.04,429717.37,7324.42,0.07,75965.24,3869.19,0.06,23736.30,1801.07,0.03,7559.02
1677500,1313.42,761.73,1.00,1,1,1,1591.76,1.95,829415.98,727.53,1.32,440686.44,1909.49,-0.10,381369.06,3423.84,0.03,32302.77,1756.29,0.01,4137.60
1706400,1329.64,771.07,1.00,1,1,1,647.91,0.52,56491.01,755.04,-2.51,48278.07,436.15,2.89,81030.38,2834.12,0.04,20413.74,1995.64,0.02,8317.93
1743200,1273.39,732.42,1.00,1,1,1,1854.59,-2.54,67961.53,1015.49,-2.74,8901.33,339.48,-3.00,4832.89,1003.66,0.02,49744.98,1939.70,-0.01,2465.25
1757300,1282.13,750.72,1.00,1,1,1,1438.10,1.13,225705.06,899.75,1.25,123889.54,702.29,-2.80,26619.21,136.42,2.09,76279.08,2055.11,0.08,15327.07
1772200,1281.59,757.20,1.00,1,1,1,436.00,1.65,72767.15,395.23,-2.97,76481.55,331.22,2.03,49618.33,166.09,3.06,9643.52,1938.58,0.04,9460.21
1807900,1262.41,747.39,1.00,1,1,1,603.37,-2.67,24321.06,395.58,-3.08,1165.59,377.23,0.36,14768.30,158.30,-2.60,2775.99,1803.66,0.13,5983.62
1822500,1261.73,755.96,1.00,1,1,1,588.90,1.65,67918.26,1731.71,0.28,145180.29,94.63,1.15,21793.24,166.21,0.61,22211.08,909.08,0.17,61359.32
1836600,1310.17,761.15,1.00,1,1,1,3455.03,0.11,247441.50,843.50,0.34,63190.91,813.76,0.23,53907.93,90.86,0.93,6016.41,183.08,2.50,74030.08
1851300,1284.64,764.03,1.00,1,1,1,1747.52,3.03,352021.13,127.69,-2.19,64668.47,509.46,-0.31,31106.02,435.98,0.12,25799.60,352.44,-2.98,17763.10
1865500,1308.03,758.14,1.00,1,1,1,1698.81,-0.25,242152.14,557.71,-1.14,35649.51,314.53,3.14,57403.38,611.74,0.71,24447.64,51.14,-2.10,22701.42
1886600,1292.88,746.15,1.00,1,1,1,915.84,-2.47,112350.13,517.73,2.97,45082.46,832.83,0.02,54374.13,823.06,0.39,14597.11,99.90,1.98,6477.51
1901000,1289.91,761.21,1.00,1,1,1,1065.72,1.77,117582.41,1402.48,0.33,130159.61,593.05,1.15,54789.14,261.46,2.75,71205.15,90.02,1.69,2000.03
1929300,1349.59,765.39,1.00,1,1,1,2113.86,0.07,87724.72,1169.42,0.84,24237.60,1205.77,0.61,26807.24,587.00,-2.90,14368.96,148.52,0.53,4929.67
1950400,1328.63,804.08,1.00,1,1,1,2085.46,2.07,167322.74,1142.25,1.04,11283.89,256.28,2.36,60484.90,91.05,-0.05,31973.60,118.34,2.67,11130.21
1965100,1370.24,800.68,1.00,1,1,1,2840.18,-0.08,295641.96,2052.37,-2.65,209939.42,2282.25,-3.00,145427.39,232.30,2.75,21746.17,721.67,-3.09,42300.84
1979800,1275.54,775.40,1.00,1,1,1,6667.74,-2.88,638883.26,6081.33,-2.81,277022.50,724.68,-1.72,148675.35,125.62,2.16,9938.62,772.90,-3.05,4001.63
1994100,1203.26,743.94,1.00,1,1,1,5512.70,-2.73,102665.21,1386.76,-0.37,503373.39,1797.90,-2.77,109834.57,227.23,2.69,9388.87,651.46,-3.04,8513.59
2015500,1321.67,757.42,1.00,1,1,1,5568.91,0.11,512128.12,1709.87,0.25,46282.64,51.73,0.58,86379.55,727.46,-2.74,28248.27,769.96,-3.05,5567.38
2029600,1262.13,758.73,1.00,1,1,1,4223.67,3.12,692949.21,1107.03,2.70,188635.81,1542.31,0.30,105865.55,2085.10,-2.97,98412.93,627.42,3.11,11626.75
2058200,1278.94,777.62,1.00,2,2,2,884.04,0.84,169354.95,1410.15,0.35,81341.41,1131.57,3.08,92048.75,1268.33,-2.96,28561.79,553.66,3.05,2926.64
2073400,1320.19,779.81,1.00,2,2,2,2717.88,0.05,143977.43,1343.50,-2.83,181126.04,2319.42,-3.08,79276.35,710.07,-3.13,38141.26,985.00,-3.09,29324.37
2094800,1232.09,762.67,1.00,3,3,3,4193.86,-2.95,322231.91,5542.03,-3.01,197535.12,2564.54,-2.95,17902.26,1519.67,-3.06,37965.14,795.95,-3.02,9217.32
2123500,1044.82,744.24,1.00,1,1,1,6556.64,-3.04,84098.89,3614.95,-2.99,67222.07,2471.28,-2.99,4415.09,969.63,-3.10,19237.32,933.87,-3.07,5029.87
2137800,1078.37,739.59,1.00,1,1,1,2368.55,-0.14,620766.64,625.54,-0.07,295648.74,1865.40,-2.99,42369.32,1009.63,3.14,4194.29,668.11,-3.09,18602.80
2173400,1075.96,742.07,1.00,1,1,1,97.07,2.34,68705.43,354.88,-2.96,27345.41,645.94,0.15,70543.31,1678.43,-3.03,19280.28,370.23,2.97,8937.70
2187600,1060.98,736.46,1.00,1,1,1,1126.49,-2.78,76831.89,747.00,0.48,76843.94,603.48,0.85,30278.01,905.63,3.05,57220.54,790.80,-3.10,30659.50
2202100,1095.01,751.90,1.00,1,1,1,2577.27,0.43,255306.70,1861.77,0.68,78703.54,470.98,2.93,64079.80,406.66,0.69,84795.64,654.24,-3.08,9467.31
2223200,1112.35,778.34,1.00,1,1,1,1498.58,0.99,72844.93,1373.21,-3.07,146369.70,755.08,0.93,49497.06,172.24,1.91,18162.19,623.65,-3.11,1706.12
2237600,1046.39,748.38,1.00,1,1,1,5031.10,-2.72,440856.66,772.75,-3.01,41911.44,460.85,1.75,38614.02,201.06,0.96,11948.58,860.86,-3.02,17104.59
2252100,1090.21,775.42,1.00,1,1,1,3551.19,0.55,590733.82,1896.60,0.64,179147.23,690.47,-2.82,60965.84,116.43,0.76,6192.89,455.01,3.00,30176.24
2266200,1089.75,780.97,1.00,1,1,1,394.93,1.65,240468.28,647.06,-2.63,180091.30,725.68,0.32,100435.88,290.86,-3.02,27695.80,311.65,0.39,52541.87
2288100,1069.88,764.05,1.00,1,1,1,1191.70,-2.44,66564.64,492.83,-1.51,28337.34,415.36,-2.13,49281.03,181.90,-2.90,5117.85,599.03,0.22,13542.70
2302200,1090.84,763.26,1.00,1,1,1,1487.81,-0.04,177238.76,389.96,-1.38,8321.91,599.57,-2.40,16253.77,80.27,0.02,18499.47,600.86,0.03,8076.88
2330200,1072.99,747.93,1.00,1,1,1,840.51,-2.43,77878.21,859.56,-2.74,30903.35,245.38,0.44,29910.95,68.16,0.77,1987.58,827.44,0.19,9116.05
2351500,1051.88,746.59,1.00,1,1,1,992.90,-3.08,28167.28,787.99,1.04,73425.90,462.46,-2.72,33229.59,264.17,-0.06,10511.80,513.21,0.04,15478.00
2365900,1087.12,772.25,1.00,1,1,1,3026.98,0.63,270931.64,218.17,0.32,44503.95,652.98,0.96,74765.90,1267.47,0.07,69880.13,599.78,-0.00,6237.62
2380300,1057.84,748.58,1.00,1,1,1,2614.49,-2.46,391644.23,495.55,0.78,21858.46,1301.24,0.39,57392.41,1006.57,-0.11,22931.57,563.78,-0.11,5102.31
2394400,1097.17,782.17,1.00,2,2,2,3668.26,0.71,445546.45,2180.39,0.40,122696.10,2528.60,0.03,98578.13,1460.68,0.16,39286.35,455.42,-0.22,8584.71
2415800,1129.20,778.58,1.00,3,3,3,1505.71,-0.11,133600.91,4265.57,-0.03,114886.31,2426.31,-0.01,6739.38,1275.20,0.06,10693.28,698.33,-0.13,11574.99
2430100,1249.37,777.24,1.00,1,1,1,8404.66,-0.01,483089.90,2873.98,-0.26,112659.05,2125.55,0.01,21406.98,1303.43,0.03,3419.99,661.59,-0.00,6760.84
2458300,1247.08,746.62,1.00,1,1,1,1088.74,-1.65,302947.81,952.05,0.13,71964.90,1339.71,-0.16,29837.39,950.69,-0.12,13820.46,562.03,-0.09,4061.45
2494700,1310.34,785.32,1.00,1,1,1,2037.32,0.55,77348.97,251.90,1.14,23230.49,461.34,0.01,24430.82,789.38,-0.28,5765.84,608.28,-3.07,32037.17
2509000,1252.39,758.24,1.00,1,1,1,4473.50,-2.70,454690.10,673.52,-2.74,61226.36,277.39,-2.41,48549.44,1077.79,-0.15,21788.16,283.69,-2.78,24179.79
2523500,1292.46,777.81,1.00,1,1,1,3075.54,0.45,520605.03,800.63,-2.28,24880.34,1120.56,-2.65,58871.83,181.52,-0.45,62490.41,399.56,-2.87,8245.00
2558900,1226.37,727.92,1.00,1,1,1,2339.10,-2.49,152262.20,1381.96,-2.62,19247.98,766.54,-0.12,50904.50,142.44,-0.02,2237.66,261.08,-3.01,4136.86
2573200,1232.93,743.55,1.00,1,1,1,1185.57,1.17,238894.98,3122.89,0.26,312803.72,263.90,-2.39,66951.23,2985.81,-3.02,218665.83,469.87,-2.87,15035.38
2587300,1311.98,751.10,1.00,2,2,2,5632.03,0.10,367257.70,1706.80,0.42,103773.87,740.72,0.39,70337.81,1983.80,-2.99,71227.37,314.26,-3.04,11990.32
2601800,1277.42,763.64,1.00,2,2,2,2535.81,2.79,551519.41,1150.95,-3.02,194880.79,5373.71,-3.11,418734.18,2262.87,-3.02,19739.73,851.48,-3.04,37050.14
2623500,1270.61,746.16,1.00,3,3,3,864.51,-1.94,122583.81,10921.40,-3.07,450306.76,5295.23,-3.04,18647.78,1934.82,3.10,21624.27,776.95,-3.12,4456.23
2637700,886.45,734.13,1.00,3,3,3,27066.62,-3.11,1883073.49,10596.62,-3.04,29175.19,4756.26,-3.06,38866.89,1970.73,-3.13,7341.18,1308.78,-3.02,38078.51
2651800,972.20,716.44,1.00,1,1,1,6209.47,-0.20,2350166.38,2982.67,0.07,962979.27,4589.51,-3.12,20789.82,1970.82,3.08,9765.61,898.63,-2.93,29886.00
2666300,971.57,739.75,1.00,1,1,1,1607.91,1.60,466235.37,645.74,1.30,195470.18,839.72,0.11,374254.28,2010.16,-3.10,14783.45,1066.18,-3.04,13534.81
2687200,978.36,738.46,1.00,1,1,1,330.63,-0.19,81783.84,401.73,3.06,39346.58,1001.62,0.73,27693.26,1847.16,-3.12,8140.84,885.47,3.10,11088.50
2715900,951.71,741.40,1.00,1,1,1,934.06,3.03,44039.70,1408.72,0.52,61124.49,142.86,1.09,30299.00,383.65,0.13,77661.15,764.74,-3.12,4607.48
2730200,1030.90,768.61,1.00,1,1,1,5855.04,0.33,469341.49,764.25,0.34,46865.24,387.73,0.10,23233.28,223.75,-0.36,14895.73,1113.13,-3.14,24394.88
2751300,977.19,750.52,1.00,1,1,1,2686.06,-2.82,404790.08,1001.58,-2.26,80708.66,178.79,-3.12,26834.68,89.99,0.46,8285.25,913.74,-3.07,10008.37
2765400,1008.54,741.35,1.00,1,1,1,2316.87,-0.28,338565.12,1352.42,-2.89,57159.27,1093.44,-2.00,72884.24,25.23,2.88,7819.26,1092.82,-3.05,12780.38
2779400,940.37,741.11,1.00,1,1,1,4869.80,-3.14,508697.87,1287.95,-1.75,101883.20,125.90,-0.65,76630.69,289.09,-0.05,22416.35,89.96,-2.48,72730.14
2793800,1001.98,705.36,1.00,1,1,1,4946.94,-0.53,657996.40,1226.68,0.11,139818.14,435.41,-3.09,37324.98,380.69,-2.85,45853.27,596.24,2.98,37444.23
2814800,983.55,745.68,1.00,1,1,1,2110.72,2.00,322862.02,878.88,2.25,88382.34,586.21,-0.04,48597.84,63.18,-0.73,19883.25,812.74,-3.08,12652.59
2843600,974.55,739.47,1.00,1,1,1,379.80,-2.54,76691.12,259.78,-0.41,38745.29,552.10,2.16,35222.39,508.97,-2.85,18910.69,869.12,-3.10,1981.75
2879300,998.89,738.93,1.00,1,1,1,682.02,-0.02,28418.74,240.25,1.84,12654.02,26.93,-0.94,16218.48,450.59,-2.83,1647.94,624.74,-3.03,6964.72
2893300,971.36,750.97,1.00,2,2,2,2145.95,2.73,199195.64,332.96,2.83,20262.79,581.40,-2.71,41955.13,1241.44,2.95,62430.93,910.47,-3.00,20506.00
2922300,985.27,743.35,1.00,3,3,3,546.87,-0.50,92796.07,1208.68,-2.51,36121.13,1737.36,-2.98,40937.29,1580.42,-3.07,17409.71,702.41,-2.98,7183.23
2944300,921.44,714.82,1.00,1,1,1,3177.93,-2.72,160694.30,3469.10,-2.92,109488.95,2349.08,-3.13,30960.49,1695.17,-3.09,5546.86,592.31,-3.09,5895.73
2958200,863.66,716.47,1.00,1,1,1,4158.30,3.11,136111.41,4875.02,2.91,166824.21,4185.92,-3.07,132644.17,1591.16,-3.06,8135.09,777.57,-3.00,14020.78
2973500,782.99,747.93,1.00,1,1,1,5659.24,2.77,146121.16,5131.78,3.09,61058.68,3677.03,3.09,44816.09,1450.09,-3.03,9696.20,813.02,3.08,10940.25
2988100,710.45,724.89,1.00,1,1,1,5212.92,-2.83,249762.08,2736.51,-2.87,184173.89,1453.13,3.11,152349.69,1567.71,-3.02,8188.92,815.59,-3.03,9995.08
3003600,703.67,725.75,1.00,1,1,1,441.42,3.02,310699.09,982.55,-0.11,236509.10,611.90,-2.68,61865.49,735.65,2.98,57198.12,733.81,-3.01,5321.21
3033300,754.59,719.93,1.00,1,1,1,1725.68,-0.11,72965.72,676.92,0.00,10740.32,582.17,-0.20,37998.95,1207.97,-3.08,17419.56,923.04,-3.04,6421.82
3054900,738.39,725.75,1.00,1,1,1,796.78,2.80,116106.34,141.43,-1.14,29248.66,1457.48,0.05,41939.92,341.25,-2.57,42827.86,740.06,-2.85,11272.53
3069200,756.69,715.31,1.00,1,1,1,1473.14,-0.52,158190.40,2849.95,0.07,196076.78,943.44,-2.92,167275.21,115.56,-0.56,28272.06,972.44,-3.03,19435.45
3083700,820.26,731.55,1.00,1,1,1,4525.69,0.25,249327.82,2161.41,-3.00,345371.84,97.63,-0.67,69465.30,353.35,-0.30,16806.91,293.84,2.96,48012.53
3098000,695.10,706.26,1.00,1,1,1,8929.91,-2.94,940680.17,2643.30,-3.02,33974.58,491.33,3.12,40000.13,215.04,-2.87,38259.64,641.49,-2.99,26313.84
3113200,742.85,722.21,1.00,1,1,1,3312.27,0.32,804202.99,861.62,0.31,229776.53,1091.39,-2.84,42295.65,301.45,-1.19,25607.10,201.45,-1.73,40102.27
3134200,724.75,715.92,1.00,1,1,1,912.31,-2.81,201167.84,425.36,-0.86,38114.02,375.59,0.18,69764.01,367.56,-3.06,25736.09,115.56,-0.56,9017.62
3148500,752.65,710.83,1.00,1,1,1,1982.52,-0.18,196683.72,98.55,-1.60,25094.35,449.31,-1.26,38257.00,92.66,-0.08,32117.21,353.35,-0.30,17041.97
3177900,724.63,711.61,1.00,1,1,1,953.41,3.11,99607.22,502.94,-1.49,13778.65,271.16,-2.92,18505.09,180.58,-2.40,8601.85,215.04,-2.87,18609.28
3199300,754.62,685.36,1.00,1,1,1,1862.52,-0.72,124638.79,583.60,-3.12,36941.42,893.71,0.23,54432.92,267.49,-0.90,14540.52,301.45,-1.19,18188.22
3213700,703.74,711.12,1.00,1,1,1,3960.19,2.67,401602.71,2098.34,0.51,182528.13,708.45,-2.69,110584.29,271.16,-2.92,31602.03,367.56,-3.06,37531.80
3243200,835.00,730.36,1.00,1,1,1,4496.99,0.15,273327.98,876.31,-2.46,100521.66,191.85,-0.06,29855.85,893.71,0.23,39486.93,92.66,-0.08,15568.68
3257700,673.85,686.76,1.00,1,1,1,11513.43,-2.88,1102597.75,1547.17,-2.51,46426.25,876.31,-2.46,70768.48,708.45,-2.69,109821.64,180.58,-2.40,17440.98
3293300,772.62,684.34,1.00,1,1,1,2775.49,-0.02,398765.25,2775.49,-0.02,115411.10,1547.17,-2.51,18909.57,191.85,-0.06,24740.10,267.49,-0.90,8740.65
