%@metadata width_px 1920.0
%@metadata height_px 1080.0
%@metadata width_mm 540.0
%@metadata height_mm 254.0
%@metadata distance_mm 620.0
% The number after speed, direction denotes the step size that was used for the calculation.
% Acceleration was calculated between two adjacent samples of the already low pass filtered velocity
@RELATION gaze_labels

@ATTRIBUTE time INTEGER
@ATTRIBUTE x NUMERIC
@ATTRIBUTE y NUMERIC
@ATTRIBUTE confidence NUMERIC
@ATTRIBUTE handlabeller_final INTEGER
@ATTRIBUTE EYE_MOVEMENT_TYPE {UNKNOWN, FIX, SACCADE, SP, NOISE, BLINK, NOISE_CLUSTER, PSO}

@DATA
0,291.93,445.9,1.0,1,FIX
14100,304.43,382.81,1.0,1,FIX
35200,264.74,451.17,1.0,1,FIX
63800,328.75,450.55,1.0,2,FIX
77900,316.13,444.97,1.0,1,FIX
99000,245.76,437.21,1.0,1,FIX
113300,253.95,443.61,1.0,1,FIX
142000,281.13,495.63,1.0,1,FIX
163100,215.2,404.24,1.0,1,FIX
191000,179.65,414.07,1.0,1,FIX
205300,212.25,405.39,1.0,1,FIX
226200,276.24,552.49,1.0,1,FIX
240400,276.97,524.45,1.0,1,FIX
254800,213.88,491.88,1.0,1,FIX
269000,204.19,485.88,1.0,2,SACCADE
289900,205.2,517.71,1.0,2,SACCADE
304000,256.07,463.87,1.0,2,SP
318500,578.75,487.33,1.0,1,FIX
332900,707.28,518.1,1.0,1,FIX
354400,738.77,528.59,1.0,1,FIX
382900,698.36,465.88,1.0,1,FIX
397500,688.55,462.76,1.0,1,FIX
418300,664.44,461.41,1.0,1,FIX
433000,781.17,535.19,1.0,1,FIX
447000,717.45,501.83,1.0,1,FIX
461300,732.91,495.93,1.0,1,FIX
482700,728.85,493.3,1.0,1,FIX
511500,741.95,539.55,1.0,2,SACCADE
525500,702.1,463.48,1.0,2,SACCADE
561500,877.19,507.72,1.0,1,SP
575600,1062.19,485.97,1.0,1,FIX
591700,1187.31,537.18,1.0,1,FIX
605500,1177.9,528.0,1.0,1,FIX
626800,1192.92,520.98,1.0,1,FIX
640900,1225.16,502.58,1.0,1,FIX
654900,1244.07,500.88,1.0,1,FIX
670000,1215.15,450.18,1.0,1,FIX
691500,1206.39,536.77,1.0,1,FIX
705800,1223.89,515.38,1.0,1,FIX
734300,1226.78,518.87,1.0,1,FIX
755700,1201.88,574.27,1.0,1,FIX
769700,1217.98,485.82,1.0,1,FIX
783700,1198.61,539.23,1.0,1,FIX
798300,1243.47,536.18,1.0,1,FIX
813100,1262.44,521.33,1.0,1,FIX
834400,1220.99,578.4,1.0,2,SACCADE
848800,1234.75,544.18,1.0,2,SACCADE
877600,1146.04,602.09,1.0,2,SACCADE
898700,907.13,598.01,1.0,1,SP
913000,848.17,572.97,1.0,1,FIX
941200,698.87,502.1,1.0,1,FIX
963100,701.24,481.31,1.0,1,FIX
977200,706.17,524.58,1.0,1,FIX
991700,707.78,510.12,1.0,1,FIX
1006600,701.88,530.19,1.0,1,FIX
1021600,732.7,550.67,1.0,1,FIX
1043100,718.0,537.23,1.0,1,FIX
1057300,671.25,555.5,1.0,1,FIX
1085300,728.17,524.01,1.0,1,FIX
1107500,739.07,515.56,1.0,1,FIX
1121900,711.33,562.34,1.0,1,FIX
1135900,706.25,570.3,1.0,1,FIX
1150000,706.25,570.3,1.0,1,FIX
1185500,735.42,633.12,1.0,1,FIX
1200000,715.74,553.07,1.0,2,SACCADE
1214900,711.8,538.37,1.0,2,SACCADE
1229600,735.6,582.34,1.0,2,SP
1265300,820.05,453.07,1.0,3,SP
1279800,1010.3,528.83,1.0,3,FIX
1309000,1033.65,515.19,1.0,1,FIX
1330100,1043.88,476.59,1.0,1,FIX
1344200,1062.39,481.13,1.0,1,FIX
1358500,1032.3,534.22,1.0,1,FIX
1379800,1038.4,491.93,1.0,1,FIX
1393900,1049.4,529.11,1.0,1,FIX
1408300,1030.02,429.7,1.0,1,FIX
1422800,1000.3,489.22,1.0,1,FIX
1437400,958.36,460.32,1.0,1,FIX
1458400,985.85,483.68,1.0,1,FIX
1487300,1060.77,528.99,1.0,1,FIX
1502100,1009.48,507.64,1.0,1,FIX
1523400,1021.66,465.71,1.0,1,FIX
1537600,1072.17,517.9,1.0,1,SACCADE
1553200,1022.84,512.25,1.0,1,SP
1567000,1001.91,500.64,1.0,1,FIX
