@RELATION gaze_labels

%@METADATA width_px 1920
%@METADATA height_px 1080
%@METADATA width_mm 540.00
%@METADATA height_mm 254.00
%@METADATA distance_mm 620.00


@ATTRIBUTE time INTEGER
@ATTRIBUTE x NUMERIC
@ATTRIBUTE y NUMERIC
@ATTRIBUTE confidence NUMERIC
@ATTRIBUTE handlabeller1 INTEGER
@ATTRIBUTE handlabeller2 INTEGER
@ATTRIBUTE handlabeller_final INTEGER
@ATTRIBUTE speed_1 numeric
@ATTRIBUTE direction_1 numeric
@ATTRIBUTE acceleration_1 numeric
@ATTRIBUTE speed_2 numeric
@ATTRIBUTE direction_2 numeric
@ATTRIBUTE acceleration_2 numeric
@ATTRIBUTE speed_4 numeric
@ATTRIBUTE direction_4 numeric
@ATTRIBUTE acceleration_4 numeric
@ATTRIBUTE speed_8 numeric
@ATTRIBUTE direction_8 numeric
@ATTRIBUTE acceleration_8 numeric
@ATTRIBUTE speed_16 numeric
@ATTRIBUTE direction_16 numeric
@ATTRIBUTE acceleration_16 numeric

%The number after speed, direction denotes the step size that was used for the calculation.
%Acceleration was calculated between two adjacent samples of the already low pass filtered velocity

@DATA
0,1074.88,969.02,1.00,1,1,1,0.00,0.00,0.00,230.65,2.73,0.00,965.56,3.12,0.00,3229.31,-3.10,0.00,2251.44,3.13,0.00
31900,1068.13,971.96,1.00,2,2,2,230.65,2.73,7230.41,965.56,3.12,23725.70,6954.36,-3.08,187859.41,4385.67,-3.12,36326.07,2184.15,3.11,2582.01
48000,1028.55,970.15,1.00,2,2,2,2461.28,-3.10,140151.97,6954.36,-3.08,372218.33,3229.31,-3.10,231405.04,4411.71,-3.12,2238.10,2952.14,-3.14,47954.03
64200,843.90,958.66,1.00,1,1,1,11419.98,-3.08,553032.84,5491.12,-3.08,90325.45,4385.67,-3.12,71530.97,1713.93,3.06,167345.56,4622.26,-3.10,103443.84
96100,764.86,954.94,1.00,1,1,1,2480.43,-3.09,280248.22,2657.38,3.11,89513.42,4411.71,-3.12,1129.58,2251.44,3.13,17359.88,7911.12,-3.11,103116.08
112000,716.95,963.03,1.00,1,1,1,3055.83,2.97,51780.33,2807.66,3.05,13698.17,1713.93,3.06,170503.02,2184.15,3.11,5180.26,7649.13,-3.13,18933.46
128000,675.68,963.19,1.00,1,1,1,2579.70,3.14,41328.45,790.84,2.92,126621.97,1100.74,2.94,39863.86,2952.14,-3.14,48253.74,7634.73,-3.13,1211.88
160300,679.69,971.42,1.00,2,2,2,283.31,1.12,84051.42,212.59,1.25,25965.44,248.82,1.48,34099.53,4622.26,-3.10,51882.05,8753.84,-3.13,34650.89
175900,678.87,972.86,1.00,2,2,2,106.29,2.09,15361.22,1290.49,0.28,75837.53,1492.30,3.08,97556.03,7911.12,-3.11,210859.16,5079.13,-3.14,235560.24
191900,718.84,982.83,1.00,2,2,2,2574.43,0.24,162802.20,3827.78,-3.12,317840.31,9038.71,-3.07,472570.41,7649.13,-3.13,18815.12,5320.25,-3.12,15464.19
207800,556.79,970.12,1.00,2,2,2,10222.64,-3.06,803064.61,19211.80,-3.06,968122.34,16416.35,-3.09,464350.90,7634.73,-3.13,1219.50,5269.32,-3.12,3213.31
223900,106.24,931.07,1.00,3,3,3,28089.54,-3.06,1109778.80,28850.29,-3.09,600766.48,17218.45,-3.12,54176.26,8753.84,-3.13,69517.01,4549.14,-3.14,45039.56
240100,-373.91,923.60,1.00,1,1,1,29642.44,-3.13,158496.36,15303.61,3.10,845439.05,15274.58,-3.12,120253.54,8968.54,-3.13,13374.82,4548.48,-3.14,981.76
256000,-384.48,953.72,1.00,1,1,1,2007.85,1.91,1828266.38,1796.42,2.62,863443.44,8506.31,3.08,429133.46,9244.41,-3.11,20592.66,4436.47,-3.13,7257.22
272000,-423.67,952.03,1.00,1,1,1,2451.35,-3.10,167532.54,1676.36,2.98,39344.57,1584.13,2.78,438349.09,8158.46,-3.12,67937.26,4022.34,-3.14,25999.71
287900,-437.27,962.30,1.00,1,1,1,1071.83,2.49,110834.21,1419.03,2.97,16215.49,1247.95,-3.05,45416.22,4467.53,3.09,233776.10,4318.63,-3.12,19493.42
303800,-468.13,959.72,1.00,1,1,1,1947.93,-3.06,85125.57,969.54,-2.60,58609.27,1025.88,-3.01,14194.76,791.20,2.87,232678.30,3914.40,-3.13,25497.66
319900,-463.89,946.36,1.00,1,1,1,870.77,-1.26,143094.39,812.94,-2.48,11827.13,486.11,-3.02,33527.11,822.34,-3.12,14739.33,4111.21,-3.12,12536.02
336000,-488.79,943.64,1.00,1,1,1,1555.78,-3.03,119699.27,394.01,1.94,62170.29,154.10,-1.91,27311.51,416.82,2.97,26222.30,3596.92,-3.12,31970.44
352700,-468.53,958.42,1.00,1,1,1,1501.70,0.63,176895.32,584.58,0.37,42139.40,409.75,2.96,24848.96,420.21,-2.86,11502.70,2030.04,3.11,94181.07
367900,-471.41,950.40,1.00,1,1,1,560.55,-1.92,130968.29,715.51,-2.81,85514.97,248.27,1.26,33214.82,123.11,-0.18,35056.19,469.98,2.96,103092.61
384000,-489.71,951.15,1.00,1,1,1,1137.78,3.10,68804.11,345.84,2.32,40711.27,377.44,-2.68,35896.16,36.35,1.80,8799.15,245.91,-3.06,14939.67
416000,-482.76,962.56,1.00,1,1,1,417.60,1.02,43411.14,173.12,-2.34,12327.49,243.17,0.25,19291.65,67.89,0.50,2120.72,79.45,0.02,10164.27
432500,-495.55,945.12,1.00,1,1,1,1311.05,-2.20,104696.40,721.27,-0.19,50249.16,255.44,0.04,3262.06,86.25,-2.35,9241.91,634.54,-0.03,33648.05
464000,-448.74,956.10,1.00,1,1,1,1526.31,0.23,84531.01,655.25,0.22,9160.88,177.19,-1.32,8834.11,224.30,-3.08,5397.84,1935.62,-0.00,41312.72
480000,-465.20,952.03,1.00,1,1,1,1059.77,-2.90,161626.66,983.30,-2.91,102408.10,223.61,0.20,17383.10,215.07,-0.08,27385.46,2433.05,-0.00,31089.72
495900,-479.26,948.84,1.00,1,1,1,906.45,-2.92,9720.65,419.53,-2.88,35469.77,911.84,-3.01,71389.47,573.83,-0.12,22580.20,2567.49,0.01,8645.11
511900,-478.15,948.62,1.00,1,1,1,70.97,-0.20,60731.70,852.45,-3.11,28378.68,164.14,-0.36,66189.07,1577.24,0.05,63526.06,2358.89,-0.01,13332.95
529000,-507.47,948.06,1.00,1,1,1,1714.88,-3.12,104343.61,697.61,-0.01,90626.46,1227.26,0.05,63069.86,3954.38,0.00,139163.82,1984.92,0.00,21935.47
544700,-455.27,948.28,1.00,2,2,2,3324.75,0.00,320987.44,3454.93,0.04,175714.10,2923.41,0.04,108040.92,5147.56,-0.01,76125.38,1892.46,-0.00,5933.20
559900,-400.80,952.48,1.00,2,2,2,3594.05,0.08,24248.19,4470.87,0.04,66838.89,7952.32,0.02,330912.61,5352.16,0.00,14128.95,1918.09,-0.02,3198.24
591900,-244.43,957.24,1.00,2,2,2,4888.74,0.03,40916.13,10842.33,0.01,199222.85,9221.70,-0.01,40131.31,5033.33,0.00,9969.43,1917.06,0.04,3837.31
608000,120.68,958.42,1.00,2,2,2,22678.07,0.00,1105070.80,16218.29,-0.03,335325.03,8653.18,-0.00,35335.53,4459.47,0.01,35656.53,1979.61,-0.00,6485.79
624000,276.00,943.72,1.00,2,2,2,9750.65,-0.09,813034.76,5360.03,-0.05,678791.32,7673.76,-0.01,61372.25,3767.81,0.00,43242.34,1901.24,0.03,6058.82
639900,291.45,949.80,1.00,1,1,1,1044.14,0.37,555461.08,948.60,2.90,395802.17,222.96,-0.43,469864.20,3263.72,-0.01,31774.45,1443.56,0.00,28872.70
655900,246.65,951.09,1.00,1,1,1,2801.19,3.11,236485.68,4792.64,3.13,242187.57,2938.76,3.11,196569.99,2340.05,0.03,58136.21,1572.25,0.06,9460.59
672800,133.79,952.35,1.00,1,1,1,6678.34,3.13,229461.84,4911.49,-3.13,10088.37,3462.72,-3.14,31668.03,245.74,-3.01,152945.03,1532.16,0.05,2485.45
688500,86.54,949.65,1.00,1,1,1,3014.53,-3.08,234176.57,2063.52,-3.09,181587.45,2997.56,3.06,34478.12,1763.07,3.04,97104.40,1371.47,0.04,10282.14
704000,69.49,949.15,1.00,1,1,1,1100.54,-3.11,123526.33,1138.58,2.64,80639.11,702.52,3.10,148107.23,2465.08,3.14,47034.22,1155.47,0.01,14080.73
720000,55.17,967.03,1.00,1,1,1,1431.81,2.25,72996.39,648.81,0.26,104318.53,606.28,2.71,16594.29,1901.08,3.06,37013.97,491.71,-0.00,41492.52
735900,89.51,954.40,1.00,1,1,1,2301.37,-0.35,226665.89,121.56,-2.76,48402.05,1664.84,3.13,71494.35,1123.28,3.04,48947.59,630.66,-3.14,70589.37
751900,51.57,965.59,1.00,2,2,2,2472.63,2.85,298215.07,3189.03,-3.12,192210.27,1021.47,3.05,40755.80,786.93,3.02,21036.01,1103.22,3.08,29713.75
783900,-63.52,950.78,1.00,1,1,1,3626.08,-3.01,52771.16,1628.83,3.03,49764.66,1400.89,3.02,11910.13,741.65,3.07,1823.42,985.83,3.09,3697.62
799900,-26.09,974.68,1.00,1,1,1,2775.43,0.57,390617.56,586.63,0.80,127433.22,932.08,-3.13,30880.02,990.10,-3.08,17104.17,428.76,0.18,87909.59
831900,-43.94,971.02,1.00,1,1,1,569.52,-2.94,103545.46,331.97,-2.46,28659.54,197.23,0.43,34850.64,940.30,3.12,3154.30,1866.08,0.03,45129.54
848700,-38.65,964.45,1.00,1,1,1,502.29,-0.89,54513.49,449.63,-1.93,13839.51,984.77,-2.91,70158.64,578.70,-3.12,21632.41,2214.87,0.03,20778.54
864300,-49.11,957.40,1.00,1,1,1,808.33,-2.55,63275.15,2071.14,-3.02,122137.40,330.26,-2.50,44545.70,504.39,0.17,69229.53,2381.98,0.04,10732.92
879900,-102.82,956.82,1.00,2,2,2,3443.20,-3.13,179711.01,373.93,3.06,109386.31,40.22,-2.75,18683.47,2738.65,-0.00,143841.72,2320.89,0.03,4393.95
895900,-60.89,958.38,1.00,2,2,2,2622.79,0.04,379092.08,1942.98,0.11,144451.77,903.63,0.10,58892.47,5541.07,-0.01,175152.99,2188.55,0.05,8736.14
911900,-41.00,963.48,1.00,2,2,2,1282.81,0.25,87244.22,2163.74,0.07,14485.57,7372.84,0.04,404479.43,5982.93,0.01,28127.65,2381.47,0.01,12918.92
927800,7.95,963.41,1.00,2,2,2,3079.11,-0.00,117273.16,12825.46,0.03,670735.98,11249.35,0.01,244195.26,6301.45,0.02,20710.50,2957.11,0.03,36260.32
943800,368.00,973.71,1.00,1,1,1,22512.10,0.03,1214661.73,19983.49,0.01,447805.61,11918.67,0.01,41843.09,6453.06,0.03,10312.84,2725.36,-0.01,15581.51
961000,671.40,967.02,1.00,1,1,1,17643.58,-0.02,289071.90,11023.22,-0.01,521044.03,11651.99,0.02,16053.36,6097.16,0.03,20698.28,3111.42,0.01,22646.53
976000,722.94,971.48,1.00,1,1,1,3449.19,0.09,947970.85,2712.18,0.10,555540.90,5537.65,0.03,407679.75,6075.88,0.01,7230.62,4086.81,0.02,65108.38
991900,754.74,975.77,1.00,1,1,1,2018.29,0.13,90339.68,395.76,1.54,168959.29,801.28,0.32,300430.30,5717.16,0.01,22605.46,4163.77,0.03,4967.43
1008000,723.37,984.14,1.00,1,1,1,2017.17,2.88,245785.42,1135.44,2.94,70651.80,237.39,0.20,35178.88,2710.53,-0.01,186831.71,4239.95,0.02,5143.21
1023900,719.16,983.11,1.00,1,1,1,272.36,-2.90,112144.56,541.05,-0.58,103769.71,228.95,-2.81,29272.20,648.77,0.15,130389.50,4232.40,0.03,1442.55
1040100,737.85,974.55,1.00,1,1,1,1268.71,-0.43,92088.15,773.53,-0.51,14675.61,259.86,-2.05,11415.80,2203.58,0.07,96186.68,4149.55,0.02,5315.29
1056000,740.85,971.03,1.00,1,1,1,291.19,-0.86,63644.37,709.97,-2.91,87005.83,528.61,-0.11,41991.52,2033.20,0.05,10996.40,3772.80,0.02,23694.61
1072100,715.73,969.33,1.00,2,2,2,1563.84,-3.07,108903.27,458.01,0.61,71294.85,4178.29,0.06,227200.75,2274.05,-0.01,16740.22,2534.66,0.02,76904.69
1088000,752.85,979.46,1.00,2,2,2,2419.38,0.27,249336.84,9071.93,0.07,546079.97,4293.84,0.06,7350.99,2575.10,0.01,19277.81,1408.00,0.03,70879.56
1104000,1004.40,989.88,1.00,3,3,3,15735.54,0.04,836749.87,8213.23,0.03,57596.58,4193.87,0.03,9462.17,2432.53,0.03,9452.15,1272.93,0.06,8727.49
1119900,1014.71,987.92,1.00,1,1,1,660.17,-0.19,949267.23,987.08,-0.19,456176.32,4220.38,0.03,2756.59,2214.64,0.04,13743.37,1244.99,0.04,2314.58
1152100,1051.04,981.00,1.00,1,1,1,1148.50,-0.19,15165.68,1567.22,0.01,19512.37,1040.10,-0.04,98860.25,2395.53,0.05,5629.07,1942.00,0.02,21671.98
1167900,1089.94,988.39,1.00,1,1,1,2505.73,0.19,94802.87,1157.92,0.15,28730.96,833.22,-0.03,13113.52,2011.42,0.00,25059.71,2399.25,0.00,29029.65
1183900,1087.44,986.59,1.00,1,1,1,192.71,-2.52,167592.35,113.14,-0.51,66944.18,597.26,0.13,16275.80,528.55,0.04,92709.66,2126.86,0.01,17055.58
1215900,1094.67,985.73,1.00,1,1,1,227.60,-0.12,12243.83,227.49,0.05,4530.56,191.17,-2.60,24248.22,616.50,0.02,2763.32,2151.42,0.02,1039.97
1232000,1098.37,987.14,1.00,2,2,2,245.67,0.36,7105.15,567.25,-2.85,49072.89,84.84,1.35,15974.74,1611.43,0.06,61834.48,2277.08,0.02,7805.21
1249000,1076.68,980.35,1.00,2,2,2,1336.61,-2.84,93052.61,351.55,2.57,25347.68,302.19,0.23,16236.13,2225.28,-0.01,36957.17,2064.19,0.00,12741.68
1264000,1088.90,993.22,1.00,2,2,2,1183.25,0.81,162623.29,1218.21,0.26,98521.48,2881.90,0.04,172401.11,1853.83,-0.02,24788.59,1220.93,-0.00,56219.44
1280400,1113.63,990.24,1.00,1,1,1,1518.91,-0.12,76212.57,6065.07,0.01,298534.35,5247.47,0.01,144394.82,2082.46,-0.01,14047.78,1130.43,-0.03,5952.91
1295900,1282.37,994.49,1.00,1,1,1,10889.91,0.03,605774.02,9157.41,-0.02,199903.30,3694.35,-0.04,101421.80,2147.59,-0.01,4352.72,1116.26,-0.01,1707.58
1313100,1413.02,984.37,1.00,1,1,1,7618.69,-0.08,197777.87,2136.51,-0.14,409309.86,3536.17,-0.02,10153.09,2123.63,-0.00,2162.06,942.31,-0.03,10135.63
1344000,1384.17,980.43,1.00,1,1,1,942.29,-3.01,276441.41,400.39,-3.11,81951.20,1568.81,-0.09,63904.97,1988.28,-0.02,4488.96,1031.65,0.01,3166.38
1359800,1394.33,983.84,1.00,1,1,1,678.18,0.32,102120.21,726.06,0.09,71257.48,417.72,-3.01,125181.92,1649.35,-0.06,21944.83,1023.70,-0.02,2608.60
1375800,1407.16,982.62,1.00,1,1,1,805.19,-0.09,20753.75,450.39,-2.87,73256.40,177.23,2.35,21412.31,683.01,-0.17,60863.13,423.69,-0.04,37506.01
1392000,1380.36,979.95,1.00,1,1,1,1662.27,-3.04,151681.60,965.05,2.95,36837.10,250.89,-2.71,15684.89,232.24,-3.05,56127.69,513.42,0.07,6332.13
1408500,1376.17,988.60,1.00,1,1,1,582.56,2.02,94581.24,130.02,-2.32,54706.06,229.67,-2.77,1604.87,138.65,0.56,21896.85,401.78,-0.03,7237.43
1439800,1376.12,975.41,1.00,1,1,1,421.50,-1.57,31273.53,395.45,-0.74,13352.64,52.29,2.90,6040.94,49.09,-2.26,5940.70,418.16,0.06,1296.44
1455800,1390.01,976.02,1.00,1,1,1,869.13,0.04,61495.81,172.43,1.54,32742.63,314.66,0.10,22773.74,1125.16,-3.14,68400.27,299.49,-3.01,44826.06
1471900,1376.30,980.94,1.00,1,1,1,904.71,2.80,108104.10,582.10,0.94,27957.80,217.23,0.21,6321.89,931.15,3.07,12975.14,614.81,3.09,20226.60
1487900,1401.03,991.11,1.00,2,2,2,1671.05,0.39,151221.51,424.45,-0.19,34641.72,2036.21,3.11,140459.05,897.17,3.13,4267.71,528.48,3.04,5614.82
1504300,1389.81,978.37,1.00,1,1,1,1034.82,-2.29,160915.87,3630.20,-3.09,246568.57,1809.67,3.07,14275.38,819.75,2.96,10124.24,455.15,3.07,4535.87
1535900,1227.02,981.95,1.00,1,1,1,5152.94,3.12,144165.72,3328.46,3.06,17202.44,1886.80,-3.13,5002.46,1266.09,3.11,14932.86,548.88,3.12,3086.10
1551900,1231.85,990.65,1.00,1,1,1,622.17,1.06,341931.48,245.30,2.44,195797.45,1509.31,3.00,28343.38,997.66,3.05,17341.27,531.91,3.06,2199.13
1585000,1217.82,989.73,1.00,1,1,1,424.80,-3.08,27920.21,356.92,0.49,15171.15,495.36,-3.14,30872.82,1104.27,3.11,3747.47,1003.71,-3.10,14476.79
1599900,1246.96,998.72,1.00,1,1,1,2046.84,0.30,165238.01,1018.37,-2.88,91817.93,190.96,2.83,21468.20,842.57,3.02,18449.50,2299.38,-3.11,86963.07
1615900,1187.39,981.73,1.00,1,1,1,3871.97,-2.86,369906.09,931.90,-3.03,10346.35,148.37,0.80,18032.20,96.39,0.30,58217.80,3437.44,-3.12,71133.10
1631900,1217.33,995.39,1.00,1,1,1,2056.88,0.43,369607.37,1238.41,0.38,134457.65,163.53,-0.46,11498.13,88.80,3.00,11290.68,3626.31,-3.12,11804.96
1648000,1224.31,996.45,1.00,1,1,1,438.79,0.15,101811.99,1223.78,-0.03,31279.80,829.11,0.08,43085.34,1154.44,-3.06,66344.04,3660.65,-3.13,3124.81
1663800,1256.35,994.13,1.00,2,2,2,2032.84,-0.07,101768.97,597.17,-0.58,49205.53,53.96,-1.00,50958.50,4177.25,-3.06,191319.46,3583.01,-3.14,5743.32
1679900,1240.28,986.06,1.00,2,2,2,1117.10,-2.68,189220.13,1158.48,-3.10,104368.55,2404.70,-3.02,150836.87,6156.02,-3.10,123599.66,3111.75,-3.14,29274.71
1695900,1219.20,992.48,1.00,2,2,2,1377.28,2.85,59859.45,5270.31,-3.09,256992.62,8482.19,-3.07,380174.89,6924.42,-3.10,48135.07,3168.06,-3.11,5875.96
1711900,1071.86,977.28,1.00,3,3,3,9257.83,-3.04,500405.10,15829.18,-3.07,660014.55,13140.38,-3.10,291762.91,6859.76,-3.12,10231.88,3398.56,-3.12,14422.77
1727900,713.93,956.70,1.00,3,3,3,22407.27,-3.08,822854.56,21010.92,-3.10,326144.47,13886.91,-3.10,46682.53,7003.69,-3.12,9175.40,3348.59,-3.11,4010.02
1743900,399.96,952.49,1.00,1,1,1,19624.71,-3.13,183223.79,11954.08,-3.14,567034.57,11315.97,-3.14,163710.49,6315.73,-3.13,43242.03,2903.53,-3.14,28548.42
1759800,332.60,955.48,1.00,1,1,1,4241.05,3.10,968094.07,1819.86,2.73,648899.90,5549.55,3.08,363854.94,6246.49,-3.11,9698.03,6924.42,-3.10,253162.08
1776000,346.50,976.04,1.00,1,1,1,1532.01,0.98,321519.19,1069.58,0.68,154280.88,924.28,2.78,288670.64,5379.82,-3.13,53852.99,6859.76,-3.12,10105.56
1791900,359.34,977.01,1.00,1,1,1,809.71,0.08,76022.12,331.82,2.97,82553.34,205.85,2.49,45873.59,2620.11,3.12,173784.29,7003.69,-3.12,9233.11
1823900,330.84,978.75,1.00,1,1,1,892.23,3.08,53061.80,862.43,-2.86,18198.80,620.24,-2.97,15759.53,352.67,2.65,72195.03,6315.73,-3.13,21621.01
1840000,319.48,965.51,1.00,1,1,1,1083.51,-2.28,55653.78,1096.04,-2.81,14807.17,315.33,-2.68,20491.59,205.85,2.49,9523.12,6246.49,-3.11,9577.56
1855800,297.76,967.43,1.00,1,1,1,1380.08,3.05,73219.54,541.17,0.02,102498.41,238.54,0.02,34207.02,620.24,-2.97,31918.04,5379.82,-3.13,55216.36
1871900,336.74,965.79,1.00,1,1,1,2423.34,-0.04,236178.84,1103.76,0.22,36263.92,541.17,0.02,18796.74,315.33,-2.68,20491.59,2620.11,3.12,171625.48
1904300,350.02,979.05,1.00,2,2,2,578.93,0.78,64051.69,578.93,0.78,21262.52,1103.76,0.22,18020.03,238.54,0.02,16681.20,352.67,2.65,71303.73
