@RELATION gaze_labels

%@METADATA width_px 1920
%@METADATA height_px 1080
%@METADATA width_mm 540.00
%@METADATA height_mm 254.00
%@METADATA distance_mm 620.00


@ATTRIBUTE time INTEGER
@ATTRIBUTE x NUMERIC
@ATTRIBUTE y NUMERIC
@ATTRIBUTE confidence NUMERIC
@ATTRIBUTE handlabeller1 INTEGER
@ATTRIBUTE handlabeller2 INTEGER
@ATTRIBUTE handlabeller_final INTEGER
@ATTRIBUTE speed_1 numeric
@ATTRIBUTE direction_1 numeric
@ATTRIBUTE acceleration_1 numeric
@ATTRIBUTE speed_2 numeric
@ATTRIBUTE direction_2 numeric
@ATTRIBUTE acceleration_2 numeric
@ATTRIBUTE speed_4 numeric
@ATTRIBUTE direction_4 numeric
@ATTRIBUTE acceleration_4 numeric
@ATTRIBUTE speed_8 numeric
@ATTRIBUTE direction_8 numeric
@ATTRIBUTE acceleration_8 numeric
@ATTRIBUTE speed_16 numeric
@ATTRIBUTE direction_16 numeric
@ATTRIBUTE acceleration_16 numeric

%The number after speed, direction denotes the step size that was used for the calculation.
%Acceleration was calculated between two adjacent samples of the already low pass filtered velocity

@DATA
0,1029.45,905.87,1.00,1,1,1,0.00,0.00,0.00,1639.45,-1.20,0.00,1617.07,-1.03,0.00,813.59,-0.78,0.00,1205.44,2.87,0.00
32000,1048.43,856.96,1.00,1,1,1,1639.45,-1.20,51232.97,1617.07,-1.03,8618.35,1097.91,-0.41,30167.09,408.00,1.50,35093.60,2043.96,2.76,26751.99
48000,1069.30,839.26,1.00,1,1,1,1710.40,-0.70,51710.09,1097.91,-0.41,60334.17,813.59,-0.78,28256.33,1478.39,2.32,77312.81,2821.45,2.80,48993.02
64100,1080.74,842.88,1.00,1,1,1,745.08,0.31,90539.19,665.70,1.27,83618.68,408.00,1.50,69751.26,2597.27,2.57,75949.31,3459.74,2.86,41675.14
80200,1075.61,859.75,1.00,1,1,1,1094.99,1.87,81828.84,1534.58,2.21,78412.51,1478.39,2.32,76832.60,1205.44,2.87,92369.32,3871.31,2.92,28408.92
97100,1050.42,883.44,1.00,1,1,1,2046.28,2.39,72433.90,2688.83,2.53,78349.90,2597.27,2.57,72354.08,2043.96,2.76,50654.65,4049.70,2.97,16674.10
112300,1004.77,909.06,1.00,2,2,2,3443.81,2.63,101261.47,3869.40,2.72,86852.13,3651.55,2.73,76529.48,2821.45,2.80,51571.60,3525.86,3.03,37225.57
128200,940.78,933.03,1.00,2,2,2,4298.06,2.78,65222.62,4711.69,2.84,62742.57,3639.87,2.84,26487.34,3459.74,2.86,42199.35,3193.79,3.09,24286.92
143900,862.51,952.98,1.00,2,2,2,5144.54,2.89,62992.98,3525.92,2.94,79331.51,4073.23,2.93,35188.33,3871.31,2.92,29132.72,1969.06,3.07,78067.97
176100,775.45,967.57,1.00,4,4,4,2741.29,2.98,75269.25,3680.04,3.01,9616.12,4281.59,3.01,11384.85,4049.70,2.97,8751.31,2095.21,3.01,5667.28
192300,685.93,976.31,1.00,4,4,4,5552.43,3.04,174311.28,5427.58,3.07,109282.83,4134.35,3.05,14971.49,3525.86,3.03,34927.70,1996.36,2.98,6810.09
208400,600.55,979.47,1.00,2,2,2,5306.94,3.10,25456.05,4836.23,3.10,37664.49,4630.56,3.10,33473.98,3193.79,3.09,23985.22,1997.73,2.98,370.89
224100,532.27,982.73,1.00,2,2,2,4353.67,3.09,60808.51,3820.54,3.14,65522.62,3021.70,-3.12,103544.12,2686.34,-3.13,34362.88,1954.76,2.99,2866.50
240000,479.82,979.92,1.00,2,2,2,3303.69,-3.09,70305.37,1834.19,-3.01,126884.08,2144.49,-3.03,57256.55,2266.14,-3.05,29034.87,1776.83,3.01,11615.79
272000,445.15,971.37,1.00,3,3,3,1115.81,-2.90,69296.36,1103.12,-2.75,25636.18,1322.26,-2.81,28029.91,1374.02,-2.96,28386.19,1638.26,3.04,4630.90
288100,430.78,959.65,1.00,3,3,3,1151.69,-2.46,30981.52,818.98,-2.09,42276.28,630.13,-2.19,55139.02,781.94,-2.83,37641.29,1451.54,3.08,12140.32
304100,432.18,948.50,1.00,1,1,1,702.03,-1.45,61262.56,891.74,-0.81,63674.41,543.65,-0.95,42910.76,330.64,-2.52,29839.05,1209.13,3.14,15859.35
320100,450.39,938.91,1.00,1,1,1,1286.21,-0.48,65953.10,840.69,-0.32,26814.98,676.60,-0.34,24155.64,139.13,-1.23,20116.63,987.87,-3.10,14231.23
351900,470.37,936.00,1.00,1,1,1,635.03,-0.14,22624.52,655.45,0.08,10888.53,715.78,0.06,8940.63,246.80,-0.27,6357.17,705.02,-3.04,9007.35
368000,481.68,941.44,1.00,1,1,1,779.35,0.45,27031.71,774.62,0.71,28356.42,433.16,0.44,21880.25,291.00,0.04,5837.86,433.98,-2.95,17165.64
383900,489.18,952.15,1.00,1,1,1,822.39,0.96,25657.30,344.21,1.18,31013.90,348.25,1.09,16448.57,273.62,0.15,2155.18,222.97,-2.69,14166.80
416300,488.02,956.81,1.00,2,2,2,148.16,1.81,22645.88,217.55,2.17,8928.68,256.96,1.79,6876.79,184.21,0.55,3908.82,94.64,-1.96,5086.66
432200,483.26,960.82,1.00,3,3,3,392.08,2.44,17958.19,368.56,2.73,13617.23,174.48,2.95,15511.50,134.27,1.45,9176.49,84.55,-0.75,6460.17
448100,477.31,961.55,1.00,3,3,3,377.11,3.02,13855.07,308.67,-2.49,21977.62,200.08,-2.94,4896.46,113.17,2.31,6589.99,102.93,-0.19,3441.62
464000,475.47,954.85,1.00,1,1,1,436.88,-1.84,33578.12,235.30,-1.81,12184.45,186.45,-2.65,3562.27,124.63,3.08,5675.95,101.43,0.16,2202.39
480000,475.54,954.25,1.00,1,1,1,37.41,-1.46,25145.20,86.49,3.00,15166.80,158.11,-2.27,4421.79,152.82,-2.96,2708.34,61.67,0.84,4132.99
496200,472.71,955.24,1.00,1,1,1,184.53,2.81,12558.35,147.77,-3.02,4205.53,70.59,-2.78,6298.28,142.38,-2.80,1642.39,57.96,1.87,3654.26
513700,470.59,953.64,1.00,1,1,1,151.69,-2.50,9206.96,77.95,-2.20,6290.96,106.00,-3.01,2318.81,121.86,-2.69,1439.58,71.41,2.61,2770.82
528100,471.25,953.23,1.00,1,1,1,53.36,-0.56,12349.57,59.73,-2.97,3776.56,110.57,-2.99,339.15,89.42,-3.02,3314.92,78.96,3.12,2671.85
544100,468.80,953.33,1.00,1,1,1,152.68,3.10,12548.49,152.19,3.05,5985.37,115.39,3.12,1242.72,87.91,-3.03,104.47,68.28,-2.95,1168.77
575900,464.00,953.91,1.00,1,1,1,152.10,3.02,369.32,151.40,3.08,130.54,107.07,3.13,263.56,55.58,-2.72,1225.66,52.12,-2.52,960.47
592200,461.54,953.82,1.00,1,1,1,151.26,-3.10,1452.55,45.29,-2.73,6943.54,73.50,-3.06,2119.75,48.55,-2.87,658.97,37.32,-2.01,1626.27
608300,462.66,953.32,1.00,1,1,1,76.16,-0.42,13800.80,53.10,-0.60,5342.54,37.73,-0.94,6122.34,38.11,-3.05,795.28,12.27,-1.90,1562.08
624200,462.94,952.85,1.00,1,1,1,34.16,-1.03,3276.15,97.37,-0.46,2860.95,48.87,-0.70,961.86,1.36,-1.94,2360.33,15.66,-0.92,853.69
640000,465.43,951.95,1.00,1,1,1,167.54,-0.35,9035.57,45.11,-0.81,3611.55,32.68,-0.26,1506.17,42.63,-0.35,2700.55,31.79,-0.52,1164.84
656000,463.93,951.82,1.00,1,1,1,93.91,-3.05,15982.91,15.56,1.91,3726.96,72.64,0.05,2662.65,70.25,-0.23,1780.30,42.52,-0.20,992.30
688000,465.18,952.66,1.00,1,1,1,47.00,0.59,4280.98,103.59,0.27,3308.50,51.98,-0.08,693.03,66.83,-0.19,136.89,38.53,0.10,395.54
704000,468.73,953.13,1.00,1,1,1,223.76,0.13,11428.68,110.90,-0.21,3205.50,89.21,-0.06,2328.57,90.14,-0.16,1461.62,39.96,-0.46,1355.38
736300,470.42,951.54,1.00,2,2,2,71.90,-0.76,5788.53,87.05,-0.46,1048.53,95.29,-0.17,356.20,91.78,-0.11,162.57,43.60,-0.58,194.01
751900,472.47,951.29,1.00,3,3,3,132.60,-0.12,5530.34,79.71,-0.11,1921.07,106.74,-0.28,1041.83,107.42,-0.05,1077.36,68.53,-0.86,1868.79
783900,474.19,951.14,1.00,1,1,1,53.93,-0.09,2459.39,128.47,-0.16,1535.06,139.24,-0.12,1188.76,108.12,0.10,489.34,78.46,-1.04,525.81
800200,478.59,950.28,1.00,1,1,1,275.18,-0.19,13594.98,224.60,-0.13,5911.69,125.62,-0.04,1075.15,76.15,-0.44,3560.22,84.59,-0.71,1691.27
817100,481.59,950.20,1.00,1,1,1,177.30,-0.03,6188.21,124.94,0.10,6300.77,130.94,0.33,2777.54,46.62,-0.78,2122.63,72.13,0.01,3335.37
848000,484.53,950.86,1.00,1,1,1,97.78,0.22,2779.61,106.96,1.04,3449.89,45.75,-0.91,4002.22,90.21,-1.33,1809.06,102.79,0.72,2170.88
864100,484.12,954.54,1.00,1,1,1,229.79,1.68,14884.71,157.99,-2.39,16292.22,88.11,-2.55,6339.93,135.43,-1.51,3074.99,146.48,1.19,4484.26
880000,480.85,947.41,1.00,1,1,1,493.80,-2.00,44073.09,354.71,-2.36,12378.45,250.54,-2.14,10903.74,110.15,-1.26,2510.43,193.28,1.43,3888.07
897400,475.73,946.23,1.00,1,1,1,301.66,-2.92,22476.54,349.14,-2.02,6820.14,383.85,-1.94,8420.26,52.30,0.24,6804.32,261.79,1.49,4016.63
912400,475.91,937.23,1.00,1,1,1,600.14,-1.55,40929.74,476.55,-1.60,14221.39,195.00,-1.36,16313.09,167.91,1.34,10119.49,305.89,1.51,2953.73
928000,475.30,931.65,1.00,1,1,1,359.51,-1.68,15882.74,246.74,-0.26,30966.38,192.44,0.40,19171.30,288.89,1.61,8596.18,339.46,1.46,2361.92
944000,483.43,935.20,1.00,1,1,1,554.32,0.41,49770.77,520.40,0.96,30886.27,496.74,1.21,24326.70,465.37,1.62,11036.44,331.12,1.41,1156.27
976100,489.67,952.15,1.00,1,1,1,562.77,1.22,13671.11,818.93,1.40,12920.19,808.07,1.46,10863.41,593.02,1.56,4107.75,330.12,1.22,1967.56
992700,490.05,974.53,1.00,2,2,2,1348.08,1.55,50448.83,1380.83,1.73,39655.74,991.37,1.65,15020.38,744.27,1.55,9124.22,350.53,0.88,6970.03
1008400,482.69,996.20,1.00,2,2,2,1458.11,1.90,31400.10,1331.04,1.88,13210.81,1247.02,1.73,17413.15,804.97,1.49,4864.63,377.18,0.48,9458.62
1024100,477.46,1014.38,1.00,2,2,2,1204.73,1.85,16634.05,1110.29,1.74,17606.48,1113.10,1.73,8530.96,717.80,1.47,5596.29,463.20,0.27,7712.50
1040000,476.79,1030.79,1.00,2,2,2,1032.75,1.61,19892.90,930.85,1.54,17257.59,802.16,1.52,23258.69,664.26,1.29,8568.42,564.70,0.08,8977.22
1056100,478.53,1044.15,1.00,4,4,4,836.89,1.44,15641.87,586.28,1.14,27986.19,490.28,1.11,24997.89,557.67,0.75,21369.41,690.42,-0.00,8411.82
1074500,485.24,1049.16,1.00,4,4,4,455.51,0.64,33363.13,356.65,0.33,23309.92,518.66,0.33,21117.66,650.66,0.11,21216.40,825.44,-0.05,7625.74
1104200,494.78,1049.63,1.00,4,4,4,321.59,0.05,8772.09,687.03,-0.16,13737.17,899.53,-0.22,17762.14,887.68,-0.21,11258.44,955.55,-0.10,4583.07
1120100,516.15,1044.06,1.00,4,4,4,1388.87,-0.25,68315.09,1818.95,-0.37,72635.59,1166.99,-0.40,20402.57,1148.85,-0.40,20520.58,1151.65,-0.15,12848.22
1136000,548.73,1028.77,1.00,2,2,2,2263.63,-0.44,58719.39,1648.22,-0.49,16689.93,1722.65,-0.49,35871.98,1459.66,-0.48,20618.98,1242.85,-0.22,7702.86
1168000,585.95,1007.17,1.00,2,2,2,1344.75,-0.53,29104.01,1673.10,-0.57,4402.05,1942.27,-0.58,8659.52,1739.74,-0.50,8803.93,1406.12,-0.25,5208.41
1184100,616.50,985.36,1.00,1,1,1,2331.23,-0.62,62141.08,2403.56,-0.67,47142.92,2063.80,-0.59,7812.94,2174.36,-0.48,27131.40,1580.25,-0.29,11491.51
1200000,646.11,959.25,1.00,1,1,1,2483.15,-0.72,18205.96,2654.40,-0.62,18014.34,2590.52,-0.57,33351.42,2316.47,-0.44,10119.29,1721.96,-0.33,9742.58
1216000,685.51,936.30,1.00,1,1,1,2849.78,-0.53,39696.55,2801.25,-0.48,25474.63,2740.20,-0.47,18805.80,2113.18,-0.42,13144.50,1890.18,-0.34,10676.72
1232100,725.94,917.85,1.00,1,1,1,2759.89,-0.43,18150.30,2881.73,-0.33,26000.49,2824.57,-0.33,25131.03,2301.79,-0.36,14451.00,1909.46,-0.34,1265.66
1247900,772.37,906.20,1.00,1,1,1,3030.07,-0.25,37426.79,2911.01,-0.18,27917.50,2223.51,-0.26,39682.97,2354.77,-0.33,5735.84,2059.77,-0.33,9560.83
1264000,817.27,901.09,1.00,1,1,1,2806.89,-0.11,27733.11,1799.61,-0.17,69038.40,2160.34,-0.15,14398.12,2362.90,-0.29,5297.76,2068.45,-0.33,709.10
1296100,857.80,891.15,1.00,2,2,2,1299.88,-0.24,47553.47,1662.99,-0.12,5075.11,2094.42,-0.18,2472.84,2393.20,-0.25,2873.83,1973.26,-0.32,3044.01
1312000,896.49,891.29,1.00,2,2,2,2433.65,0.00,76335.83,2538.47,-0.18,55489.17,1997.93,-0.25,11010.49,2115.21,-0.21,18361.10,1971.91,-0.30,2204.74
1328100,937.77,876.90,1.00,3,3,3,2715.08,-0.34,56637.98,2534.67,-0.37,30103.05,2605.94,-0.25,37765.90,1996.54,-0.19,7783.21,1826.25,-0.28,9323.00
1344200,972.66,861.95,1.00,1,1,1,2357.29,-0.40,24753.61,2686.83,-0.32,12363.20,2077.81,-0.27,32998.81,1873.60,-0.20,7734.84,1757.64,-0.26,5137.09
1360000,1019.17,850.06,1.00,1,1,1,3038.63,-0.25,50432.81,1785.84,-0.19,59940.94,1899.30,-0.21,13596.18,1844.25,-0.19,2355.47,1542.14,-0.23,13932.45
1392200,1056.91,846.17,1.00,1,1,1,1178.27,-0.10,58420.61,1400.12,-0.08,13021.07,1752.59,-0.15,5652.80,1651.06,-0.22,6243.68,1385.49,-0.20,4993.31
1408200,1086.43,844.59,1.00,1,1,1,1847.84,-0.05,42093.87,1705.59,-0.11,19256.41,1245.09,-0.10,32194.81,1355.98,-0.21,18462.00,1194.03,-0.19,12015.54
1424000,1110.84,840.37,1.00,1,1,1,1567.45,-0.17,21809.60,1010.77,-0.12,44000.25,1127.34,-0.11,7500.55,1214.70,-0.20,9038.13,985.21,-0.18,13233.27
1440000,1118.33,840.60,1.00,1,1,1,468.31,0.03,69534.51,556.27,-0.10,28421.99,811.98,-0.22,20761.63,847.65,-0.17,22991.55,746.52,-0.14,15060.71
1456200,1128.65,838.51,1.00,1,1,1,650.27,-0.20,13680.79,686.28,-0.30,11057.50,684.00,-0.31,8995.45,654.75,-0.18,11907.11,428.20,-0.12,19672.26
1488200,1149.89,830.70,1.00,1,1,1,707.13,-0.35,3691.64,781.61,-0.41,3796.06,526.11,-0.33,4950.73,398.01,-0.18,8023.21,90.95,0.59,11376.63
1504000,1162.96,823.72,1.00,1,1,1,937.81,-0.49,16222.91,365.31,-0.38,26362.45,344.78,-0.33,11476.81,108.81,0.22,19034.60,282.20,2.61,20983.53
1536000,1166.10,824.20,1.00,1,1,1,99.01,0.15,26887.91,107.50,2.20,14371.30,31.68,1.62,11180.32,251.67,2.67,10701.10,629.91,2.79,11137.33
1552000,1159.93,827.90,1.00,1,1,1,449.42,2.60,33094.00,553.23,2.63,28627.43,504.86,2.61,30509.18,685.68,2.79,27304.15,977.48,2.87,22071.01
1569800,1149.75,833.28,1.00,1,1,1,646.93,2.66,11220.60,1107.00,2.67,31150.52,1413.02,2.75,51422.01,1239.80,2.82,31172.05,1227.91,2.92,14392.74
1584500,1127.87,844.23,1.00,1,1,1,1664.22,2.68,69220.46,2377.13,2.78,87205.43,2228.03,2.80,55735.21,1754.72,2.84,35068.58,1411.65,2.95,12776.72
1600100,1082.44,858.92,1.00,2,2,2,3060.75,2.83,92149.37,3396.51,2.84,66243.44,2521.59,2.83,19660.86,2424.34,2.87,43108.75,1478.04,2.98,4981.71
1616000,1025.80,876.28,1.00,2,2,2,3726.13,2.84,41975.51,2616.60,2.86,49318.67,3033.66,2.87,33022.31,2785.24,2.90,23219.75,1485.42,3.00,1784.78
1648000,961.88,893.18,1.00,3,3,3,2066.04,2.88,51987.10,2798.86,2.90,6626.00,3244.49,2.91,7390.01,3075.31,2.93,9507.71,1455.62,3.00,937.72
1664100,894.93,907.87,1.00,1,1,1,4257.28,2.93,136327.83,4185.91,2.95,86694.14,3244.78,2.95,8941.04,3101.27,2.97,7665.37,1329.16,2.97,8248.74
1680200,829.55,918.82,1.00,1,1,1,4117.16,2.98,15658.48,3925.38,3.01,21346.95,3777.59,3.01,35089.40,2857.15,3.01,17054.81,2424.34,2.87,68923.78
1696100,770.48,924.91,1.00,1,1,1,3735.11,3.04,28636.65,3379.53,3.08,38159.17,3220.80,3.08,38228.49,2394.05,3.06,30473.19,2785.24,2.90,23219.75
1712000,722.30,925.62,1.00,1,1,1,3030.44,3.13,48071.60,2541.71,-3.10,56395.46,2426.75,-3.10,53147.37,1732.21,3.14,42593.10,3075.31,2.93,19135.01
1728100,689.23,921.19,1.00,1,1,1,2072.43,-3.01,63792.59,1536.06,-2.88,67921.51,1427.48,-2.90,66444.70,908.46,-3.03,51920.59,3101.27,2.97,7665.37
1744000,674.84,912.81,1.00,1,1,1,1046.96,-2.61,73997.61,619.14,-1.95,79495.18,405.11,-1.90,78898.13,2426.75,-3.10,95701.59,2857.15,3.01,17269.34
1760100,681.83,902.81,1.00,1,1,1,758.03,-0.96,83371.41,848.55,-0.45,62987.26,1002.68,-0.35,66774.89,1427.48,-2.90,66444.70,2394.05,3.06,30094.64
1792400,711.75,894.80,1.00,1,1,1,958.90,-0.26,19127.65,1734.11,-0.11,30328.67,848.55,-0.45,5671.10,405.11,-1.90,38838.40,1732.21,3.14,20966.88
1808200,764.77,893.91,1.00,1,1,1,3355.81,-0.02,154210.57,3355.81,-0.02,103555.13,1734.11,-0.11,62001.01,1002.68,-0.35,68042.76,908.46,-3.03,52906.42
