@RELATION gaze_labels

%@METADATA width_px 1920
%@METADATA height_px 1080
%@METADATA width_mm 540.00
%@METADATA height_mm 254.00
%@METADATA distance_mm 620.00


@ATTRIBUTE time INTEGER
@ATTRIBUTE x NUMERIC
@ATTRIBUTE y NUMERIC
@ATTRIBUTE confidence NUMERIC
@ATTRIBUTE handlabeller1 INTEGER
@ATTRIBUTE handlabeller2 INTEGER
@ATTRIBUTE handlabeller_final INTEGER
@ATTRIBUTE speed_1 numeric
@ATTRIBUTE direction_1 numeric
@ATTRIBUTE acceleration_1 numeric
@ATTRIBUTE speed_2 numeric
@ATTRIBUTE direction_2 numeric
@ATTRIBUTE acceleration_2 numeric
@ATTRIBUTE speed_4 numeric
@ATTRIBUTE direction_4 numeric
@ATTRIBUTE acceleration_4 numeric
@ATTRIBUTE speed_8 numeric
@ATTRIBUTE direction_8 numeric
@ATTRIBUTE acceleration_8 numeric
@ATTRIBUTE speed_16 numeric
@ATTRIBUTE direction_16 numeric
@ATTRIBUTE acceleration_16 numeric

%The number after speed, direction denotes the step size that was used for the calculation.
%Acceleration was calculated between two adjacent samples of the already low pass filtered velocity

@DATA
0,690.84,891.30,1.00,3,3,3,0.00,0.00,0.00,4954.34,-0.35,0.00,2330.22,-0.28,0.00,1497.77,-0.11,0.00,777.25,-0.06,0.00
15500,763.03,865.11,1.00,1,1,1,4954.34,-0.35,319635.04,2330.22,-0.28,170018.83,963.50,0.06,93905.01,585.68,0.46,68072.82,277.16,0.31,34060.79
47600,797.54,861.00,1.00,1,1,1,1082.73,-0.12,121737.85,963.50,0.06,45343.54,1497.77,-0.11,17845.69,457.32,1.44,15621.00,111.85,0.91,6095.37
63600,809.29,867.85,1.00,1,1,1,849.92,0.53,40734.13,641.55,0.96,47321.16,585.68,0.46,65945.54,361.19,1.97,14592.20,46.31,2.18,6739.07
79600,809.30,877.83,1.00,1,1,1,624.11,1.57,47493.09,579.29,1.79,31104.37,457.32,1.44,31339.63,777.25,-0.06,61913.83,161.09,2.59,7499.83
95800,805.15,886.03,1.00,1,1,1,567.39,2.04,17432.51,452.45,2.14,13478.57,361.19,1.97,14412.05,277.16,0.31,32589.03,315.51,2.50,9614.02
111500,801.47,889.96,1.00,1,1,1,342.53,2.32,16374.60,178.36,2.56,19007.38,153.49,2.38,14625.63,111.85,0.91,12462.51,602.20,2.44,18331.44
127400,800.43,889.12,1.00,1,1,1,84.25,-2.46,21805.18,169.86,-1.44,19894.89,94.75,-1.55,14474.92,46.31,2.18,6781.45,958.78,2.45,22427.07
143500,802.17,884.57,1.00,1,1,1,302.52,-1.21,17881.23,243.27,-1.14,5931.24,216.65,-1.22,8111.76,161.09,2.59,7453.25,461.95,1.99,36026.29
175500,805.31,878.48,1.00,1,1,1,214.01,-1.09,2903.40,251.92,-1.12,308.96,207.58,-1.26,399.87,315.51,2.50,4867.10,826.57,2.37,13449.62
191400,807.41,873.70,1.00,1,1,1,328.56,-1.16,7277.59,162.80,-1.54,7726.19,171.58,2.74,21694.87,602.20,2.44,18100.86,1129.38,2.50,20807.92
207400,805.46,873.29,1.00,1,1,1,124.72,-2.94,23420.68,743.40,2.40,54013.88,691.83,2.39,33344.56,958.78,2.45,22286.90,1205.89,2.59,7961.62
224000,789.46,889.98,1.00,1,1,1,1392.74,2.33,80177.49,1228.73,2.33,29542.80,1395.31,2.37,42409.86,1348.41,2.47,23517.01,1269.57,2.66,6541.46
255500,764.73,916.12,1.00,2,2,2,1142.31,2.33,7953.73,1844.16,2.36,19572.17,2094.02,2.39,22231.79,1906.01,2.51,17818.64,1278.88,2.73,2619.75
271400,727.69,951.83,1.00,2,2,2,3235.99,2.37,131792.90,3400.26,2.43,98529.09,2543.77,2.45,29447.18,2261.75,2.55,23121.50,1196.81,2.79,7013.03
287500,682.47,987.34,1.00,2,2,2,3571.18,2.48,29879.12,3591.71,2.52,23542.13,3421.38,2.54,56792.01,2251.52,2.60,6375.98,1156.88,2.84,4744.59
303700,633.27,1019.24,1.00,4,4,4,3619.44,2.57,20294.66,3481.64,2.64,27289.68,3388.95,2.65,23527.73,2274.12,2.67,9639.03,1120.00,2.89,3806.90
319900,583.41,1041.31,1.00,4,4,4,3365.72,2.72,37532.24,3245.73,2.79,34207.52,2490.02,2.77,59625.50,2347.73,2.76,13988.61,1134.41,2.91,2026.15
335500,536.30,1054.59,1.00,4,4,4,3137.80,2.87,32975.80,1857.88,2.93,91738.53,2134.96,2.93,32274.43,1837.13,2.90,37572.29,1097.80,2.92,2367.99
367400,497.05,1059.47,1.00,4,4,4,1239.79,3.02,60226.18,1445.49,3.13,16222.14,1671.62,3.13,18780.02,1476.13,3.10,15232.68,1077.85,2.90,814.22
383400,467.07,1055.71,1.00,4,4,4,1888.58,-3.02,46961.95,1540.91,-2.82,31750.10,1034.65,-2.81,48632.02,1147.12,-2.90,31172.42,1015.43,2.90,3903.27
400800,448.20,1043.29,1.00,2,2,2,1298.52,-2.56,53047.55,858.84,-2.22,55616.36,992.35,-2.26,31935.64,889.09,-2.50,27164.75,947.98,2.94,4528.22
431500,442.23,1022.70,1.00,2,2,2,698.26,-1.85,29042.14,966.57,-1.61,18030.67,1017.74,-1.71,17674.90,747.28,-2.04,12956.52,799.80,2.99,4997.31
447600,446.39,998.09,1.00,2,2,2,1550.14,-1.40,60233.70,1545.21,-1.30,42864.55,1132.10,-1.33,26473.21,752.93,-1.67,17494.61,588.64,3.13,14541.15
463500,455.37,975.03,1.00,2,2,2,1556.51,-1.20,19925.70,1483.54,-1.06,23131.99,1318.22,-1.08,22258.08,658.95,-1.32,16217.90,434.41,-2.91,12320.09
479500,469.45,956.77,1.00,3,3,3,1441.29,-0.91,27557.46,1177.25,-0.79,29156.05,963.33,-0.86,27165.94,616.25,-0.98,13913.94,327.61,-2.56,10615.54
495600,481.85,948.06,1.00,1,1,1,940.65,-0.61,37945.06,562.34,-0.31,45256.45,575.07,-0.31,34706.71,529.42,-0.55,16032.96,264.44,-2.06,9863.02
511800,486.75,951.23,1.00,1,1,1,360.64,0.57,53820.95,559.98,1.07,44189.25,484.42,0.46,25055.49,396.42,-0.17,13554.72,270.19,-1.57,8020.14
527400,490.34,963.72,1.00,1,1,1,832.46,1.29,39027.73,691.04,1.07,8403.50,676.67,1.14,27459.32,353.42,0.27,10795.88,281.44,-1.21,6398.87
543400,497.25,970.38,1.00,1,1,1,600.34,0.77,27117.87,794.16,1.18,8273.13,505.66,1.16,10723.04,298.04,0.76,10452.10,282.74,-0.94,4681.74
559500,500.02,987.30,1.00,1,1,1,1064.76,1.41,42596.95,390.11,1.27,25263.96,357.43,1.05,9629.07,273.28,1.13,6577.67,293.51,-0.67,4919.60
592400,503.00,988.61,1.00,1,1,1,99.11,0.41,30826.62,99.03,0.32,10398.72,204.55,1.37,5336.31,224.37,1.23,1695.41,247.08,-0.39,2639.34
608100,504.59,988.79,1.00,2,2,2,101.93,0.11,1926.35,107.51,-2.44,12910.11,49.63,-1.90,16167.56,119.98,1.23,6649.33,147.35,0.04,8246.50
623500,500.45,986.45,1.00,2,2,2,308.96,-2.63,26282.51,251.17,-2.41,9332.95,142.05,-2.25,6296.73,52.74,1.72,5038.80,99.00,0.98,7745.60
639400,498.74,983.55,1.00,3,3,3,212.08,-2.10,10317.68,178.64,-2.14,5802.28,193.33,-2.34,3362.14,102.58,-1.22,9727.84,111.05,1.77,5153.89
655400,497.37,981.65,1.00,1,1,1,145.77,-2.19,4263.24,138.38,-2.22,2631.31,150.12,-2.04,4173.14,134.47,-1.25,1999.85,106.08,1.99,1488.04
671400,496.06,980.02,1.00,1,1,1,131.09,-2.25,1021.15,123.89,-1.90,2754.40,186.21,-1.02,10511.26,94.66,-2.08,6253.41,61.20,2.15,2922.19
687500,496.09,977.89,1.00,1,1,1,132.11,-1.56,5514.15,347.17,-0.64,20599.05,225.23,-0.69,4725.70,113.03,-2.76,4435.80,9.60,0.63,3817.03
703500,505.03,973.41,1.00,1,1,1,625.42,-0.46,36053.04,423.63,-0.42,7085.56,44.63,-1.04,11491.26,148.99,-3.04,3158.46,113.39,-0.71,6978.30
719400,508.45,972.42,1.00,1,1,1,223.39,-0.28,25653.91,163.01,2.69,36890.12,138.39,2.91,10837.23,147.71,-3.10,607.23,269.98,-0.48,10181.64
752300,497.89,976.90,1.00,1,1,1,348.60,2.74,17355.54,509.02,2.81,10570.13,323.05,2.89,5613.93,99.57,-3.10,1463.51,467.82,-0.37,6119.93
767500,485.32,980.46,1.00,1,1,1,859.40,2.87,33907.58,493.56,2.96,5127.94,369.49,2.91,3077.98,42.32,-1.02,8257.15,597.19,-0.31,8804.34
799400,475.02,981.10,1.00,1,1,1,323.34,3.08,17167.27,239.70,3.12,8135.37,225.51,3.01,4605.47,142.33,-0.39,3483.65,739.24,-0.27,4525.86
816300,473.62,980.75,1.00,1,1,1,85.47,-2.89,14402.63,165.77,-0.34,23699.17,207.08,-0.53,25099.34,414.18,-0.30,16139.76,884.04,-0.26,8589.52
831900,480.10,979.29,1.00,1,1,1,425.33,-0.22,32243.33,880.33,-0.32,45808.28,837.71,-0.31,40844.38,957.34,-0.27,34831.57,1036.33,-0.24,9794.11
847400,499.60,972.11,1.00,1,1,1,1341.06,-0.35,59423.47,1531.09,-0.31,41999.58,1614.99,-0.28,50212.51,1214.79,-0.25,16662.09,1107.86,-0.23,4740.15
863400,526.09,964.76,1.00,1,1,1,1717.68,-0.27,24793.95,2327.96,-0.26,50114.38,2437.64,-0.26,51465.48,1715.26,-0.23,31336.09,1172.95,-0.22,4100.20
879500,571.84,952.99,1.00,2,2,2,2934.65,-0.25,75633.01,3332.62,-0.24,62534.15,2227.14,-0.23,13682.16,2037.57,-0.23,20020.13,1243.67,-0.21,4422.95
895400,629.80,939.92,1.00,2,2,2,3736.34,-0.22,50807.55,2161.02,-0.21,73826.35,2418.89,-0.21,12308.40,2301.54,-0.23,16606.56,1422.33,-0.21,11237.76
927600,673.55,931.51,1.00,1,1,1,1383.55,-0.19,73102.98,1812.28,-0.18,10926.09,2373.67,-0.21,1428.79,2185.68,-0.21,3762.07,1521.71,-0.20,3103.80
943500,715.48,923.91,1.00,1,1,1,2680.62,-0.18,81587.23,2695.32,-0.21,55647.39,2195.06,-0.20,11249.72,2203.80,-0.21,1278.48,1698.63,-0.19,11195.15
959400,757.38,913.66,1.00,1,1,1,2712.53,-0.24,10527.44,2771.51,-0.22,5397.19,2144.57,-0.20,3344.57,2075.45,-0.20,8253.87,1689.91,-0.18,924.25
975500,801.95,904.19,1.00,1,1,1,2830.42,-0.21,9043.41,1780.00,-0.18,61834.66,1988.73,-0.21,9740.52,1840.64,-0.18,14687.83,1774.12,-0.18,5254.59
1007400,841.37,898.02,1.00,1,1,1,1250.83,-0.16,49619.65,1468.71,-0.18,9759.15,1778.40,-0.18,6762.77,1865.19,-0.17,1152.80,1740.91,-0.17,1234.49
1023600,871.43,891.42,1.00,1,1,1,1899.73,-0.22,40475.53,1776.07,-0.17,18989.59,1486.71,-0.15,18273.80,1685.02,-0.15,11299.87,1679.30,-0.17,3804.40
1039500,897.53,888.17,1.00,2,2,2,1653.86,-0.12,18565.47,1516.91,-0.10,17962.32,1522.72,-0.12,3859.35,1383.72,-0.12,19124.91,1640.76,-0.18,2855.28
1055400,919.43,886.57,1.00,2,2,2,1380.95,-0.07,17847.67,1278.75,-0.04,16012.31,1315.75,-0.04,14569.46,1307.21,-0.10,5099.54,1533.79,-0.19,6791.83
1071900,938.93,886.67,1.00,2,2,2,1182.16,0.01,13468.47,1122.47,0.04,10814.41,996.35,-0.02,19426.54,1302.74,-0.09,873.77,1497.96,-0.18,2357.10
1087500,955.43,887.86,1.00,1,1,1,1060.61,0.07,9152.23,803.99,-0.00,20531.97,1131.88,-0.04,8820.62,1206.68,-0.10,6170.34,1313.93,-0.14,12439.30
1119400,977.12,886.67,1.00,1,1,1,680.87,-0.06,12375.27,1141.87,-0.09,10943.69,1155.04,-0.07,1272.98,1245.90,-0.16,2681.23,1053.22,-0.04,8851.18
1135500,1010.01,882.84,1.00,1,1,1,2056.77,-0.12,85576.55,1503.97,-0.11,22526.59,1146.33,-0.13,4445.91,1254.97,-0.20,3432.91,676.28,0.15,25526.49
1167600,1049.20,878.91,1.00,1,1,1,1226.78,-0.10,25868.22,1150.88,-0.16,11226.10,1466.24,-0.24,10836.35,1196.16,-0.20,1839.42,434.05,0.61,10738.97
1199600,1082.82,870.94,1.00,1,1,1,1079.78,-0.23,6615.79,1454.40,-0.37,12751.18,1378.37,-0.31,4313.90,1010.21,-0.12,6395.30,387.42,1.48,10936.23
1215400,1113.93,853.56,1.00,1,1,1,2255.64,-0.51,79258.65,1895.22,-0.50,30768.43,1269.13,-0.34,7223.66,734.92,0.10,21192.85,606.48,2.14,24314.38
1231400,1135.80,842.22,1.00,1,1,1,1539.75,-0.48,44890.79,995.97,-0.26,59783.02,771.21,-0.09,34690.83,327.68,1.28,42465.25,890.28,2.40,21226.11
1247300,1144.64,845.42,1.00,1,1,1,591.47,0.35,76672.50,774.26,1.74,93824.60,767.30,1.98,83273.81,849.05,2.33,46819.81,1133.99,2.53,17570.98
1263300,1131.75,866.58,1.00,1,1,1,1548.61,2.12,110237.34,2276.77,2.33,105740.97,1808.03,2.42,72427.08,1713.83,2.52,55838.62,1252.48,2.61,9543.55
1279500,1094.18,898.60,1.00,1,1,1,3047.23,2.44,101777.86,2624.31,2.54,38655.86,2873.84,2.53,67672.35,2620.66,2.59,56759.09,1451.40,2.68,13314.81
1311700,1026.78,938.09,1.00,2,2,2,2426.03,2.61,24324.55,3320.01,2.63,22881.50,3618.05,2.60,24203.23,3384.37,2.63,24050.16,1572.82,2.73,4602.24
1327500,955.55,977.20,1.00,2,2,2,5142.89,2.64,172066.45,5148.61,2.65,115942.10,4231.67,2.67,42356.62,3873.87,2.68,33004.98,1669.71,2.79,8583.41
1343400,882.71,1014.80,1.00,4,4,4,5155.13,2.67,8307.05,5613.97,2.72,36138.28,5441.03,2.72,77462.32,3668.16,2.73,17745.92,1809.54,2.84,10114.85
1359400,792.51,1051.30,1.00,4,4,4,6081.73,2.76,66269.93,5752.81,2.78,25613.41,5176.68,2.79,26842.32,3546.05,2.79,14299.96,1810.24,2.86,2677.27
1375500,709.80,1079.63,1.00,4,4,4,5430.16,2.81,44891.80,4782.67,2.87,65968.87,3777.06,2.86,89163.44,3477.01,2.85,13681.81,1645.83,2.87,10309.86
1392400,640.67,1094.35,1.00,4,4,4,4182.55,2.93,81233.93,2488.43,2.97,137512.34,2929.97,2.95,53548.00,2603.71,2.94,54009.33,1521.10,2.89,7570.57
1423700,591.57,1099.78,1.00,4,4,4,1578.31,3.03,83602.05,1671.05,3.13,28061.38,2019.52,3.12,31833.43,2030.98,3.08,21011.40,1384.78,2.92,4497.96
1439500,561.97,1095.22,1.00,2,2,2,1895.61,-2.99,35067.02,1458.52,-2.77,39523.63,1035.49,-2.81,69957.50,1325.64,-2.93,53143.16,1147.65,2.96,15386.61
1455500,548.28,1083.13,1.00,2,2,2,1141.33,-2.42,69991.08,743.59,-1.99,66700.79,901.49,-2.05,45766.71,725.39,-2.27,54492.33,834.52,3.05,20315.92
1487700,547.25,1062.53,1.00,2,2,2,640.33,-1.62,25829.30,1006.06,-1.36,18661.69,1147.25,-1.32,23904.04,752.38,-1.33,20834.22,437.78,-2.95,13398.51
1503400,558.45,1036.02,1.00,2,2,2,1833.05,-1.17,81955.29,2128.70,-0.98,79712.70,1333.59,-0.91,34081.88,1078.06,-0.89,32455.15,246.81,-1.56,29560.19
1519500,585.08,1006.39,1.00,1,1,1,2474.25,-0.84,59187.18,1809.61,-0.67,42733.79,1967.36,-0.66,46701.96,1341.84,-0.65,24418.69,652.57,-0.73,32243.10
1551800,627.32,981.90,1.00,1,1,1,1511.56,-0.53,35171.80,1982.14,-0.43,14628.30,1971.96,-0.46,11959.78,1603.29,-0.49,10763.77,1127.16,-0.57,15283.34
1567900,672.15,966.11,1.00,1,1,1,2952.34,-0.34,92779.03,2347.54,-0.22,36637.87,1919.18,-0.27,23364.03,2076.32,-0.38,32110.02,1457.65,-0.50,21278.08
1583400,699.74,965.84,1.00,1,1,1,1780.04,-0.01,89796.94,1928.30,-0.01,39385.86,2329.78,-0.13,32201.50,2125.35,-0.30,11139.55,1781.50,-0.46,21338.06
1599500,733.08,965.55,1.00,2,2,2,2071.04,-0.01,18074.67,2328.24,-0.05,25479.57,2409.59,-0.09,8338.64,2345.99,-0.25,15137.11,1820.37,-0.41,5509.03
1615500,774.37,961.93,1.00,2,2,2,2590.62,-0.09,34406.34,2894.99,-0.14,38296.43,2325.95,-0.16,11927.29,2773.74,-0.24,26771.46,1573.69,-0.33,17581.81
1631500,824.79,952.43,1.00,3,3,3,3206.38,-0.19,42407.97,2339.91,-0.23,37809.45,2772.72,-0.24,30608.11,2578.43,-0.26,12416.13,2076.32,-0.38,31848.99
1663600,883.84,935.78,1.00,1,1,1,1911.44,-0.27,40914.59,2707.44,-0.31,12927.90,3145.11,-0.31,13131.92,2622.84,-0.28,2403.44,2125.35,-0.30,5378.91
1679600,948.76,912.57,1.00,1,1,1,4309.16,-0.34,150360.49,4380.19,-0.37,105235.55,2725.97,-0.36,27604.38,2357.35,-0.28,16607.82,2345.99,-0.25,15231.72
1695400,1013.86,885.81,1.00,1,1,1,4454.51,-0.39,15881.10,2749.92,-0.40,103423.66,2950.29,-0.38,14672.77,1585.71,-0.17,50608.25,2773.74,-0.24,27110.34
1727400,1069.88,861.48,1.00,1,1,1,1908.48,-0.41,79583.68,2007.20,-0.39,23222.30,1945.86,-0.33,31588.21,2725.97,-0.36,37637.86,2578.43,-0.26,6208.06
1743600,1103.38,849.11,1.00,1,1,1,2204.38,-0.35,19596.62,814.92,0.03,80665.06,439.93,1.27,123841.06,2950.29,-0.38,14310.48,2622.84,-0.28,4762.38
1759600,1096.10,862.33,1.00,2,2,2,942.83,2.07,186347.38,3326.24,2.41,247332.17,814.92,0.03,49296.91,1945.86,-0.33,63176.43,2357.35,-0.28,16607.82
1775400,1024.34,919.40,1.00,2,2,2,5803.48,2.47,313093.79,5803.48,2.47,157531.47,3326.24,2.41,250462.96,439.93,1.27,126976.28,1585.71,-0.17,50608.25
