@RELATION gaze_labels

%@METADATA width_px 1920
%@METADATA height_px 1080
%@METADATA width_mm 540.00
%@METADATA height_mm 254.00
%@METADATA distance_mm 620.00


@ATTRIBUTE time INTEGER
@ATTRIBUTE x NUMERIC
@ATTRIBUTE y NUMERIC
@ATTRIBUTE confidence NUMERIC
@ATTRIBUTE handlabeller1 INTEGER
@ATTRIBUTE handlabeller2 INTEGER
@ATTRIBUTE handlabeller_final INTEGER
@ATTRIBUTE speed_1 numeric
@ATTRIBUTE direction_1 numeric
@ATTRIBUTE acceleration_1 numeric
@ATTRIBUTE speed_2 numeric
@ATTRIBUTE direction_2 numeric
@ATTRIBUTE acceleration_2 numeric
@ATTRIBUTE speed_4 numeric
@ATTRIBUTE direction_4 numeric
@ATTRIBUTE acceleration_4 numeric
@ATTRIBUTE speed_8 numeric
@ATTRIBUTE direction_8 numeric
@ATTRIBUTE acceleration_8 numeric
@ATTRIBUTE speed_16 numeric
@ATTRIBUTE direction_16 numeric
@ATTRIBUTE acceleration_16 numeric

%The number after speed, direction denotes the step size that was used for the calculation.
%Acceleration was calculated between two adjacent samples of the already low pass filtered velocity

@DATA
0,139.11,702.38,1.00,4,4,4,0.00,0.00,0.00,10801.02,1.73,0.00,14360.74,1.21,0.00,17043.76,0.93,0.00,686.42,1.56,0.00
14800,113.11,860.10,1.00,4,4,4,10801.02,1.73,729798.80,14360.74,1.21,501502.41,23663.03,0.92,722439.72,13105.02,0.69,363639.05,832.53,-2.13,98804.11
36800,328.09,1195.91,1.00,4,4,4,18123.96,1.00,564335.28,23663.03,0.92,486004.90,17043.76,0.93,301196.30,4511.99,-0.90,632286.85,4250.05,-2.16,155355.93
50600,627.56,1533.14,1.00,4,4,4,32681.61,0.84,1090426.24,21876.64,0.70,383399.90,13105.02,0.69,389989.71,12839.30,-2.01,838599.20,7496.22,-2.22,236468.68
64700,795.38,1588.57,1.00,4,4,4,12534.40,0.32,1611844.75,6911.43,-0.82,1601622.26,4511.99,-0.90,986546.87,686.42,1.56,955183.12,8585.20,-2.30,89798.46
78700,760.37,1391.44,1.00,4,4,4,14301.18,-1.75,1647303.46,19205.51,-2.01,1274417.39,12839.30,-2.01,826619.21,832.53,-2.13,104450.06,7206.95,-2.40,114046.50
100100,506.69,973.03,1.00,0,0,0,22864.61,-2.12,506341.72,21523.06,-2.24,247738.47,16182.34,-2.26,229658.93,4250.05,-2.16,159711.71,3363.46,-2.70,192381.01
114400,281.05,790.90,1.00,0,0,0,20278.22,-2.46,549983.29,14412.09,-2.68,728021.00,14651.80,-2.42,203074.63,7496.22,-2.22,228200.55,1525.12,-3.02,138201.18
128500,140.30,790.58,1.00,0,0,0,9981.83,-3.14,991010.17,7953.10,-3.05,536376.36,8801.48,-2.73,482859.64,8585.20,-2.30,89798.46,232.22,1.89,106173.93
142800,56.14,770.05,1.00,1,1,1,6057.90,-2.90,303027.46,3423.70,-2.92,320241.21,3650.07,-3.03,379869.75,7206.95,-2.40,111653.91,607.96,-0.64,56526.33
157700,42.78,768.57,1.00,1,1,1,902.10,-3.03,346619.29,304.32,-2.67,210057.25,1276.18,-2.84,161775.62,3363.46,-2.70,276305.61,1529.96,-1.44,79972.62
179100,46.31,765.01,1.00,1,1,1,234.13,-0.79,49700.81,538.00,-0.14,37666.86,318.80,-0.15,73324.45,1525.12,-3.02,92349.38,2754.12,-1.76,64627.23
193100,61.64,765.90,1.00,1,1,1,1096.88,0.06,68443.42,1074.91,0.07,39958.41,330.61,-0.01,3392.78,244.36,-2.20,97862.43,2995.37,-1.89,33358.29
207200,76.45,767.02,1.00,1,1,1,1053.19,0.08,3357.31,194.26,0.26,62766.87,225.12,0.02,7492.42,1323.81,-0.04,104543.22,2354.71,-1.97,47596.96
243200,71.05,768.39,1.00,2,2,2,154.78,2.89,33358.32,248.84,-3.00,12286.36,738.61,-0.06,14289.50,2092.97,-0.01,21413.88,747.80,-1.64,46214.36
257700,64.00,765.28,1.00,2,2,2,531.23,-2.73,28998.74,1716.16,-0.12,135005.00,2144.72,-0.03,97011.19,2803.95,-0.00,49044.49,745.72,-0.14,70266.07
271700,119.59,762.37,1.00,2,2,2,3975.80,-0.05,318309.72,6380.15,-0.02,334073.93,4029.76,-0.01,134698.24,2801.62,-0.01,904.27,1243.06,-0.07,35839.57
286200,245.81,762.04,1.00,3,3,3,8704.87,-0.00,326762.92,5374.58,0.01,70194.12,5422.81,-0.01,96090.74,2559.43,-0.02,16802.96,1632.40,-0.01,27493.95
321000,384.54,764.77,1.00,1,1,1,3987.43,0.02,135611.41,4865.33,0.00,14655.08,4728.47,-0.00,19960.45,2973.85,-0.02,11909.02,1934.72,-0.00,8701.80
335100,483.72,762.91,1.00,1,1,1,7035.11,-0.02,216630.79,3817.09,-0.02,74794.84,2949.64,-0.01,126188.88,3024.66,-0.01,3926.15,2241.57,0.01,21832.87
355900,517.72,761.69,1.00,1,1,1,1635.82,-0.04,259596.38,301.43,-0.38,169993.06,1680.52,-0.04,61068.87,2580.14,0.00,21465.58,2433.29,0.01,9235.25
370200,493.56,759.02,1.00,1,1,1,1700.16,-3.03,232664.37,928.26,-3.11,84690.89,119.64,-0.28,109414.21,1933.74,0.01,45204.08,2500.11,0.01,4759.40
384500,491.19,760.92,1.00,1,1,1,212.73,2.46,108896.94,107.24,2.52,59131.95,262.37,3.00,26662.98,1730.80,0.01,14195.88,2738.71,0.00,16698.99
398900,491.06,760.82,1.00,2,2,2,11.43,-2.44,14641.36,298.95,0.31,25900.75,590.77,0.13,58771.32,1550.15,0.04,12984.19,2769.83,0.01,2384.94
419600,501.19,764.10,1.00,2,2,2,514.28,0.31,25356.55,1147.29,0.08,41500.09,1784.78,0.05,57809.14,1963.83,0.06,20037.39,2493.21,0.02,13404.96
433500,530.64,763.84,1.00,3,3,3,2119.13,-0.01,117949.34,3660.79,0.03,180978.85,3007.39,0.05,87957.75,2426.88,0.05,33348.48,1941.86,0.02,39675.33
447600,603.65,766.78,1.00,3,3,3,5182.36,0.04,217555.07,5282.14,0.04,115131.01,4199.11,0.04,84542.80,2478.88,0.04,4145.89,1592.37,0.03,24794.32
461800,679.98,770.48,1.00,1,1,1,5381.30,0.05,14344.57,4626.81,0.05,46270.58,4256.65,0.03,4824.19,2488.18,0.04,825.16,1326.36,0.03,18735.21
482900,766.74,775.60,1.00,1,1,1,4119.15,0.06,59862.86,3434.99,0.02,56803.59,3165.77,0.03,51723.26,2393.34,0.04,4500.83,1342.29,0.03,769.01
497100,801.20,773.18,1.00,1,1,1,2432.88,-0.07,122185.02,1368.12,-0.09,146618.47,1979.32,0.02,83562.54,1951.89,0.04,31112.30,1671.76,0.04,23210.93
511400,805.56,771.97,1.00,1,1,1,316.44,-0.27,148513.64,195.82,-0.06,81986.02,624.76,-0.01,94755.15,1456.51,0.05,34656.19,1777.59,0.03,7421.37
525900,806.83,772.82,1.00,1,1,1,105.35,0.59,17964.72,96.49,1.11,12567.59,305.57,3.06,64124.21,1105.10,0.02,24382.15,1706.44,0.03,4908.61
547500,807.10,775.09,1.00,1,1,1,106.07,1.45,4093.50,704.44,3.06,34505.59,247.60,2.85,3759.56,790.73,-0.03,14722.79,1609.34,0.03,4495.89
562100,781.41,774.85,1.00,1,1,1,1759.37,-3.13,121630.96,594.86,3.05,7511.61,229.62,0.05,32208.62,999.24,0.01,14503.19,1468.82,0.04,9628.78
575900,790.27,776.56,1.00,1,1,1,653.45,0.19,174279.08,1443.05,-0.03,147628.97,928.31,-0.04,50718.45,1152.69,0.02,11146.45,1168.88,0.03,21740.81
589900,821.51,773.56,1.00,2,2,2,2241.69,-0.10,116080.50,1800.12,-0.05,25571.25,2093.96,0.00,83352.64,1042.48,0.02,7874.88,927.64,0.02,17236.93
625500,879.45,772.26,1.00,3,3,3,1628.00,-0.02,17678.32,2459.35,0.01,18840.88,2302.98,-0.01,5881.62,968.64,0.03,2083.38,679.08,0.01,6989.87
639500,943.48,774.87,1.00,1,1,1,4577.68,0.04,211050.50,3189.97,0.04,52440.74,1651.03,0.02,46662.97,1070.49,0.02,7280.04,606.21,0.02,5247.26
653800,969.67,775.56,1.00,1,1,1,1831.51,0.03,192062.59,534.57,0.05,185695.33,1012.46,0.09,45096.34,943.97,0.00,8958.99,612.55,0.06,1443.76
675400,962.65,775.80,1.00,1,1,1,324.87,3.11,99808.79,230.43,2.83,34948.61,76.98,0.66,43923.70,789.11,0.03,7235.01,639.70,0.06,1259.92
704000,958.64,779.05,1.00,1,1,1,180.57,2.46,7369.94,344.10,2.95,4135.81,291.75,3.09,12361.88,568.77,0.06,7751.69,648.02,0.04,593.08
718000,948.26,778.58,1.00,1,1,1,742.11,-3.10,44197.77,397.24,-2.99,9776.21,149.63,3.04,10177.72,214.69,0.08,25294.59,759.34,0.03,7960.38
739500,944.70,776.91,1.00,1,1,1,182.83,-2.70,26857.34,86.57,-0.53,21758.37,37.17,-0.78,8382.05,107.46,0.41,5507.23,688.39,0.02,3330.58
754000,950.95,777.01,1.00,1,1,1,431.43,0.02,41580.20,548.96,0.03,32941.01,401.54,-0.05,25829.89,221.76,0.26,8050.21,543.81,0.03,9989.01
768000,960.34,777.38,1.00,1,1,1,670.76,0.04,17118.27,816.02,0.01,19095.62,622.31,0.13,16988.35,255.42,0.08,3819.99,318.23,0.08,16180.56
782300,974.05,777.29,1.00,1,1,1,958.66,-0.01,20300.28,683.90,0.19,13065.83,671.31,0.16,3736.81,382.54,0.05,8918.28,39.48,0.34,19596.03
803900,984.45,782.00,1.00,1,1,1,528.78,0.43,24403.42,570.97,0.33,6624.88,488.43,0.14,8483.05,363.43,0.06,895.59,223.68,-3.12,12106.00
817700,993.17,783.84,1.00,1,1,1,645.54,0.21,12480.89,240.88,-0.04,25864.26,367.75,0.16,8762.86,229.84,0.04,9685.70,384.89,-3.07,11735.68
831700,991.14,781.75,1.00,1,1,1,208.13,-2.34,59016.03,175.79,-0.58,9145.91,113.39,-0.33,19507.99,42.76,0.32,13503.69,553.61,-3.06,12054.42
846700,997.43,781.05,1.00,1,1,1,421.74,-0.11,38205.72,58.58,-1.49,9805.37,216.10,-2.73,20612.92,159.08,3.09,13301.03,594.76,-3.08,2816.28
868000,991.32,779.63,1.00,1,1,1,294.44,-2.91,33156.37,486.25,-2.98,22779.86,393.59,-3.04,9336.61,623.80,-3.04,21938.93,594.10,-3.09,366.02
882200,980.39,778.27,1.00,1,1,1,775.49,-3.02,34056.80,887.89,-3.12,29032.62,682.83,-3.08,20428.97,1048.82,-3.03,29942.42,629.95,-3.09,2530.54
897000,965.58,779.11,1.00,2,2,2,1002.73,3.08,18751.55,930.24,3.14,3263.08,1432.07,-3.08,50624.56,1349.54,-3.06,20499.98,699.72,-3.10,4716.71
911000,953.60,778.41,1.00,2,2,2,856.76,-3.08,12915.44,1983.19,-3.06,75709.22,1886.80,-3.06,32551.12,1468.81,-3.08,8759.44,711.79,-3.08,1324.00
925700,908.86,774.33,1.00,3,3,3,3056.32,-3.05,149673.17,2653.58,-3.03,45743.00,2317.45,-3.06,29301.90,1450.34,-3.09,1497.18,716.67,-3.05,1178.81
947100,858.36,768.19,1.00,1,1,1,2377.43,-3.02,31947.69,2585.46,-3.07,5092.03,2103.71,-3.08,10127.98,1392.75,-3.09,2723.33,771.82,-3.05,2582.70
961500,816.56,767.45,1.00,1,1,1,2903.09,-3.12,41065.63,1652.59,-3.14,65615.82,1462.69,-3.10,44556.19,1363.93,-3.09,2055.68,716.49,-3.04,3851.11
990600,786.47,768.07,1.00,1,1,1,1034.22,3.12,64262.53,664.79,3.11,33967.59,992.39,3.13,16315.42,1160.75,-3.06,7068.32,808.51,-3.05,3164.34
1011700,783.20,768.54,1.00,1,1,1,156.33,3.00,41671.55,197.88,3.04,22163.59,592.04,3.11,18992.95,785.20,-3.06,17798.85,894.89,-3.08,4275.46
1026700,779.36,768.82,1.00,1,1,1,256.61,3.07,6750.07,466.99,3.11,18006.94,215.81,-2.91,25842.52,545.85,-3.09,15990.91,1030.22,-3.10,9116.11
1040900,769.57,768.94,1.00,1,1,1,689.58,3.13,30544.87,246.20,-2.69,19291.81,73.18,-2.25,11565.22,196.99,-2.96,24747.95,1159.54,-3.11,9129.26
1069800,769.83,764.17,1.00,1,1,1,165.23,-1.52,24895.95,222.40,-0.46,14568.81,114.91,-2.50,1642.30,155.39,-2.75,1908.73,1213.37,-3.12,1886.67
1090900,779.55,764.04,1.00,1,1,1,461.08,-0.01,22715.25,68.45,-0.32,7340.42,228.26,-0.41,14306.81,340.51,-3.04,9331.63,1009.59,-3.11,9663.55
1105300,772.13,763.41,1.00,1,1,1,517.15,-3.06,67850.92,239.48,-0.34,11879.28,94.88,-2.28,18874.74,663.43,-3.11,22541.47,859.93,-3.11,10393.53
1119400,785.98,761.74,1.00,2,2,2,989.16,-0.12,106327.34,254.63,-2.59,31604.48,697.23,-3.13,45290.56,954.59,-3.13,20690.92,640.51,-3.11,15562.82
1134400,765.82,759.53,1.00,3,3,3,1352.18,-3.03,155092.02,1424.64,3.10,81397.07,1362.97,3.11,44449.05,1282.32,3.11,22029.97,644.90,-3.10,529.71
1155600,734.45,763.67,1.00,3,3,3,1492.70,3.01,17370.83,2319.22,3.06,42347.47,2370.50,3.10,47535.51,1297.79,3.14,1837.40,845.58,-3.09,9475.93
1169500,684.67,765.96,1.00,1,1,1,3584.84,3.10,151178.88,3576.16,3.10,90742.65,2517.45,3.08,11139.08,1245.38,-3.12,4322.57,1095.54,-3.08,17989.41
1184000,632.97,767.99,1.00,1,1,1,3567.88,3.10,2011.16,2759.15,3.10,56346.05,1897.49,3.13,43494.46,1186.49,3.14,4482.42,1399.68,-3.07,20988.24
1198400,605.00,769.32,1.00,1,1,1,1944.84,3.09,112721.59,597.34,-2.99,151148.56,1132.38,-3.06,53840.15,1204.95,3.13,1446.15,1648.95,-3.08,17329.99
1220400,611.49,764.63,1.00,1,1,1,364.02,-0.63,102658.58,310.73,-0.95,35817.05,89.67,-1.60,51198.53,1413.07,-3.10,9903.01,1783.99,-3.09,6143.26
1234300,611.51,760.26,1.00,1,1,1,314.24,-1.57,22342.13,763.42,-0.11,43206.49,155.83,-0.93,7329.39,1529.24,-3.07,9028.83,1791.38,-3.09,665.37
1248500,632.81,762.21,1.00,1,1,1,1505.88,0.09,110188.77,39.03,2.05,55353.22,924.35,-3.01,71043.66,1848.02,-3.04,22687.10,1799.73,-3.10,1088.12
1262900,610.99,761.25,1.00,2,2,2,1516.31,-3.10,209816.21,2254.17,-3.07,155467.20,1860.68,-3.07,65319.01,1939.33,-3.04,6418.30,1611.42,-3.10,13077.96
1283800,553.42,756.74,1.00,2,2,2,2763.00,-3.06,59745.73,2937.57,-3.07,32704.83,3359.83,-3.07,71738.43,2185.57,-3.06,11955.15,1570.80,-3.08,2271.75
1311900,467.45,750.60,1.00,3,3,3,3067.44,-3.07,10858.69,4265.47,-3.06,47261.62,3224.41,-3.06,4830.91,2237.14,-3.07,2270.83,1408.28,-3.06,5901.06
1326900,370.17,742.08,1.00,1,1,1,6510.17,-3.05,229565.58,3492.70,-3.06,51526.29,3032.65,-3.07,12815.44,2302.45,-3.08,4362.90,1187.66,-3.04,14767.57
1364300,285.07,735.34,1.00,1,1,1,2282.53,-3.06,113041.54,1999.02,-3.08,39956.11,2599.14,-3.07,11599.53,1903.70,-3.07,10663.72,1043.48,-3.04,3857.76
1378300,267.64,735.25,1.00,1,1,1,1244.47,-3.14,74683.03,949.87,3.11,75525.62,1261.62,-3.10,95611.71,1688.02,-3.07,15413.51,1105.71,-3.06,4755.33
1392600,258.20,736.11,1.00,1,1,1,663.41,3.05,41087.95,126.38,0.91,71974.26,201.68,3.02,74346.72,1300.88,-3.05,27158.85,1195.98,-3.07,6359.72
1406500,269.82,738.07,1.00,1,1,1,848.09,0.17,107851.57,223.55,0.11,11803.36,71.52,-3.13,9435.94,597.51,-3.05,50601.96,2302.45,-3.08,79603.71
1442800,269.36,737.29,1.00,1,1,1,25.00,-2.11,23815.42,164.98,-2.79,10622.24,69.78,-1.22,3179.87,11.91,2.56,16205.77,1903.70,-3.07,10986.86
1456900,262.02,735.19,1.00,1,1,1,541.13,-2.86,37105.01,384.77,-2.54,16209.81,91.86,-0.78,2926.55,78.37,0.23,6173.01,1688.02,-3.07,15304.19
1472000,260.11,730.91,1.00,1,1,1,310.17,-1.99,27514.16,443.01,-0.17,50740.39,219.55,-0.07,10679.62,52.63,-2.95,8674.54,1300.88,-3.05,25719.97
1486800,275.07,732.89,1.00,1,1,1,1019.50,0.13,81848.22,670.25,0.22,21172.33,256.92,0.16,4422.82,91.86,-0.78,8718.58,597.51,-3.05,47524.81
1508000,283.63,736.27,1.00,1,1,1,434.53,0.38,28641.60,170.61,0.94,26086.95,155.72,2.76,18811.63,219.55,-0.07,7606.71,11.91,2.56,27748.55
1522400,278.65,737.79,1.00,2,2,2,362.04,2.85,52248.01,1147.05,-3.09,87588.35,170.61,0.94,17907.45,256.92,0.16,4545.68,78.37,0.23,6044.40
1536700,250.75,734.65,1.00,2,2,2,1962.91,-3.03,114467.60,1962.91,-3.03,57433.22,1147.05,-3.09,88200.86,155.72,2.76,27888.57,52.63,-2.95,9159.82
