@RELATION gaze_labels

%@METADATA width_px 1920
%@METADATA height_px 1080
%@METADATA width_mm 540.00
%@METADATA height_mm 254.00
%@METADATA distance_mm 620.00


@ATTRIBUTE time INTEGER
@ATTRIBUTE x NUMERIC
@ATTRIBUTE y NUMERIC
@ATTRIBUTE confidence NUMERIC
@ATTRIBUTE handlabeller1 INTEGER
@ATTRIBUTE handlabeller2 INTEGER
@ATTRIBUTE handlabeller_final INTEGER
@ATTRIBUTE speed_1 numeric
@ATTRIBUTE direction_1 numeric
@ATTRIBUTE acceleration_1 numeric
@ATTRIBUTE speed_2 numeric
@ATTRIBUTE direction_2 numeric
@ATTRIBUTE acceleration_2 numeric
@ATTRIBUTE speed_4 numeric
@ATTRIBUTE direction_4 numeric
@ATTRIBUTE acceleration_4 numeric
@ATTRIBUTE speed_8 numeric
@ATTRIBUTE direction_8 numeric
@ATTRIBUTE acceleration_8 numeric
@ATTRIBUTE speed_16 numeric
@ATTRIBUTE direction_16 numeric
@ATTRIBUTE acceleration_16 numeric

%The number after speed, direction denotes the step size that was used for the calculation.
%Acceleration was calculated between two adjacent samples of the already low pass filtered velocity

@DATA
0,114.10,783.86,1.00,4,4,4,0.00,0.00,0.00,6682.06,-2.42,0.00,1263.70,0.67,0.00,5105.16,0.68,0.00,210.80,-2.65,0.00
14000,43.85,722.08,1.00,4,4,4,6682.06,-2.42,477289.70,1263.70,0.67,567446.51,11908.86,0.70,760426.38,5292.28,0.64,21752.15,301.13,1.48,32343.12
28800,142.67,806.41,1.00,4,4,4,8777.45,0.71,1044532.66,11908.86,0.70,719322.25,5105.16,0.68,459834.24,2404.27,0.45,199954.89,953.87,-2.79,75470.74
43100,308.49,945.83,1.00,4,4,4,15149.92,0.70,445666.17,8186.99,0.68,260588.95,5292.28,0.64,21295.81,3254.25,-2.36,390480.95,2462.35,-2.57,108041.14
64700,370.61,991.95,1.00,4,4,4,3582.09,0.64,535944.11,1513.77,0.32,314362.89,2404.27,0.45,137006.13,210.80,-2.65,141340.17,2942.96,-2.54,22534.65
92900,379.93,969.88,1.00,4,4,4,849.63,-1.17,137312.72,2773.87,-2.09,142925.49,3254.25,-2.36,198009.84,301.13,1.48,16056.87,3248.99,-2.60,12458.51
107300,312.28,889.19,1.00,4,4,4,7312.71,-2.27,483785.80,11288.44,-2.46,608714.92,4580.32,-2.48,97305.74,953.87,-2.79,77567.15,2094.92,-2.67,81294.66
121700,127.19,765.39,1.00,4,4,4,15463.36,-2.55,603277.03,7073.34,-2.65,315828.38,6039.91,-2.59,109463.17,2462.35,-2.57,107290.86,87.48,-1.73,141982.24
143300,87.47,769.60,1.00,1,1,1,1849.49,3.04,652449.84,2217.52,-3.14,241460.99,5047.33,-2.73,58357.63,2942.96,-2.54,22534.65,469.52,-0.23,21825.90
157500,47.81,765.11,1.00,1,1,1,2810.83,-3.03,76210.19,2591.50,-3.00,35046.63,1791.83,-3.05,239253.18,3248.99,-2.60,24741.55,1066.85,0.10,45162.06
171600,14.85,759.33,1.00,1,1,1,2373.02,-2.97,33001.52,1291.35,-2.87,93656.93,1011.64,-2.92,56859.82,2094.92,-2.67,83024.34,1021.05,-0.17,20077.03
186200,12.06,755.33,1.00,1,1,1,333.92,-2.18,147286.37,293.08,-0.40,104910.82,439.57,-2.72,40248.49,87.48,-1.73,140037.28,825.88,-0.88,45756.57
207200,24.44,755.22,1.00,1,1,1,589.75,-0.01,39326.07,289.88,-0.18,3073.39,394.90,-0.17,37980.97,1109.77,-0.11,53241.39,852.32,-1.23,13743.04
221600,22.15,753.47,1.00,1,1,1,200.61,-2.49,52641.75,489.19,-0.06,14228.59,1317.61,-0.03,64490.50,2008.96,-0.04,62853.90,801.18,-1.24,3596.90
250100,45.39,754.04,1.00,2,2,2,815.90,0.02,34568.47,2042.21,-0.01,54516.32,2804.81,-0.01,52192.31,2658.02,-0.01,22850.39,702.09,-0.71,14085.25
272000,125.07,752.41,1.00,2,2,2,3638.93,-0.02,128954.25,5595.94,-0.01,162271.92,3670.76,-0.00,39572.03,2793.10,-0.01,6178.50,1171.58,-0.02,35404.17
285700,244.61,752.85,1.00,3,3,3,8725.30,0.00,371398.50,5606.75,0.00,4254.48,4730.99,-0.00,77391.23,2757.11,-0.01,2711.74,1379.59,-0.03,15204.55
314400,362.79,753.43,1.00,1,1,1,4118.11,0.00,160529.27,4118.87,0.00,51844.51,4414.26,-0.01,11056.14,2750.95,-0.00,758.36,1706.19,-0.01,11414.85
336000,451.79,753.19,1.00,1,1,1,4119.94,-0.00,1456.33,2999.18,-0.03,52089.83,2709.38,-0.00,78930.03,2916.67,0.01,7772.47,2130.89,0.01,19716.19
350100,469.82,750.23,1.00,1,1,1,1295.94,-0.16,201980.88,192.29,-0.25,199423.55,1431.67,-0.00,90620.04,2417.16,0.02,35497.14,2356.53,0.02,16049.30
364100,457.02,751.85,1.00,1,1,1,921.37,3.02,158352.65,507.98,2.93,50013.16,239.12,0.35,86417.60,1651.82,0.03,54676.59,2635.59,0.02,19971.87
379100,455.42,753.37,1.00,1,1,1,147.05,2.38,53856.67,331.21,0.66,50884.06,147.24,1.46,14528.65,1342.15,0.04,20697.23,2743.55,0.03,7319.36
393900,464.79,757.93,1.00,1,1,1,704.06,0.45,51878.53,464.65,0.39,11545.21,409.67,0.29,25460.12,1423.06,0.06,5785.56,2749.97,0.03,887.17
415100,470.89,759.75,1.00,2,2,2,299.99,0.29,19385.74,502.93,0.09,6977.18,1255.74,0.09,40473.11,1807.34,0.07,18129.95,2483.24,0.05,12666.25
430000,482.87,759.64,1.00,2,2,2,804.04,-0.01,35217.76,2276.52,0.02,119157.38,2503.68,0.04,84002.26,2492.33,0.06,45977.15,2025.33,0.06,30776.18
443900,536.44,760.96,1.00,2,2,2,3855.32,0.02,219557.77,5093.59,0.03,202694.65,3607.81,0.03,79472.47,2737.96,0.07,17686.95,1534.83,0.06,35287.49
457900,624.91,764.22,1.00,3,3,3,6323.18,0.04,176327.79,4684.93,0.03,29191.14,4652.21,0.04,74730.53,2565.03,0.07,12354.02,1282.19,0.07,18075.29
479500,703.14,766.21,1.00,1,1,1,3623.22,0.03,125023.67,4310.57,0.05,17887.94,4241.61,0.06,19319.68,2558.98,0.07,801.96,1107.50,0.08,8112.31
493900,779.87,772.40,1.00,1,1,1,5345.69,0.08,120794.58,3690.05,0.10,45442.43,2628.17,0.09,112295.63,2449.73,0.08,7665.25,1188.09,0.07,5691.47
507800,807.00,777.14,1.00,1,1,1,1981.08,0.17,243021.21,517.50,0.53,232007.97,1506.27,0.18,81729.08,1710.76,0.07,53188.65,1365.06,0.06,12741.15
521900,792.40,779.69,1.00,1,1,1,1051.18,2.97,212153.81,335.81,2.57,52101.94,290.32,0.70,89500.11,1166.97,0.07,38569.45,1553.54,0.05,13427.04
542900,797.06,783.49,1.00,1,1,1,286.55,0.68,59895.95,136.24,1.23,15813.52,360.90,3.13,29112.26,525.48,0.11,30581.22,1712.42,0.04,7631.19
557400,793.99,784.25,1.00,1,1,1,218.36,2.90,31211.05,447.36,-2.82,37344.25,77.90,-0.46,29819.57,144.50,0.10,26274.76,1761.04,0.04,3354.03
585900,778.81,777.41,1.00,1,1,1,584.27,-2.72,15247.27,175.03,-1.05,17972.93,164.44,-2.57,7543.01,363.68,0.03,7717.12,1479.27,0.04,9889.24
606900,798.33,776.75,1.00,1,1,1,930.03,-0.03,70333.31,121.08,-0.37,5260.77,133.14,-0.80,11008.24,823.41,0.01,21895.66,1205.29,0.05,13059.15
635000,784.35,775.25,1.00,2,2,2,500.35,-3.03,50788.97,105.80,-0.37,543.80,939.24,0.01,30357.90,1104.85,-0.03,10084.66,1009.99,0.07,6988.33
656100,803.18,774.86,1.00,2,2,2,892.47,-0.02,65886.14,1765.22,0.04,79093.48,1519.52,0.03,27515.74,1268.55,-0.03,7758.10,781.62,0.07,10823.33
684200,871.13,778.77,1.00,1,1,1,2422.17,0.06,54592.19,3150.95,0.05,49316.29,2451.09,0.02,33167.73,1279.04,0.01,1481.63,676.91,0.04,3800.91
699000,938.21,781.02,1.00,1,1,1,4535.32,0.03,142881.74,3394.99,-0.00,19585.60,2755.39,0.02,20561.43,1242.41,0.03,3048.93,669.96,0.01,1334.75
720000,992.67,778.50,1.00,1,1,1,2595.88,-0.05,93268.42,2276.24,-0.03,53420.60,1794.61,-0.00,45791.41,1537.99,0.05,14161.01,709.39,-0.01,2011.20
734100,1018.07,778.45,1.00,1,1,1,1801.40,-0.00,56753.18,181.05,3.12,174275.11,845.54,0.02,67329.20,1505.42,0.06,2690.37,970.31,-0.00,18511.36
749000,987.42,778.61,1.00,1,1,1,2057.01,3.14,258953.12,881.19,3.01,47091.50,235.46,0.61,44518.01,1106.62,0.04,26815.91,1414.23,0.03,29888.40
763300,992.57,781.93,1.00,1,1,1,428.89,0.57,169762.52,627.80,0.44,101340.00,153.73,1.61,13940.31,457.67,0.01,45404.76,1715.83,0.03,21091.06
777900,1003.85,786.30,1.00,1,1,1,828.37,0.37,28586.70,729.54,0.25,11067.88,418.00,0.24,28383.31,135.55,0.16,22199.17,2089.53,0.03,25596.31
798900,1017.73,788.41,1.00,1,1,1,668.22,0.15,10861.34,273.24,-0.13,23205.70,66.17,-0.01,16872.84,565.86,0.07,20525.99,2027.90,0.03,2943.90
812800,1013.30,785.03,1.00,2,2,2,400.35,-2.49,74624.58,780.35,-2.84,74427.07,114.13,-0.79,5894.91,1586.33,0.05,73425.53,1758.80,0.02,19374.36
827000,996.79,781.89,1.00,2,2,2,1183.82,-2.95,59514.23,203.51,-2.41,42353.79,1136.14,-0.07,74197.69,2291.60,0.03,49737.75,1573.30,0.02,13066.52
841600,1008.94,781.11,1.00,2,2,2,834.26,-0.06,137163.34,2568.36,0.02,186654.97,2743.67,0.02,110623.24,2706.46,0.01,28542.07,1203.83,0.03,25336.02
863800,1091.29,783.42,1.00,3,3,3,3710.82,0.03,129778.87,5056.61,0.04,112160.38,4475.93,0.03,78044.72,2612.25,0.00,4488.98,712.26,0.04,22146.33
877700,1191.33,788.73,1.00,1,1,1,7207.03,0.05,251699.05,6974.62,0.04,137999.30,5314.29,0.03,60314.38,2348.17,0.01,19057.43,140.12,0.10,41183.84
891900,1287.14,790.73,1.00,1,1,1,6748.91,0.02,35932.03,5646.38,0.02,94038.29,4131.68,0.02,83324.44,2529.78,0.02,12860.53,451.84,-3.13,41657.67
905800,1349.97,791.17,1.00,1,1,1,4520.32,0.01,160423.41,1858.51,-0.03,272680.12,2017.24,-0.00,152195.15,1999.70,0.02,38148.11,849.00,-3.12,28576.73
927000,1352.35,789.03,1.00,1,1,1,151.13,-0.73,208015.37,72.26,-2.27,89841.04,1034.41,-0.02,46382.40,834.65,0.02,54954.95,879.61,-3.12,1444.17
955200,1347.66,788.45,1.00,1,1,1,167.56,-3.02,10284.84,447.70,-0.01,17616.97,146.56,-2.99,41809.69,911.84,-3.11,61931.23,781.69,-3.13,3483.18
976300,1374.42,788.72,1.00,1,1,1,1268.26,0.01,68003.73,242.51,3.10,32707.86,1422.92,-3.12,60558.22,2447.26,-3.12,72773.63,639.13,-3.14,6763.92
1005000,1335.60,788.99,1.00,2,2,2,1352.78,3.13,91322.24,3567.36,-3.13,115864.11,3192.71,-3.12,61665.25,3418.13,-3.12,33834.44,681.14,3.14,1472.53
1019300,1221.04,786.58,1.00,2,2,2,8012.81,-3.12,465780.97,6149.33,-3.12,180567.92,5626.61,-3.13,170203.23,3409.45,-3.13,1727.09,850.62,3.14,11851.82
1054700,1030.04,782.90,1.00,1,1,1,5396.57,-3.12,73905.71,7419.08,-3.12,35872.33,7591.29,-3.13,55500.31,3507.63,-3.13,2773.54,1233.95,-3.13,10834.83
1068700,854.59,780.26,1.00,1,1,1,12533.20,-3.13,509765.38,10141.98,-3.13,194563.70,5579.42,-3.13,143728.39,3666.03,-3.13,11323.04,1813.50,-3.13,41396.36
1082800,745.06,780.39,1.00,1,1,1,7768.35,3.14,338125.06,2991.90,3.12,507223.79,3997.43,-3.14,112210.26,3761.31,-3.13,6757.55,2460.83,-3.13,45911.36
1103800,749.60,782.37,1.00,1,1,1,235.78,0.41,380235.85,812.88,0.05,181104.39,831.43,3.12,150772.70,2600.96,-3.14,55265.55,2733.83,-3.13,13001.08
1118700,774.21,781.86,1.00,1,1,1,1651.76,-0.02,96709.05,1801.66,-0.02,66631.19,865.65,0.03,113872.95,1679.46,3.13,61889.09,3122.25,-3.13,26068.58
1132600,801.47,781.16,1.00,1,1,1,1962.35,-0.03,22355.37,932.81,-0.00,62536.72,1259.31,0.02,28321.14,942.96,3.10,53045.35,3268.34,-3.13,10511.76
1147200,800.79,781.79,1.00,1,1,1,63.79,2.39,137716.03,834.27,0.10,9218.94,633.51,0.08,43011.03,1142.49,3.13,13847.08,3225.32,-3.13,2968.06
1169000,831.69,784.22,1.00,2,2,2,1421.58,0.08,67226.09,402.03,0.24,20149.94,1053.62,3.09,77223.74,1898.52,-3.13,34707.22,2752.18,-3.13,21704.89
1182900,814.74,785.15,1.00,2,2,2,1220.64,3.09,189667.67,3481.40,3.13,278619.06,3159.70,-3.14,151700.57,2678.53,-3.13,56116.47,2320.03,-3.13,31090.47
1197200,733.51,784.90,1.00,2,2,2,5680.57,-3.14,312065.31,7624.03,-3.12,289824.66,4544.89,-3.13,96932.81,2834.60,-3.13,10948.95,1696.40,-3.13,43612.42
1211300,598.25,781.41,1.00,3,3,3,9595.97,-3.12,277941.04,5150.22,-3.12,175472.83,5410.48,-3.12,61399.21,2691.96,-3.13,10139.39,1247.73,-3.13,31826.99
1246800,478.14,778.77,1.00,1,1,1,3384.45,-3.12,174973.46,4137.93,-3.12,28520.30,4298.52,-3.12,31323.45,2911.89,-3.13,6202.63,1263.03,-3.13,430.92
1260700,393.88,777.35,1.00,1,1,1,6062.32,-3.12,192659.52,2847.13,-3.13,92916.47,2311.70,-3.12,142936.97,2898.90,-3.12,1924.97,1330.46,-3.13,4871.66
1275900,395.29,778.18,1.00,1,1,1,107.34,0.53,404991.59,756.89,0.01,237106.14,926.78,-3.13,91118.60,2380.92,-3.12,34079.86,1312.15,-3.13,1207.17
1290100,416.13,777.62,1.00,1,1,1,1468.55,-0.03,97097.67,674.47,-0.00,5845.66,147.31,-0.17,75499.37,1331.10,-3.11,73932.73,1330.11,-3.12,1855.88
1310800,418.82,778.14,1.00,1,1,1,132.50,0.19,64708.66,375.18,-3.00,50588.07,31.14,-1.06,6286.19,620.35,-3.12,34338.29,2911.89,-3.13,76421.34
1324900,403.21,775.78,1.00,1,1,1,1120.30,-2.99,88844.38,805.90,-3.07,30661.48,412.75,-3.07,30274.03,22.99,0.24,45588.65,2898.90,-3.12,1897.67
1338900,396.24,776.46,1.00,1,1,1,499.95,3.04,46252.05,440.31,-3.11,26183.33,367.07,-3.10,3396.96,29.32,-0.30,1085.59,2380.92,-3.12,37000.99
1374200,381.51,775.14,1.00,1,1,1,419.03,-3.05,3341.74,118.45,3.04,9159.19,85.34,2.78,8226.75,140.07,-2.87,4686.98,1331.10,-3.11,29740.65
1388200,390.43,777.08,1.00,1,1,1,652.33,0.21,76385.83,564.82,0.19,48502.82,36.26,0.09,8504.19,367.07,-3.10,16664.29,620.35,-3.12,50771.61
1402200,397.04,778.12,1.00,1,1,1,477.76,0.16,12673.15,186.50,-0.03,27505.62,167.57,-0.29,9602.25,85.34,2.78,20743.16,22.99,0.24,45914.28
1438700,399.85,776.77,1.00,1,1,1,85.31,-0.45,11244.90,143.59,-1.97,7494.60,186.50,-0.03,1332.00,36.26,0.09,3261.88,29.32,-0.30,416.39
1453000,394.18,771.41,1.00,1,1,1,545.69,-2.38,40677.74,545.69,-2.38,29227.12,143.59,-1.97,19129.58,167.57,-0.29,9400.80,140.07,-2.87,11569.96
