@RELATION gaze_labels

%@METADATA width_px 1920
%@METADATA height_px 1080
%@METADATA width_mm 540.00
%@METADATA height_mm 254.00
%@METADATA distance_mm 620.00


@ATTRIBUTE time INTEGER
@ATTRIBUTE x NUMERIC
@ATTRIBUTE y NUMERIC
@ATTRIBUTE confidence NUMERIC
@ATTRIBUTE handlabeller1 INTEGER
@ATTRIBUTE handlabeller2 INTEGER
@ATTRIBUTE handlabeller_final INTEGER
@ATTRIBUTE speed_1 numeric
@ATTRIBUTE direction_1 numeric
@ATTRIBUTE acceleration_1 numeric
@ATTRIBUTE speed_2 numeric
@ATTRIBUTE direction_2 numeric
@ATTRIBUTE acceleration_2 numeric
@ATTRIBUTE speed_4 numeric
@ATTRIBUTE direction_4 numeric
@ATTRIBUTE acceleration_4 numeric
@ATTRIBUTE speed_8 numeric
@ATTRIBUTE direction_8 numeric
@ATTRIBUTE acceleration_8 numeric
@ATTRIBUTE speed_16 numeric
@ATTRIBUTE direction_16 numeric
@ATTRIBUTE acceleration_16 numeric

%The number after speed, direction denotes the step size that was used for the calculation.
%Acceleration was calculated between two adjacent samples of the already low pass filtered velocity

@DATA
0,98.76,772.02,1.00,1,1,1,0.00,0.00,0.00,588.23,2.23,0.00,247.40,2.15,0.00,106.03,0.93,0.00,169.91,0.26,0.00
14200,93.64,778.62,1.00,1,1,1,588.23,2.23,41424.94,247.40,2.15,24096.50,60.61,0.63,17727.67,165.14,-0.03,9567.80,550.81,-0.01,27475.23
42700,92.96,780.86,1.00,1,1,1,81.84,1.86,17987.90,60.61,0.63,8832.74,106.03,0.93,1802.23,262.48,-0.13,3495.07,1265.97,-0.01,25093.39
63900,96.07,780.40,1.00,1,1,1,148.14,-0.15,9309.64,233.96,-0.08,9065.91,165.14,-0.03,6408.62,26.50,-1.07,11691.79,1968.70,-0.02,33149.12
92700,104.62,779.91,1.00,1,1,1,297.45,-0.06,5224.47,303.42,-0.17,2553.12,262.48,-0.13,3458.66,169.91,0.26,5759.05,2639.81,-0.02,23305.19
107000,108.95,778.17,1.00,1,1,1,326.58,-0.38,7339.97,303.64,-0.19,302.21,26.50,-1.07,17333.28,550.81,-0.01,27283.10,2650.92,-0.01,1649.75
128100,115.18,777.93,1.00,2,2,2,295.53,-0.04,5239.52,333.29,3.11,30098.74,309.76,-0.05,14073.91,1265.97,-0.01,33893.91,2726.96,-0.01,3617.45
142700,97.06,778.56,1.00,2,2,2,1242.06,3.11,105314.01,325.11,0.12,44972.66,1107.47,-0.01,54658.47,1968.70,-0.02,48134.33,2698.53,-0.01,1961.86
156900,124.49,779.01,1.00,2,2,2,1931.53,0.02,223423.22,2905.79,-0.01,181945.38,2587.04,0.00,104201.26,2639.81,-0.02,47266.86,1210.42,0.01,104846.51
171300,180.16,777.58,1.00,1,1,1,3867.63,-0.03,134682.76,4388.36,-0.01,102967.90,4350.65,-0.01,122510.09,2650.92,-0.01,1638.29,1242.26,-0.02,3233.09
193100,283.34,778.12,1.00,1,1,1,4733.12,0.01,40157.33,5495.34,-0.01,50797.78,4937.75,-0.02,27006.89,2726.96,-0.01,3501.29,1515.43,-0.02,12543.46
207400,378.53,775.25,1.00,1,1,1,6659.48,-0.03,135425.19,5627.25,-0.04,13376.38,4168.45,-0.02,53818.16,2698.53,-0.01,2003.01,1850.32,-0.01,23475.83
222000,445.86,772.16,1.00,1,1,1,4616.55,-0.05,140053.47,2533.89,-0.03,211881.70,2884.29,-0.03,87983.98,2475.24,-0.01,15315.46,2343.73,0.00,33833.52
236700,452.74,773.07,1.00,1,1,1,472.09,0.13,282494.20,171.35,0.33,161521.53,1054.07,-0.02,124506.08,2081.72,-0.02,26799.82,2673.05,0.01,22446.31
251100,450.57,773.78,1.00,1,1,1,158.42,2.82,42954.98,161.27,3.02,22499.13,61.06,1.60,73519.93,1824.14,-0.03,18029.32,2792.10,0.01,8345.53
272400,447.03,773.78,1.00,1,1,1,166.50,3.14,2452.35,150.21,2.69,2419.23,50.71,-3.11,3743.63,1718.96,-0.00,5624.10,2584.35,0.01,9762.85
286700,445.76,776.11,1.00,2,2,2,185.14,2.07,12593.22,92.05,-0.32,16910.05,857.66,-0.06,63508.13,2048.58,0.03,23422.09,2478.32,0.01,7415.18
300700,449.50,772.95,1.00,2,2,2,349.38,-0.70,37590.99,2125.87,-0.09,145457.61,2392.45,0.01,109832.11,2696.77,0.03,46300.42,2178.85,0.02,21417.87
314700,505.03,770.62,1.00,2,2,2,3970.17,-0.04,264298.07,4209.89,0.01,150552.27,4110.07,0.02,122699.65,2856.03,0.04,11467.92,1861.90,0.02,22640.62
336600,600.62,774.93,1.00,1,1,1,4369.23,0.05,24616.75,5652.82,0.05,66305.44,5406.16,0.03,59289.54,2483.15,0.04,17032.24,1565.06,0.03,13563.47
351000,710.01,780.15,1.00,1,1,1,7604.96,0.05,224706.13,6888.67,0.05,85822.99,4804.01,0.06,42680.44,2481.94,0.03,1135.98,1281.26,0.03,19722.90
365600,800.18,784.13,1.00,1,1,1,6182.21,0.04,97463.09,3746.13,0.07,215461.71,2557.26,0.06,153887.42,2259.63,0.04,15408.17,1230.97,0.02,3516.24
380100,818.72,788.21,1.00,1,1,1,1309.31,0.22,337756.97,103.28,0.47,251801.09,1167.96,0.07,95823.57,1892.72,0.06,25371.42,1233.03,0.02,169.81
416600,804.87,786.52,1.00,1,1,1,382.22,-3.02,46306.55,317.91,-3.03,11399.60,101.86,0.49,29469.80,1440.55,0.05,12390.14,1526.41,0.03,8041.92
430600,802.76,786.47,1.00,1,1,1,150.82,-3.12,16609.31,100.20,0.50,29444.43,4.13,0.43,6980.89,656.77,0.04,55989.39,1762.61,0.03,16873.37
459800,808.66,788.61,1.00,1,1,1,215.06,0.35,12373.07,327.04,0.12,8125.01,301.33,0.01,10190.48,40.43,-0.36,21224.52,1934.36,0.04,5922.96
480900,819.10,788.38,1.00,1,1,1,494.67,-0.02,14418.19,565.80,-0.09,12089.99,145.15,-0.18,7648.37,49.43,-2.35,3580.07,1754.08,0.05,8589.28
495000,828.49,786.76,1.00,1,1,1,676.13,-0.17,14236.61,226.34,-2.47,52921.55,112.09,-1.93,14034.98,562.49,0.01,42452.02,1404.82,0.05,24771.90
509500,814.02,784.37,1.00,1,1,1,1011.90,-2.98,114857.64,790.94,-2.93,41081.56,133.12,-2.37,3972.63,1041.28,0.03,33033.96,900.41,0.03,34807.12
523900,806.17,781.87,1.00,2,2,2,572.23,-2.83,31463.73,62.21,-2.06,52237.98,878.96,0.01,68005.42,1530.74,0.03,33993.38,686.56,0.02,14860.56
545100,812.98,782.41,1.00,2,2,2,322.52,0.08,41950.92,2217.13,0.07,106155.16,2140.03,0.04,59531.77,1575.18,0.04,2154.69,628.66,-0.00,2841.73
559700,885.36,787.19,1.00,3,3,3,4968.26,0.07,318203.44,4806.23,0.06,177347.93,3105.50,0.07,66232.36,1361.07,0.04,14665.41,725.31,0.01,6663.53
574100,952.13,790.47,1.00,1,1,1,4642.31,0.05,23330.92,4229.30,0.06,40109.93,3242.58,0.07,9521.16,1199.60,0.02,11290.66,811.53,0.01,5987.80
588000,1004.81,794.84,1.00,1,1,1,3802.65,0.08,61263.35,1965.62,0.08,162899.26,1845.37,0.06,100536.77,1484.99,0.03,20550.70,847.60,0.01,2641.46
609600,1021.67,796.19,1.00,1,1,1,783.45,0.08,139777.77,34.09,-2.08,91888.14,261.36,-0.13,73582.32,1528.70,0.03,2074.35,543.82,-0.03,14102.27
624200,1004.21,793.76,1.00,1,1,1,1208.03,-3.00,136347.49,1842.49,-2.99,124785.00,154.68,-2.44,26218.09,906.06,0.02,42656.72,103.49,-0.12,30194.99
638600,968.84,788.23,1.00,1,1,1,2485.88,-2.99,88761.81,311.57,-2.49,109486.40,425.06,-2.78,19706.24,555.85,-0.01,24362.29,313.85,-3.07,28889.11
652600,997.17,788.39,1.00,1,1,1,2023.94,0.01,321240.23,1068.20,-0.02,94699.33,80.05,-1.98,26666.87,174.85,-0.22,27614.29,640.07,-3.10,23312.90
666800,998.95,787.54,1.00,1,1,1,138.94,-0.45,133792.72,139.07,0.13,65562.53,853.72,0.02,62711.04,555.14,-2.97,50678.16,774.40,-3.08,9490.57
688600,1002.14,789.03,1.00,1,1,1,161.42,0.44,5973.55,688.16,0.08,25197.42,459.65,0.05,18090.30,1167.91,-3.07,28371.76,886.79,-3.08,5155.97
702900,1023.72,789.51,1.00,2,2,2,1509.44,0.02,95347.23,863.88,0.03,12557.70,681.44,-3.08,79793.70,1688.48,-3.10,36503.68,1050.65,-3.08,11459.33
717200,1026.83,789.82,1.00,2,2,2,218.87,0.10,90300.14,2428.47,-3.07,230200.15,2312.37,-3.11,114080.73,2563.34,-3.10,61179.15,1182.22,-3.08,9200.97
731200,955.16,784.64,1.00,2,2,2,5132.46,-3.07,382232.98,4900.43,-3.11,176780.11,3789.47,-3.10,105506.96,2655.16,-3.10,6642.53,1267.39,-3.08,6087.39
752300,854.94,783.65,1.00,1,1,1,4750.31,-3.13,23233.69,4568.63,-3.11,15860.96,5079.89,-3.10,61160.35,2371.45,-3.09,13449.54,1222.66,-3.08,2128.57
780700,729.10,778.62,1.00,1,1,1,4434.53,-3.10,12134.16,5228.16,-3.10,23392.50,4157.75,-3.10,32472.01,2377.74,-3.10,245.54,1091.37,-3.09,4640.01
794800,632.95,774.10,1.00,1,1,1,6826.79,-3.09,169685.41,3580.49,-3.07,117154.42,2412.55,-3.09,123804.05,2256.58,-3.10,8600.78,1147.28,-3.09,3966.02
815800,603.73,769.80,1.00,1,1,1,1406.13,-3.00,258541.30,52.86,-1.34,170930.67,970.40,-3.06,68702.30,1803.69,-3.10,21571.58,1264.90,-3.10,5615.26
844200,633.55,771.56,1.00,1,1,1,1051.90,0.06,86469.99,1165.42,0.05,40739.88,327.51,-0.01,45662.51,1267.83,-3.09,18887.82,1533.47,-3.10,9457.08
858700,653.66,772.44,1.00,1,1,1,1387.86,0.04,23204.76,769.77,0.08,27344.42,756.25,0.06,29671.70,518.43,-3.06,51707.60,1894.43,-3.11,24918.85
879600,660.72,773.74,1.00,1,1,1,343.38,0.18,50184.28,253.48,0.10,24705.01,388.85,0.05,17580.21,212.55,-0.09,34863.60,2116.69,-3.11,10651.01
893600,662.47,773.29,1.00,1,1,1,129.13,-0.26,16647.35,94.84,-2.79,24720.03,14.97,-2.91,28828.79,193.90,0.05,2432.14,2015.85,-3.13,7485.23
907700,658.21,772.83,1.00,1,1,1,303.26,-3.03,30243.35,281.67,-3.03,13540.67,69.75,-0.62,5709.26,511.00,-3.12,49988.54,1735.93,-3.12,19859.67
928700,652.64,772.21,1.00,2,2,2,267.18,-3.03,1719.29,178.98,-0.26,21576.83,487.63,-3.07,25877.95,1306.45,-3.14,37881.31,1318.44,-3.14,19907.11
943100,664.33,771.19,1.00,2,2,2,815.24,-0.09,74893.49,736.44,-3.09,63082.24,1403.66,-3.12,63661.57,1940.34,-3.14,44020.99,962.89,3.13,24731.97
957800,631.24,771.12,1.00,2,2,2,2251.55,-3.14,208463.28,3354.02,-3.13,178126.78,2868.27,-3.14,99681.50,2286.29,3.13,23626.01,870.85,3.10,6442.63
971700,568.41,770.47,1.00,3,3,3,4519.99,-3.13,163207.62,5023.26,3.14,120132.64,3903.72,3.13,74542.46,2306.03,3.13,1601.67,992.70,3.11,8768.97
986600,486.57,771.61,1.00,1,1,1,5493.46,3.13,65833.55,4340.93,3.12,45991.69,4095.21,3.12,13397.42,2239.42,3.12,4753.05,1105.61,3.12,7652.09
1007700,412.16,773.13,1.00,1,1,1,3527.09,3.12,93202.57,3335.29,3.10,47918.13,3209.56,3.12,41974.10,2317.73,3.12,3751.54,1121.84,3.13,1041.72
1021700,369.61,776.83,1.00,1,1,1,3050.47,3.05,37412.00,1755.29,3.10,112860.81,1727.89,3.09,105918.49,2041.27,3.11,19778.22,1101.04,3.13,1494.10
1035700,363.05,775.08,1.00,1,1,1,485.17,-2.88,185679.04,156.66,3.03,114220.33,719.95,3.03,72157.59,1469.74,3.09,40930.59,1148.18,3.13,3372.14
1057600,364.02,777.46,1.00,1,1,1,117.48,1.18,25753.72,124.60,0.74,11700.98,44.38,2.24,31493.10,906.31,3.08,25728.09,1067.92,3.13,3672.12
1071700,366.35,778.11,1.00,1,1,1,171.50,0.27,9627.52,141.46,0.41,3358.62,261.79,0.34,19797.17,309.13,3.07,42356.23,1033.83,3.12,2566.52
1086900,367.83,779.10,1.00,1,1,1,116.99,0.59,4641.98,448.64,0.20,20489.95,115.65,0.14,9880.12,43.27,-3.04,17541.47,850.99,3.12,12029.29
1100700,379.09,780.75,1.00,1,1,1,824.94,0.15,52260.40,101.71,-0.26,26110.54,99.11,-0.34,3895.37,119.70,3.14,5567.84,557.33,3.12,21280.67
1114800,370.57,778.39,1.00,1,1,1,626.99,-2.87,102774.73,228.99,-2.52,21574.39,67.38,-2.55,10604.33,111.59,-3.05,974.22,247.77,3.10,21959.07
1136600,372.41,775.96,1.00,1,1,1,139.76,-0.92,31689.94,148.22,-2.84,4590.86,426.74,-2.98,16802.85,11.85,0.02,5660.92,309.13,3.07,2836.48
1165200,363.44,776.18,1.00,1,1,1,313.93,3.12,14532.84,616.28,-3.11,16612.02,240.73,-3.04,6540.70,130.37,-0.13,4149.23,43.27,-3.04,9322.74
1179800,345.80,775.17,1.00,1,1,1,1209.90,-3.08,61464.85,337.70,-3.12,19083.91,50.85,2.66,13722.80,162.65,-0.22,2398.01,119.70,3.14,5262.75
1215400,346.49,775.86,1.00,1,1,1,27.45,0.79,34561.91,454.18,0.13,22208.50,314.33,0.01,10111.10,264.03,-0.08,2963.49,111.59,-3.05,385.86
1229600,368.22,778.15,1.00,1,1,1,1539.03,0.10,106895.66,1475.02,0.01,72214.77,697.79,-0.01,27009.71,50.85,2.66,21938.24,11.85,0.02,8690.70
1243600,388.08,776.42,1.00,1,1,1,1423.72,-0.09,21827.07,1052.33,-0.09,31573.95,1048.25,-0.02,25040.73,314.33,0.01,25711.08,130.37,-0.13,8476.28
1264800,405.11,774.80,1.00,1,1,1,807.08,-0.09,29090.07,717.14,-0.06,15846.42,1052.33,-0.09,3666.38,697.79,-0.01,18091.41,162.65,-0.22,1651.46
1279800,413.99,774.75,1.00,1,1,1,591.56,-0.01,14936.44,591.56,-0.01,8747.30,717.14,-0.06,22396.28,1048.25,-0.02,23371.34,264.03,-0.08,7033.36
