@RELATION gaze_labels

%@METADATA width_px 1920
%@METADATA height_px 1080
%@METADATA width_mm 540.00
%@METADATA height_mm 254.00
%@METADATA distance_mm 620.00


@ATTRIBUTE time INTEGER
@ATTRIBUTE x NUMERIC
@ATTRIBUTE y NUMERIC
@ATTRIBUTE confidence NUMERIC
@ATTRIBUTE handlabeller1 INTEGER
@ATTRIBUTE handlabeller2 INTEGER
@ATTRIBUTE handlabeller_final INTEGER
@ATTRIBUTE speed_1 numeric
@ATTRIBUTE direction_1 numeric
@ATTRIBUTE acceleration_1 numeric
@ATTRIBUTE speed_2 numeric
@ATTRIBUTE direction_2 numeric
@ATTRIBUTE acceleration_2 numeric
@ATTRIBUTE speed_4 numeric
@ATTRIBUTE direction_4 numeric
@ATTRIBUTE acceleration_4 numeric
@ATTRIBUTE speed_8 numeric
@ATTRIBUTE direction_8 numeric
@ATTRIBUTE acceleration_8 numeric
@ATTRIBUTE speed_16 numeric
@ATTRIBUTE direction_16 numeric
@ATTRIBUTE acceleration_16 numeric

%The number after speed, direction denotes the step size that was used for the calculation.
%Acceleration was calculated between two adjacent samples of the already low pass filtered velocity

@DATA
0,176.19,769.68,1.00,1,1,1,0.00,0.00,0.00,6716.56,0.01,0.00,1974.72,-0.00,0.00,1482.93,0.04,0.00,804.44,0.08,0.00
14100,270.89,770.35,1.00,1,1,1,6716.56,0.01,476351.88,1974.72,-0.00,336312.33,1001.14,0.26,73914.39,535.51,0.13,67442.96,278.34,0.26,37801.26
42700,260.51,769.38,1.00,1,1,1,364.56,-3.05,247547.02,1001.14,0.26,36440.31,1482.93,0.04,19349.40,525.68,0.26,2469.36,330.22,0.09,2519.23
63800,318.95,783.23,1.00,1,1,1,2846.49,0.23,152033.81,892.28,0.15,7203.61,535.51,0.13,45068.52,415.06,-2.99,44517.86,755.01,-0.05,20396.73
77800,291.48,774.04,1.00,1,1,1,2069.08,-2.82,350766.26,330.21,-2.26,82845.57,525.68,0.26,5044.54,804.44,0.08,87054.09,2184.47,0.03,102314.25
93000,312.78,775.81,1.00,1,1,1,1406.71,0.08,227088.98,250.68,0.58,37816.48,415.06,-2.99,61797.81,278.34,0.26,35065.64,3068.42,0.03,58154.77
121800,300.67,780.13,1.00,1,1,1,446.47,2.80,63288.86,529.54,3.05,25746.65,149.35,0.47,19409.63,330.22,0.09,2501.74,3497.26,0.02,14936.61
142800,286.53,778.30,1.00,1,1,1,679.07,-3.01,16512.22,44.72,-0.52,27166.71,72.68,1.51,6140.54,755.01,-0.05,20493.86,3760.98,0.03,12691.19
156900,302.03,779.35,1.00,2,2,2,1101.90,0.07,126253.87,947.13,0.12,64661.17,155.81,-0.59,14363.07,2184.47,0.03,101588.61,2001.21,0.02,124813.68
171100,313.15,781.48,1.00,2,2,2,796.87,0.19,22937.36,264.85,-0.61,54160.29,2191.72,-0.00,145381.06,3068.42,0.03,62250.18,1805.93,0.04,13992.64
192700,309.83,773.95,1.00,3,3,3,380.86,-1.99,49105.47,3184.90,-0.03,137337.35,4721.95,0.01,117148.07,3497.26,0.02,19915.48,1631.61,0.01,8291.72
206800,426.80,778.25,1.00,3,3,3,8301.57,0.04,601050.73,10463.89,0.03,516743.48,6799.67,0.01,147364.90,3760.98,0.03,18901.77,1681.65,0.00,3893.00
220800,603.75,781.99,1.00,1,1,1,12642.27,0.02,310262.46,11348.16,0.03,63162.32,7667.30,0.03,62593.42,3469.15,0.00,21711.20,1607.27,-0.01,5435.17
235200,748.97,787.05,1.00,1,1,1,10090.53,0.03,177533.35,4976.15,0.03,442518.48,5326.42,0.04,162591.37,3690.01,0.02,15816.10,1501.30,-0.00,7382.05
250000,748.97,787.05,1.00,1,1,1,0.00,0.00,681792.39,556.52,0.19,299147.76,2222.49,-0.01,210015.40,3165.20,0.00,35595.17,1736.65,-0.00,15904.62
271000,768.52,790.86,1.00,1,1,1,948.74,0.19,45178.12,201.65,-1.94,32635.57,566.97,0.08,78988.87,2714.85,0.02,21494.36,1729.85,-0.01,571.58
285000,746.43,780.46,1.00,1,1,1,1744.18,-2.70,191011.59,589.95,-0.05,48583.83,536.56,-2.84,78341.57,973.95,-0.10,125004.87,2212.66,0.03,34865.66
299000,785.02,790.00,1.00,1,1,1,2839.43,0.24,325896.62,959.57,-3.00,110208.19,156.26,-0.82,44291.16,244.69,-2.72,85237.45,2585.77,0.01,26896.77
320100,713.07,775.83,1.00,1,1,1,3475.55,-2.95,299203.88,321.84,-2.55,32457.43,310.47,-2.60,17772.79,60.63,-1.83,10060.84,2886.93,0.03,14506.69
335200,775.35,783.51,1.00,1,1,1,4155.65,0.12,505054.61,568.70,-0.35,53129.08,1023.24,-2.90,48542.26,315.25,-2.74,18709.24,2251.12,0.03,42107.95
350100,729.12,770.03,1.00,1,1,1,3231.78,-2.86,494223.32,1925.52,-2.98,163574.21,581.28,0.11,107475.66,1095.35,0.11,93974.79,1742.72,0.03,34120.76
364300,720.08,774.26,1.00,1,1,1,702.44,2.70,193222.40,704.68,0.49,183360.46,697.25,-2.95,89966.67,1606.14,-0.01,37610.87,1023.21,0.02,50678.45
378800,746.99,779.49,1.00,2,2,2,1890.60,0.19,171921.63,311.07,0.08,30137.19,2241.21,0.15,202632.76,2631.22,0.05,71316.03,1064.23,0.01,2878.02
399800,731.09,775.13,1.00,2,2,2,785.21,-2.87,127343.39,3153.51,0.11,135363.79,3764.66,0.04,74141.73,1839.97,0.05,37682.18,1077.15,0.01,618.50
428500,902.73,797.12,1.00,3,3,3,6029.23,0.13,237198.28,6596.29,0.04,120471.27,4155.08,0.05,13621.73,2378.28,0.07,18833.06,1082.83,0.02,351.50
443100,1016.45,787.34,1.00,1,1,1,7817.98,-0.09,158205.98,5874.59,-0.01,54062.48,3884.24,0.07,19382.05,2039.42,0.06,23309.60,975.35,-0.01,7638.09
457800,1074.85,795.64,1.00,1,1,1,4012.53,0.14,272890.89,718.36,0.36,354580.93,2526.10,0.00,93501.06,1905.58,0.04,9532.31,1266.41,0.07,20580.46
479800,1041.08,796.75,1.00,1,1,1,1535.74,3.11,251431.22,596.10,0.06,10517.49,346.87,0.22,99472.12,2189.17,0.06,13007.29,1308.54,0.02,3445.78
508600,1105.07,797.57,1.00,1,1,1,2222.02,0.01,130445.28,98.20,-0.94,19088.12,154.88,-2.82,17400.79,1078.43,-0.07,39116.37,2171.61,0.06,30096.46
523200,1043.59,793.30,1.00,1,1,1,4221.10,-3.07,441150.95,1214.77,-3.00,86552.64,473.63,-0.05,42487.17,346.79,0.00,50199.93,1994.09,0.04,12678.13
544300,1062.14,791.39,1.00,1,1,1,884.01,-0.10,241438.14,981.39,0.04,103952.96,735.26,-2.91,56756.89,48.12,2.60,18419.93,2139.61,0.04,6919.08
558700,1078.40,794.77,1.00,1,1,1,1152.81,0.20,28439.19,197.87,-2.22,77655.61,367.61,-0.24,74705.97,774.63,-0.06,56777.44,2117.32,0.04,1561.39
573400,1058.65,786.81,1.00,2,2,2,1448.03,-2.76,176234.49,476.63,-2.59,20476.90,180.48,0.86,22324.98,1917.39,0.05,78305.04,1638.92,0.01,32771.22
587700,1066.60,787.57,1.00,2,2,2,557.98,0.10,139116.09,569.26,0.88,72141.71,1145.17,-0.07,73186.02,1939.21,0.01,5256.19,1325.97,0.04,22089.12
601700,1068.92,799.23,1.00,3,3,3,848.92,1.37,62236.74,2423.54,0.03,149554.28,4597.62,0.08,247776.31,2458.25,0.05,37563.75,1112.27,0.02,15356.58
622800,1151.63,789.79,1.00,1,1,1,3945.37,-0.11,187957.22,7943.96,0.04,261643.43,3534.07,0.04,50958.74,2029.29,0.03,20518.92,326.54,-0.04,37285.99
637300,1351.52,810.06,1.00,1,1,1,13855.95,0.10,692160.60,4878.63,0.05,211445.78,4545.81,0.03,69875.07,2280.25,0.06,17849.06,1063.52,-3.13,95841.38
651800,1292.95,796.63,1.00,1,1,1,4144.21,-2.92,1239690.96,337.49,-0.33,314917.72,2910.75,0.06,113118.94,2435.07,0.05,10740.27,994.75,-3.13,4742.41
665900,1360.66,806.96,1.00,1,1,1,4857.85,0.15,638009.60,1318.19,0.10,72435.09,115.74,-1.83,209175.41,2408.51,0.01,6694.92,1059.46,-3.13,4610.09
687600,1339.88,801.53,1.00,1,1,1,989.58,-2.89,269260.84,333.04,-2.79,75718.90,1327.86,0.07,63117.85,173.54,3.00,118903.76,1184.48,-3.12,5788.32
701200,1349.62,802.91,1.00,2,2,2,723.28,0.14,125742.49,1342.56,0.03,122174.47,268.30,-0.26,79246.20,4064.58,-3.11,286297.26,1239.24,-3.13,4190.16
715400,1377.19,802.53,1.00,2,2,2,1941.77,-0.01,86773.20,967.48,-0.01,26614.25,3314.56,-3.10,251516.88,3532.12,-3.13,37803.22,1010.21,3.13,16215.02
729700,1377.19,802.53,1.00,2,2,2,0.00,0.00,135788.42,6941.02,-3.10,552959.41,8096.98,-3.13,334560.53,3933.49,-3.11,28694.96,936.05,-3.10,6078.29
751100,1129.59,792.90,1.00,3,3,3,11579.18,-3.10,541083.15,15394.31,-3.13,395193.09,7162.80,-3.12,43674.07,4122.46,-3.12,8960.29,1253.02,3.12,15166.99
765100,832.29,794.79,1.00,1,1,1,21235.88,3.14,691619.92,7324.66,-3.14,576435.20,7078.78,-3.12,6848.96,4412.53,-3.11,20820.66,2041.39,-3.11,56727.49
800500,767.75,790.64,1.00,1,1,1,1826.78,-3.08,548419.96,1151.98,-3.00,174707.35,4784.88,-3.12,64813.40,3701.32,-3.12,20137.11,2053.04,-3.13,1578.29
814700,775.70,786.89,1.00,1,1,1,618.71,-0.44,168103.56,353.66,-2.69,57946.60,1392.08,-3.03,239587.56,3550.87,-3.12,10622.04,2848.41,3.13,56083.62
828600,758.82,786.30,1.00,1,1,1,1215.40,-3.11,128628.51,1815.54,-3.05,107208.17,61.83,-0.16,104431.57,2137.29,3.12,102035.73,2720.20,2.98,31302.12
842900,724.71,782.31,1.00,1,1,1,2401.49,-3.03,83508.12,282.20,0.25,146465.85,259.91,0.08,14025.40,394.87,-3.07,121997.58,2772.86,2.99,3765.18
878800,772.53,789.85,1.00,4,4,4,1348.56,0.16,104439.25,1418.86,0.09,31795.50,477.54,0.34,6559.84,513.05,3.12,3500.88,3378.14,3.13,20916.73
893400,796.08,788.61,1.00,4,4,4,1615.33,-0.05,27874.74,817.48,0.39,46863.31,586.12,0.17,9708.23,1727.56,3.03,83401.33,3406.79,-3.12,7873.68
907900,794.51,798.94,1.00,4,4,4,720.35,1.72,130811.00,893.70,3.08,115055.70,1210.18,3.11,123360.53,1590.69,2.49,61277.44,2638.82,-3.10,53151.89
922100,770.47,790.07,1.00,4,4,4,1804.37,-2.79,145993.01,2831.84,-3.07,137214.41,4177.33,3.04,209239.94,1510.82,2.45,7570.05,1282.45,-3.06,95627.50
943300,694.50,792.03,1.00,4,4,4,3584.67,3.12,95373.26,6870.56,3.04,193763.06,3940.57,2.62,81318.99,2971.70,3.08,93140.11,1312.46,-3.03,2523.51
957100,531.24,814.37,1.00,4,4,4,11941.36,3.01,607809.00,6272.39,2.30,348065.22,3664.59,2.58,22427.39,3222.09,-3.12,25548.29,1458.08,-3.04,10651.19
971300,577.83,923.29,1.00,4,4,4,8342.98,1.17,1146395.33,3207.75,1.40,348776.48,4755.99,3.08,162973.75,3266.12,-3.05,16942.09,974.27,-3.02,34132.03
992800,550.67,927.23,1.00,4,4,4,1276.39,3.00,407391.06,6071.80,-2.60,396392.46,2355.18,-2.90,121061.98,2373.68,-3.06,41553.89,1027.99,-3.02,2517.26
1007000,392.17,811.42,1.00,4,4,4,13824.09,-2.51,911469.11,7864.27,-2.41,155555.12,4017.53,-2.45,152842.10,2213.54,-2.99,15715.06,1144.40,-3.04,8266.37
1021100,384.74,778.91,1.00,4,4,4,2365.03,-1.80,860828.22,1907.28,-1.79,455081.23,3185.38,-2.04,117932.91,1268.17,-2.72,74536.43,1321.23,-3.04,12551.43
1035200,380.67,758.87,1.00,1,1,1,1449.80,-1.77,64990.42,2951.63,-0.16,255422.73,1026.43,-1.21,184719.47,1464.08,-2.02,67730.29,1047.02,-2.98,20049.32
1049800,468.36,765.39,1.00,1,1,1,6022.75,0.07,449693.48,998.63,-0.25,134195.98,490.99,-1.63,41878.10,1691.96,-2.10,17749.35,1278.49,-3.02,16158.34
1070900,415.20,750.00,1.00,1,1,1,2622.84,-2.86,407881.08,2448.36,-2.93,159841.61,1792.90,-0.05,88400.78,798.41,-0.53,88388.31,2213.54,-2.99,44388.13
1085500,382.84,747.34,1.00,1,1,1,2224.14,-3.06,42824.27,2807.52,0.04,358767.66,404.39,-2.48,145019.80,604.92,-0.31,17056.97,1268.17,-2.72,71983.81
1099900,496.55,753.46,1.00,1,1,1,7907.82,0.05,703560.22,2263.08,0.03,37848.16,1022.17,0.14,96412.36,939.60,-0.03,27352.93,1464.08,-2.02,66319.25
1114200,447.75,749.47,1.00,1,1,1,3423.49,-3.06,792333.66,482.12,2.79,189951.82,1190.34,0.11,12095.35,354.87,-2.82,89403.73,1691.96,-2.10,18121.72
1135400,480.47,759.33,1.00,1,1,1,1611.77,0.29,236361.62,355.91,0.49,36202.38,235.91,0.07,45028.38,1022.17,0.14,64751.96,798.41,-0.53,87971.39
1149800,458.95,755.39,1.00,2,2,2,1518.95,-2.96,217071.78,813.14,-0.13,39041.49,349.19,-3.11,40624.83,1190.34,0.11,12011.36,604.92,-0.31,17293.88
1178200,514.97,754.78,1.00,1,1,1,1972.59,-0.01,122384.59,832.94,-2.98,57322.15,813.14,-0.13,40812.80,235.91,0.07,33612.74,939.60,-0.03,13869.09
1199800,417.88,748.51,1.00,1,1,1,4504.41,-3.08,299680.71,4504.41,-3.08,170218.64,832.94,-2.98,75368.01,349.19,-3.11,27083.22,354.87,-2.82,59188.58
