%@metadata width_px 1920.0
%@metadata height_px 1080.0
%@metadata width_mm 540.0
%@metadata height_mm 254.0
%@metadata distance_mm 620.0
% The number after speed, direction denotes the step size that was used for the calculation.
% Acceleration was calculated between two adjacent samples of the already low pass filtered velocity
@RELATION gaze_labels

@ATTRIBUTE time INTEGER
@ATTRIBUTE x NUMERIC
@ATTRIBUTE y NUMERIC
@ATTRIBUTE confidence NUMERIC
@ATTRIBUTE handlabeller_final INTEGER
@ATTRIBUTE EYE_MOVEMENT_TYPE {UNKNOWN, FIX, SACCADE, SP, NOISE, BLINK, NOISE_CLUSTER, PSO}

@DATA
0,325.3,539.24,1.0,1,FIX
14500,277.85,535.61,1.0,1,FIX
44200,330.9,541.59,1.0,1,FIX
59200,274.81,544.21,1.0,1,FIX
74600,334.08,545.04,1.0,1,FIX
96500,301.35,541.84,1.0,1,FIX
112100,369.88,548.31,1.0,1,FIX
127500,336.49,549.49,1.0,1,FIX
143400,319.42,545.69,1.0,1,FIX
158500,390.82,548.56,1.0,2,SACCADE
173000,284.11,548.79,1.0,2,SACCADE
188200,312.14,555.58,1.0,3,FIX
218100,203.6,556.57,1.0,1,FIX
240600,160.86,557.48,1.0,1,FIX
255700,137.96,568.11,1.0,1,FIX
269700,222.84,576.65,1.0,2,FIX
283900,215.83,560.53,1.0,2,SACCADE
298800,283.12,561.66,1.0,2,SACCADE
321500,271.59,569.23,1.0,1,SACCADE
336400,394.22,560.51,1.0,1,FIX
366500,482.03,554.73,1.0,1,FIX
382000,535.23,565.06,1.0,1,FIX
397100,557.44,565.71,1.0,1,FIX
426100,545.18,566.55,1.0,4,NOISE
447800,545.64,560.75,1.0,4,NOISE
463700,613.57,579.94,1.0,4,NOISE
478400,881.97,597.33,1.0,4,NOISE
492800,878.31,616.36,1.0,4,NOISE
507800,1409.58,836.07,1.0,4,NOISE
522800,995.98,982.49,1.0,4,NOISE
538100,239.8,618.61,1.0,4,NOISE
560600,335.44,585.12,1.0,4,NOISE
590000,623.57,601.78,1.0,4,NOISE
604300,905.48,669.43,1.0,1,NOISE
619300,874.38,648.26,1.0,1,NOISE
634000,974.79,697.65,1.0,1,NOISE
657200,888.05,638.5,1.0,1,FIX
673000,835.29,617.74,1.0,1,FIX
688000,849.37,612.9,1.0,1,FIX
703000,811.29,586.33,1.0,1,FIX
717500,764.21,585.48,1.0,1,FIX
747600,839.4,589.82,1.0,2,SACCADE
762800,797.92,586.3,1.0,2,SACCADE
799800,931.97,614.53,1.0,1,SACCADE
814600,1297.28,653.41,1.0,1,FIX
829200,1450.07,690.68,1.0,1,FIX
843800,1491.21,697.26,1.0,1,FIX
858800,1372.46,687.5,1.0,1,FIX
880400,1451.49,704.74,1.0,1,FIX
895500,1468.88,707.46,1.0,1,FIX
910400,1460.02,689.92,1.0,1,FIX
940600,1447.72,698.8,1.0,1,FIX
955800,1429.24,690.61,1.0,1,FIX
970600,1432.6,690.53,1.0,1,FIX
992800,1403.33,683.68,1.0,1,FIX
1007700,1366.98,672.3,1.0,1,SACCADE
1023000,1471.72,708.48,1.0,2,SACCADE
1038000,1437.98,682.69,1.0,2,SACCADE
1067000,1280.63,671.97,1.0,2,SP
1088800,844.33,587.71,1.0,1,FIX
1118700,511.66,574.13,1.0,1,FIX
1133100,553.3,564.9,1.0,1,FIX
1163200,597.25,582.3,1.0,1,FIX
1178100,588.79,570.98,1.0,1,FIX
1200700,535.55,561.1,1.0,1,FIX
1216200,551.46,571.61,1.0,2,SACCADE
1230500,583.52,578.0,1.0,3,SACCADE
1245100,578.91,567.95,1.0,1,SP
1260200,433.85,555.21,1.0,1,FIX
1275300,344.57,550.65,1.0,1,FIX
1290200,363.09,555.9,1.0,1,FIX
1313200,385.83,560.16,1.0,1,FIX
1327700,395.86,558.18,1.0,1,FIX
1357100,381.01,555.13,1.0,1,FIX
1371200,380.45,551.96,1.0,1,SACCADE
1386400,365.03,550.17,1.0,2,SACCADE
1407700,346.22,545.49,1.0,3,SACCADE
1421700,433.78,551.88,1.0,3,SP
1437000,832.93,592.78,1.0,1,FIX
1453100,833.25,595.75,1.0,0,FIX
1483200,800.67,594.07,1.0,1,FIX
1498300,837.43,582.68,1.0,1,FIX
1520300,825.9,599.11,1.0,1,FIX
1549700,836.92,590.87,1.0,1,FIX
1564000,830.22,582.1,1.0,2,SACCADE
1579000,845.15,578.68,1.0,2,SACCADE
1601600,883.78,592.73,1.0,1,SP
1616000,771.12,587.37,1.0,1,FIX
1630500,747.05,563.37,1.0,1,FIX
1645100,716.97,543.99,1.0,1,UNKNOWN
