%@metadata width_px 1920.0
%@metadata height_px 1080.0
%@metadata width_mm 540.0
%@metadata height_mm 254.0
%@metadata distance_mm 620.0
% The number after speed, direction denotes the step size that was used for the calculation.
% Acceleration was calculated between two adjacent samples of the already low pass filtered velocity
@RELATION gaze_labels

@ATTRIBUTE time INTEGER
@ATTRIBUTE x NUMERIC
@ATTRIBUTE y NUMERIC
@ATTRIBUTE confidence NUMERIC
@ATTRIBUTE handlabeller_final INTEGER
@ATTRIBUTE EYE_MOVEMENT_TYPE {UNKNOWN, FIX, SACCADE, SP, NOISE, BLINK, NOISE_CLUSTER, PSO}

@DATA
0,157.86,562.84,1.0,1,FIX
21600,141.53,557.39,1.0,1,FIX
51400,164.64,551.43,1.0,1,FIX
66300,164.62,574.92,1.0,1,FIX
80800,172.69,570.76,1.0,1,FIX
95900,162.31,563.78,1.0,1,FIX
111400,181.56,573.75,1.0,1,FIX
133400,253.64,563.67,1.0,1,FIX
147900,159.14,561.4,1.0,1,SACCADE
177500,152.07,563.56,1.0,2,SACCADE
192200,153.82,578.23,1.0,2,SP
229600,349.72,554.99,1.0,1,FIX
244400,324.04,557.71,1.0,1,FIX
275000,353.78,547.7,1.0,1,FIX
289500,324.51,556.23,1.0,1,FIX
303500,364.92,550.63,1.0,1,FIX
326200,375.82,551.55,1.0,2,FIX
341300,353.64,559.81,1.0,2,SACCADE
355200,387.59,557.29,1.0,3,SACCADE
370200,371.96,548.63,1.0,1,FIX
385200,239.09,558.44,1.0,1,FIX
400400,250.9,569.6,1.0,1,FIX
421500,242.03,575.72,1.0,1,FIX
452100,275.34,547.52,1.0,2,SACCADE
467200,263.36,571.39,1.0,2,SACCADE
482200,266.31,563.74,1.0,3,SACCADE
496500,426.08,575.2,1.0,1,FIX
511700,668.98,579.72,1.0,1,FIX
533600,709.45,590.0,1.0,1,FIX
548600,721.49,575.36,1.0,1,FIX
563900,701.62,573.02,1.0,1,FIX
593500,768.24,593.42,1.0,1,FIX
608400,697.39,567.52,1.0,1,FIX
623600,786.8,596.6,1.0,2,SACCADE
660400,763.06,579.92,1.0,3,SACCADE
676300,837.38,597.79,1.0,1,SP
691500,998.58,617.91,1.0,1,FIX
706200,1100.61,639.94,1.0,1,FIX
721200,1119.5,634.16,1.0,1,FIX
735800,1112.15,629.47,1.0,1,FIX
758100,1093.78,627.77,1.0,1,FIX
773000,1076.17,618.65,1.0,1,FIX
802400,1109.75,624.21,1.0,1,FIX
816600,1129.65,622.39,1.0,1,SACCADE
831400,1107.83,615.48,1.0,2,SACCADE
853500,1135.19,627.23,1.0,2,SACCADE
868400,1032.2,624.36,1.0,3,SP
883200,885.65,604.64,1.0,1,FIX
911900,658.97,576.96,1.0,1,FIX
927500,682.36,585.64,1.0,1,FIX
949300,731.69,585.5,1.0,1,FIX
977400,657.45,572.51,1.0,1,FIX
994000,690.56,583.42,1.0,1,FIX
1023400,726.75,584.74,1.0,1,FIX
1045400,700.95,583.84,1.0,1,FIX
1060300,746.04,590.47,1.0,1,FIX
1075500,683.09,571.59,1.0,1,FIX
1090400,704.0,585.25,1.0,1,FIX
1106200,659.93,569.38,1.0,1,FIX
1121200,734.12,588.22,1.0,1,FIX
1136200,711.91,575.63,1.0,1,FIX
1158400,645.0,574.22,1.0,1,FIX
1183300,703.8,586.88,1.0,1,FIX
1204900,715.48,587.53,1.0,1,FIX
1219500,697.35,588.62,1.0,1,FIX
1247900,742.06,581.12,1.0,1,FIX
1263700,705.91,583.07,1.0,1,FIX
1285900,743.69,585.39,1.0,1,FIX
1300400,723.93,582.88,1.0,1,FIX
1316100,745.81,582.8,1.0,2,FIX
1346400,702.91,577.15,1.0,1,FIX
1361600,703.97,575.2,1.0,1,FIX
1397900,721.51,570.66,1.0,1,FIX
1413500,656.67,570.87,1.0,1,FIX
1428800,654.28,567.75,1.0,1,FIX
1443100,711.0,585.48,1.0,1,FIX
1457500,746.39,584.81,1.0,1,FIX
1472700,708.98,568.22,1.0,1,FIX
1487400,716.48,587.04,1.0,1,FIX
1509400,717.51,573.3,1.0,1,FIX
1523800,683.19,576.16,1.0,2,SACCADE
1553200,777.22,596.91,1.0,2,SACCADE
1567800,680.05,572.27,1.0,1,FIX
1590100,574.04,556.55,1.0,1,FIX
1605200,553.68,554.97,1.0,1,FIX
1620400,527.89,552.01,1.0,1,FIX
1634600,521.16,556.8,1.0,1,FIX
1663500,512.21,549.41,1.0,1,FIX
1686400,520.2,540.88,1.0,1,FIX
1716400,563.61,563.61,1.0,1,FIX
1731400,588.07,553.16,1.0,1,FIX
1746000,640.78,562.86,1.0,1,FIX
1777700,612.4,557.89,1.0,1,FIX
1792600,562.58,561.41,1.0,1,FIX
1807400,553.95,549.53,1.0,1,FIX
1829900,532.58,565.18,1.0,1,FIX
1845000,575.43,557.57,1.0,1,FIX
1860200,592.3,567.94,1.0,2,SACCADE
1875200,543.36,554.03,1.0,2,SACCADE
1890300,489.5,548.29,1.0,3,FIX
1905200,524.99,550.14,1.0,1,FIX
1920400,442.07,530.44,1.0,1,FIX
1941900,496.38,535.61,1.0,1,FIX
1972600,499.66,542.59,1.0,1,FIX
