@RELATION gaze_labels

%@METADATA width_px 1920
%@METADATA height_px 1080
%@METADATA width_mm 540.00
%@METADATA height_mm 254.00
%@METADATA distance_mm 620.00


@ATTRIBUTE time INTEGER
@ATTRIBUTE x NUMERIC
@ATTRIBUTE y NUMERIC
@ATTRIBUTE confidence NUMERIC
@ATTRIBUTE handlabeller1 INTEGER
@ATTRIBUTE handlabeller2 INTEGER
@ATTRIBUTE handlabeller_final INTEGER
@ATTRIBUTE speed_1 numeric
@ATTRIBUTE direction_1 numeric
@ATTRIBUTE acceleration_1 numeric
@ATTRIBUTE speed_2 numeric
@ATTRIBUTE direction_2 numeric
@ATTRIBUTE acceleration_2 numeric
@ATTRIBUTE speed_4 numeric
@ATTRIBUTE direction_4 numeric
@ATTRIBUTE acceleration_4 numeric
@ATTRIBUTE speed_8 numeric
@ATTRIBUTE direction_8 numeric
@ATTRIBUTE acceleration_8 numeric
@ATTRIBUTE speed_16 numeric
@ATTRIBUTE direction_16 numeric
@ATTRIBUTE acceleration_16 numeric

%The number after speed, direction denotes the step size that was used for the calculation.
%Acceleration was calculated between two adjacent samples of the already low pass filtered velocity

@DATA
0,174.64,581.61,1.00,2,2,2,0.00,0.00,0.00,4924.12,-0.31,0.00,2905.70,-0.50,0.00,1072.57,-1.46,0.00,523.31,-1.64,0.00
15100,245.40,558.77,1.00,1,1,1,4924.12,-0.31,326100.99,2905.70,-0.50,141695.58,1368.02,-2.27,228140.46,1318.15,-2.55,83473.04,649.12,-2.49,32700.13
29700,250.37,540.22,1.00,1,1,1,1315.09,-1.31,298115.12,1368.02,-2.27,235953.49,1072.57,-1.46,68263.84,1209.85,-2.74,17955.24,486.70,-2.66,12894.22
46100,218.18,526.25,1.00,1,1,1,2139.52,-2.73,142705.49,2321.61,-2.81,82339.44,1318.15,-2.55,76856.28,666.24,-2.88,34036.13,215.82,-1.98,21131.44
60900,181.86,516.69,1.00,1,1,1,2537.63,-2.88,36041.05,1383.08,-2.85,63564.17,1209.85,-2.74,17712.61,523.31,-1.64,47380.71,263.89,-0.74,18920.32
76000,178.62,514.23,1.00,1,1,1,269.97,-2.49,151684.67,176.14,-1.56,89020.66,666.24,-2.88,36966.40,649.12,-2.49,32700.13,202.36,-1.19,7860.00
91100,181.92,511.37,1.00,1,1,1,288.99,-0.71,28767.90,93.04,2.93,14336.41,192.76,-2.51,32598.27,486.70,-2.66,12467.26,186.44,-1.31,1928.18
112700,175.28,514.95,1.00,1,1,1,348.99,2.65,29359.42,259.82,-2.84,8549.37,156.68,-2.05,3995.89,215.82,-1.98,16044.24,883.90,-0.24,37544.85
142200,169.25,507.39,1.00,1,1,1,327.54,-2.24,14703.37,279.05,-1.78,9265.46,70.77,-1.42,3660.01,263.89,-0.74,9492.23,1227.11,-0.27,11680.22
156000,172.82,503.11,1.00,1,1,1,403.98,-0.88,33797.48,316.11,-0.19,30722.02,399.36,-0.58,25788.06,202.36,-1.19,8600.43,1753.21,-0.17,39789.27
186300,182.93,504.71,1.00,1,1,1,337.71,0.16,12226.01,723.97,-0.24,13477.01,594.00,-0.42,6924.41,186.44,-1.31,960.91,2244.35,-0.10,16730.03
201600,204.93,495.42,1.00,1,1,1,1560.79,-0.40,84087.28,934.21,-0.51,20194.40,321.72,-0.82,21072.67,883.90,-0.24,53004.49,2531.85,-0.08,19083.00
223800,213.48,487.57,1.00,2,2,2,522.98,-0.74,48766.46,496.61,-2.45,54271.96,351.28,-1.28,7080.47,2415.88,-0.06,70089.02,2650.80,-0.07,5409.55
238300,190.90,483.77,1.00,2,2,2,1578.61,-2.98,134084.28,826.33,-2.92,30618.37,1572.13,-0.13,101033.09,3965.29,-0.05,106880.94,2702.07,-0.07,3545.17
253400,189.63,482.12,1.00,2,2,2,138.30,-2.23,98040.59,3949.67,-0.02,314981.35,4980.84,0.00,227058.44,5354.84,-0.04,92027.61,2664.16,-0.08,3047.19
268100,308.59,481.86,1.00,2,2,2,8092.24,-0.00,556253.55,10730.27,0.02,461524.29,9145.53,-0.01,283381.98,5568.72,-0.04,14678.94,2719.32,-0.10,4584.02
283200,509.34,488.08,1.00,1,1,1,13301.13,0.03,345710.13,14376.54,-0.01,242686.63,10632.06,-0.01,98445.76,5811.89,-0.04,16104.30,2734.30,-0.08,3924.02
297700,734.11,477.27,1.00,1,1,1,15519.33,-0.05,171858.98,10559.97,-0.04,264114.71,9549.14,-0.02,75082.31,6056.25,-0.03,16910.27,2642.95,-0.05,7552.46
320100,898.74,473.88,1.00,1,1,1,7351.28,-0.02,364880.25,5720.72,-0.05,216066.75,6557.80,-0.06,134355.82,5993.47,-0.05,4017.26,2978.37,-0.05,14974.41
335000,947.26,467.34,1.00,1,1,1,3285.68,-0.13,275407.33,1648.59,-0.29,277805.35,3332.50,-0.09,216596.07,4986.40,-0.07,67991.30,3043.16,-0.03,6018.31
349900,945.83,459.88,1.00,1,1,1,509.82,-1.76,225005.33,468.81,-0.79,84320.29,954.02,-0.47,165948.44,3090.43,-0.09,127451.45,3147.77,-0.03,7024.98
364900,957.17,457.43,1.00,1,1,1,773.37,-0.21,61071.21,418.55,-1.24,13606.35,469.09,-1.89,66464.49,1236.73,-0.08,123592.90,2989.54,-0.04,10677.63
380400,950.03,447.82,1.00,1,1,1,772.20,-2.21,83832.06,839.90,-2.41,50386.11,807.31,-2.98,46539.47,457.02,-0.18,50565.08,2686.60,-0.04,19560.71
394700,938.53,440.73,1.00,1,1,1,945.10,-2.59,25560.55,1777.44,3.06,93969.04,897.61,3.03,17866.70,370.44,0.04,8938.12,2287.78,-0.03,27949.60
409600,898.30,451.95,1.00,1,1,1,2803.06,2.87,152333.06,1287.26,2.61,56055.94,249.47,1.24,65826.94,484.16,0.01,7693.31,1749.17,-0.03,36158.32
430900,898.33,464.31,1.00,1,1,1,580.28,1.57,127103.90,1597.02,0.20,126663.10,940.45,0.48,36611.78,241.89,-0.22,11951.19,1340.92,0.01,19411.92
446000,955.30,463.32,1.00,1,1,1,3773.60,-0.02,253393.35,3179.26,0.05,106944.76,1640.44,0.08,56688.01,162.98,2.87,26803.97,1219.31,0.01,8061.87
461000,993.89,469.41,1.00,1,1,1,2604.36,0.16,86005.13,1721.86,-0.05,98602.22,1241.81,-0.15,34539.29,161.22,1.59,12964.87,1327.19,0.00,7266.42
476000,1006.88,460.51,1.00,1,1,1,1050.12,-0.60,131852.99,437.34,-1.74,121749.05,364.29,-2.83,105080.90,725.34,0.16,47955.19,1378.04,0.00,3393.17
506000,990.49,450.03,1.00,1,1,1,648.50,-2.57,47785.12,1543.89,-3.06,49871.02,678.51,-3.06,11113.15,1437.03,0.07,23916.73,1329.14,0.02,1753.10
528000,926.85,454.24,1.00,2,2,2,2899.28,3.08,109454.82,1452.70,2.87,24178.02,137.19,0.93,35270.56,1843.97,0.05,18561.85,1343.08,0.06,2440.32
543400,938.18,464.71,1.00,2,2,2,1001.93,0.75,237772.13,2020.35,0.19,219658.39,1668.75,0.23,101728.92,2069.33,-0.00,16360.11,1383.63,0.08,3225.97
572300,1014.74,471.13,1.00,1,1,1,2658.39,0.08,68064.37,4246.13,0.09,77708.07,4285.63,0.08,91659.49,2072.57,0.00,450.53,1528.64,0.04,5391.45
586800,1121.75,480.86,1.00,1,1,1,7410.75,0.09,327755.86,7714.33,0.03,240177.48,4893.71,0.01,47245.29,2376.94,0.04,21798.83,1559.19,0.00,4501.89
601800,1242.19,478.53,1.00,1,1,1,8030.71,-0.02,70059.33,5689.58,-0.06,141345.08,4979.97,-0.03,14025.67,2921.26,0.04,36291.49,1357.58,-0.02,13541.69
623500,1330.15,467.84,1.00,1,1,1,4083.44,-0.12,183868.39,2810.48,-0.17,134203.02,3295.38,-0.08,78107.59,2862.48,0.02,3844.83,1217.75,-0.04,6541.59
638300,1343.26,460.98,1.00,1,1,1,999.49,-0.48,214063.46,371.70,-0.36,165265.53,1419.11,-0.10,126809.17,2533.62,-0.01,22619.90,1180.75,-0.01,3332.80
653400,1340.58,463.97,1.00,1,1,1,266.37,2.30,82947.05,376.82,2.29,48072.43,99.82,0.63,89159.86,1712.85,-0.07,55111.87,1259.03,0.01,5516.66
668100,1335.83,469.40,1.00,1,1,1,490.29,2.29,15236.19,324.41,2.23,3839.30,136.97,1.09,4409.68,801.14,-0.21,62943.10,1557.51,-0.00,20357.20
682000,1334.87,471.29,1.00,1,1,1,152.45,2.05,24769.03,325.97,-0.04,42475.69,97.50,0.08,8533.97,135.60,-0.70,49263.64,1484.64,-0.03,6002.59
703600,1347.40,468.91,1.00,1,1,1,590.42,-0.19,32158.26,378.02,-0.51,7970.95,241.17,-0.93,9543.95,33.40,-0.93,4785.22,1275.04,-0.05,9854.38
718600,1346.91,464.48,1.00,1,1,1,297.13,-1.68,42653.64,412.82,-1.74,30469.68,250.39,-1.05,2155.35,66.83,-1.43,2709.77,892.49,-0.12,25951.60
733300,1345.28,456.83,1.00,1,1,1,531.86,-1.78,16199.02,288.80,-2.05,11000.20,191.80,-1.72,10499.59,169.29,-0.75,8470.97,437.17,-0.19,31113.72
747900,1343.04,456.95,1.00,1,1,1,153.67,3.09,36315.26,31.26,1.05,21920.00,158.13,-2.07,4825.46,141.35,-1.19,5039.52,78.86,-0.48,24806.36
763000,1345.75,457.64,1.00,1,1,1,184.71,0.25,22157.00,55.65,-2.19,5749.80,111.81,-0.37,13597.45,128.06,-1.86,5883.45,19.83,0.01,4106.25
785100,1341.85,455.26,1.00,1,1,1,206.56,-2.59,17507.19,196.52,-0.49,9533.48,50.30,-1.93,5520.89,95.20,-1.29,3158.94,26.15,-0.57,657.75
801200,1352.36,454.08,1.00,1,1,1,657.04,-0.11,51558.15,49.18,-1.57,11078.30,76.98,-2.17,1901.16,60.81,0.04,6205.59,46.53,-1.09,1674.89
815400,1341.85,453.77,1.00,1,1,1,740.15,-3.11,98149.27,331.52,-3.07,23362.97,145.91,-0.27,13075.29,41.67,0.22,1490.78,59.73,-1.10,932.14
830000,1342.84,453.38,1.00,1,1,1,72.64,-0.38,55290.31,287.20,-0.10,42220.83,52.81,1.37,10863.49,30.28,0.86,1725.91,47.88,-1.99,3227.39
844700,1350.23,452.94,1.00,1,1,1,503.59,-0.06,29614.68,361.46,0.35,11059.38,111.29,0.57,5688.70,44.34,0.75,996.27,41.72,-2.25,902.90
859900,1352.98,457.12,1.00,1,1,1,329.09,0.99,29156.28,121.86,1.83,24392.97,119.38,0.92,2699.90,70.77,2.81,6562.39,40.43,3.09,2464.88
889600,1348.81,458.23,1.00,1,1,1,145.19,2.88,13454.48,115.06,2.41,2266.24,82.07,2.02,3708.48,14.63,1.23,2438.41,27.55,3.13,436.08
910500,1348.66,461.03,1.00,1,1,1,134.14,1.62,7874.08,52.25,2.43,3006.72,114.95,3.10,5017.93,21.18,1.84,594.63,54.72,3.09,1302.15
939100,1346.85,459.91,1.00,1,1,1,74.25,-2.59,6352.51,167.26,-2.66,5441.62,82.14,-2.78,1772.23,68.20,2.95,2155.20,19.83,2.21,1561.76
955000,1342.06,457.59,1.00,1,1,1,335.03,-2.69,16431.33,187.56,-2.39,3326.92,107.27,-2.55,2085.84,119.09,3.12,3356.20,62.05,2.78,2929.04
970200,1342.61,455.91,1.00,1,1,1,116.31,-1.25,22342.72,34.01,-1.67,10758.47,130.61,-2.57,1541.77,93.19,-3.06,1842.50,26.34,2.57,2412.03
985600,1341.96,456.55,1.00,1,1,1,59.39,2.36,11125.24,90.38,-2.90,5543.90,125.04,-3.13,4570.68,133.05,-3.01,2613.59,17.08,2.53,604.18
1007300,1339.35,455.10,1.00,1,1,1,137.40,-2.63,6159.87,227.12,3.03,6712.43,113.25,2.99,1069.95,59.33,3.13,3447.36,11.20,-3.07,504.51
1022600,1333.60,457.47,1.00,1,1,1,406.29,2.75,22107.78,155.83,2.71,6111.08,182.14,2.98,4503.52,52.76,2.73,1523.86,33.33,-0.73,2741.57
1037600,1335.06,457.08,1.00,1,1,1,100.77,-0.26,33758.22,127.73,2.86,2365.09,66.16,1.78,11319.98,52.39,2.86,459.40,77.58,-0.28,3309.82
1052500,1329.93,458.52,1.00,1,1,1,357.75,2.87,30772.77,96.46,0.73,13209.70,46.76,1.11,2782.70,22.76,-3.08,2136.87,235.32,-0.15,10651.98
1082900,1338.32,460.00,1.00,1,1,1,280.12,0.17,20467.13,125.24,0.38,1581.30,12.23,1.53,1182.18,55.21,-0.31,2528.81,136.20,-3.12,12177.76
1097500,1335.17,460.60,1.00,1,1,1,219.70,2.95,33676.26,103.04,-2.60,15585.84,109.77,-0.24,7728.89,197.90,-0.26,9781.02,906.42,3.10,52777.37
1119200,1335.11,458.08,1.00,1,1,1,116.40,-1.59,12216.07,150.17,-0.89,8921.45,168.43,-0.71,3952.21,253.86,-0.14,2836.85,1715.39,3.09,37283.71
1133800,1338.59,456.36,1.00,1,1,1,265.96,-0.46,16527.01,426.70,-0.43,20538.27,415.53,-0.38,17919.58,601.11,-0.09,23828.25,2364.42,3.10,44466.34
1149400,1346.82,452.71,1.00,1,1,1,577.27,-0.42,19981.65,770.85,-0.26,22876.61,609.26,-0.17,14176.76,219.06,-3.11,52496.70,2658.43,3.11,18875.05
1163300,1360.54,450.41,1.00,1,1,1,1000.49,-0.17,33387.12,826.91,-0.03,14150.79,1267.79,-0.07,47798.46,1822.31,3.11,115377.53,2128.69,3.12,38232.22
1177800,1370.30,452.05,1.00,1,1,1,682.54,0.17,28932.81,1766.92,0.01,64915.70,570.82,2.98,126679.10,3476.77,3.10,114138.34,2053.48,-3.14,6139.58
1193900,1414.60,451.07,1.00,2,2,2,2752.44,-0.02,129559.68,1595.72,3.03,208454.45,3977.93,3.08,211832.09,4820.55,3.10,83469.44,2078.27,-3.12,2451.68
1216400,1309.09,458.96,1.00,2,2,2,4702.39,3.07,331218.97,8725.60,3.09,317049.24,6386.52,3.09,107071.53,5389.21,3.10,25291.13,2304.27,-3.13,10088.91
1230900,1092.17,467.42,1.00,2,2,2,14971.64,3.10,708524.02,10630.71,3.10,131430.64,9326.49,3.10,202814.18,4108.00,3.12,88429.55,2318.72,-3.14,1813.70
1260000,846.07,480.07,1.00,1,1,1,8468.01,3.09,223543.36,9829.76,3.10,27604.30,9750.28,3.11,15234.56,4003.52,3.14,4967.16,2282.73,3.14,1318.41
1275100,658.03,484.61,1.00,1,1,1,12456.65,3.12,264794.42,8496.40,3.14,90889.58,4201.37,3.14,367673.93,4382.91,-3.13,25277.40,2112.23,3.12,11676.95
1290500,586.93,481.10,1.00,1,1,1,4622.35,-3.09,510006.91,559.20,-0.58,582547.12,1697.14,-2.95,165990.01,4078.54,-3.13,19771.51,2189.45,3.10,5803.76
1328300,682.96,468.37,1.00,1,1,1,2562.47,-0.13,189359.37,2323.82,-0.23,47848.53,650.26,-0.82,56003.36,2742.66,-3.12,35348.50,2219.16,3.09,915.80
1343500,706.92,453.29,1.00,1,1,1,1862.54,-0.56,76676.91,874.22,-1.09,123563.28,1051.73,-0.33,37092.16,1114.64,-3.02,107765.93,2347.30,3.10,8529.36
1358100,694.95,445.24,1.00,1,1,1,987.63,-2.55,166857.79,1265.86,-3.12,125297.62,372.90,-2.73,92412.48,431.62,-0.20,104791.99,2534.01,3.11,12894.81
1373300,669.20,452.54,1.00,1,1,1,1760.78,2.87,88955.93,1198.13,2.72,35372.18,338.09,2.76,18268.54,968.59,-0.00,36350.27,2170.26,3.14,24478.64
1387500,662.74,459.50,1.00,1,1,1,668.76,2.32,87259.75,715.63,0.40,124330.18,554.26,0.78,53245.99,260.69,0.53,53195.11,1357.36,3.14,57246.97
1402500,688.42,460.75,1.00,1,1,1,1713.84,0.05,146977.70,1569.51,0.20,58692.39,1047.24,0.47,36336.78,300.22,2.25,28433.31,526.28,3.10,55448.78
1425900,721.79,471.54,1.00,1,1,1,1499.05,0.31,20233.02,1361.71,0.50,20665.25,806.15,0.48,10319.45,285.36,2.08,2300.25,122.25,0.15,27636.68
1433500,725.44,481.02,1.00,1,1,1,1336.92,1.20,161900.02,562.81,2.21,202875.55,334.92,1.82,104976.20,201.37,0.30,50264.16,345.13,0.07,29412.89
1456100,711.70,485.21,1.00,1,1,1,635.81,2.85,67292.20,1139.35,3.10,39739.57,756.60,3.02,31335.71,349.13,0.18,6679.81,117.33,0.61,11130.27
1471000,682.76,482.98,1.00,1,1,1,1947.79,-3.06,92304.02,1220.91,-2.90,23005.66,573.88,-2.56,32891.19,228.15,1.02,17428.62,105.92,1.02,3134.48
1485000,677.40,476.92,1.00,1,1,1,578.09,-2.29,113200.70,876.93,-1.13,117187.21,314.31,-1.85,27961.81,278.51,2.60,25834.96,183.23,1.04,5527.97
1500000,693.61,459.98,1.00,1,1,1,1562.65,-0.81,108003.68,1021.41,-0.31,50965.37,355.22,0.12,37320.72,325.86,2.99,8370.88,195.41,0.66,4793.58
1515000,706.54,467.43,1.00,1,1,1,995.30,0.52,109380.08,901.29,1.19,87944.72,282.87,0.74,13640.31,33.23,3.10,19524.73,139.81,0.37,4915.56
1530600,703.77,485.62,1.00,1,1,1,1179.14,1.72,79263.23,714.02,2.16,49303.59,444.45,1.96,28008.22,307.62,-0.18,21831.91,30.84,0.70,7119.62
1552700,691.57,489.80,1.00,1,1,1,583.60,2.81,47308.79,584.67,3.04,25613.67,265.17,1.52,10564.99,328.33,0.21,5555.53,75.68,-2.47,4819.58
1567500,682.30,487.77,1.00,1,1,1,641.13,-2.93,22654.58,548.96,-0.27,76317.66,294.75,-0.50,32028.82,212.18,0.97,15474.93,159.62,-2.43,5680.04
1582800,707.49,485.38,1.00,1,1,1,1653.74,-0.09,148540.79,1345.59,-0.29,52079.69,452.66,-0.16,13152.76,72.45,2.55,14686.68,150.56,-2.53,1148.18
1597600,721.10,476.16,1.00,1,1,1,1111.18,-0.60,58390.41,365.63,0.02,67770.87,378.53,-0.10,5276.78,127.98,-1.99,10641.15,85.53,-0.74,12745.05
1613000,718.53,485.55,1.00,1,1,1,632.60,1.84,106758.12,304.06,2.44,40743.41,206.80,-2.23,33748.24,220.40,-1.17,10576.66,83.94,-0.35,2115.90
1642700,710.63,485.01,1.00,1,1,1,266.57,-3.07,21418.22,537.22,-2.60,17686.67,286.37,-2.78,5194.49,242.85,-1.36,1646.31,38.39,2.28,4002.40
1657700,697.95,473.18,1.00,1,1,1,1156.26,-2.39,64273.81,470.09,-2.26,12093.08,319.26,-2.03,15022.00,252.07,-2.46,17326.70,165.91,-3.03,9845.73
1693800,695.29,466.53,1.00,1,1,1,198.52,-1.95,27156.47,326.22,-1.13,12334.96,491.92,-2.10,4852.19,144.15,-2.71,3265.92,318.56,-2.79,4506.56
1708400,705.05,458.24,1.00,1,1,1,876.50,-0.70,57174.69,554.63,-1.87,26316.93,301.84,-2.60,18421.79,152.36,-2.39,3296.74,398.49,-2.84,5594.19
1723600,690.41,450.74,1.00,1,1,1,1082.19,-2.67,107412.79,930.20,3.06,64223.98,90.11,0.04,25228.20,198.10,-2.54,3491.21,300.34,-2.94,6879.55
1738700,676.96,460.64,1.00,1,1,1,1105.92,2.51,76287.71,634.12,1.00,89276.40,166.54,2.00,14372.44,276.44,-2.87,7240.43,351.00,-3.12,5029.95
1753600,700.68,466.75,1.00,2,2,2,1643.50,0.25,167387.62,657.18,0.33,28743.64,269.99,1.80,7506.53,625.67,-2.98,23633.36,340.09,3.10,1807.18
1776300,700.38,468.54,1.00,1,1,1,79.93,1.74,72184.16,385.79,3.02,44889.79,276.43,3.05,14138.94,957.34,-3.12,15412.64,254.85,-2.70,7295.63
1791000,686.35,468.48,1.00,1,1,1,954.08,-3.14,64252.34,1463.80,-2.99,74598.54,1265.90,-2.99,68022.95,738.53,2.92,20016.92,198.10,-2.54,4534.38
1805100,658.68,462.30,1.00,1,1,1,2010.56,-2.92,77836.53,2407.44,-2.93,67409.88,2008.72,-3.03,52951.60,556.25,2.84,13479.79,276.44,-2.87,7753.93
1820400,617.12,453.77,1.00,1,1,1,2773.35,-2.94,49927.40,2548.14,-3.06,22355.08,1474.38,3.11,38037.51,591.15,2.97,5224.32,625.67,-2.98,23015.50
1834300,584.54,456.10,1.00,1,1,1,2349.95,3.07,58663.95,832.96,2.38,150209.51,839.01,2.77,53178.17,400.99,-2.85,21206.98,957.34,-3.12,25170.28
1850200,599.10,470.84,1.00,1,1,1,1303.25,0.79,210511.77,886.78,0.90,73198.93,404.76,1.37,54510.51,1474.38,3.11,69231.37,738.53,2.92,18506.21
1872700,605.77,482.72,1.00,1,1,1,605.53,1.06,32749.26,669.41,0.40,19540.87,980.34,-0.03,44342.30,839.01,2.77,32852.29,556.25,2.84,8447.33
1888000,622.44,480.60,1.00,1,1,1,1098.37,-0.13,67694.33,1796.08,-0.56,98813.68,669.41,0.40,30317.98,404.76,1.37,56648.18,591.15,2.97,5224.32
1902900,651.75,453.95,1.00,1,1,1,2659.05,-0.74,125481.26,2659.05,-0.74,63571.63,1796.08,-0.56,101466.39,980.34,-0.03,66959.85,400.99,-2.85,19783.69
