@RELATION gaze_labels

%@METADATA width_px 1920
%@METADATA height_px 1080
%@METADATA width_mm 540.00
%@METADATA height_mm 254.00
%@METADATA distance_mm 620.00


@ATTRIBUTE time INTEGER
@ATTRIBUTE x NUMERIC
@ATTRIBUTE y NUMERIC
@ATTRIBUTE confidence NUMERIC
@ATTRIBUTE handlabeller1 INTEGER
@ATTRIBUTE handlabeller2 INTEGER
@ATTRIBUTE handlabeller_final INTEGER
@ATTRIBUTE speed_1 numeric
@ATTRIBUTE direction_1 numeric
@ATTRIBUTE acceleration_1 numeric
@ATTRIBUTE speed_2 numeric
@ATTRIBUTE direction_2 numeric
@ATTRIBUTE acceleration_2 numeric
@ATTRIBUTE speed_4 numeric
@ATTRIBUTE direction_4 numeric
@ATTRIBUTE acceleration_4 numeric
@ATTRIBUTE speed_8 numeric
@ATTRIBUTE direction_8 numeric
@ATTRIBUTE acceleration_8 numeric
@ATTRIBUTE speed_16 numeric
@ATTRIBUTE direction_16 numeric
@ATTRIBUTE acceleration_16 numeric

%The number after speed, direction denotes the step size that was used for the calculation.
%Acceleration was calculated between two adjacent samples of the already low pass filtered velocity

@DATA
0,-48.80,511.39,1.00,0,0,0,0.00,0.00,0.00,3256.72,0.06,0.00,3130.74,0.11,0.00,1336.41,0.23,0.00,558.90,0.25,0.00
30500,50.35,517.41,1.00,1,1,1,3256.72,0.06,106777.66,3130.74,0.11,6272.43,1017.64,0.40,71306.85,314.93,2.27,49364.83,166.56,2.39,21750.86
45200,91.92,526.33,1.00,1,1,1,2892.31,0.21,40016.54,1017.64,0.40,147949.59,1336.41,0.23,25299.95,653.65,3.05,32873.59,494.60,2.95,24859.59
75400,92.52,535.00,1.00,1,1,1,287.77,1.50,93583.46,600.78,2.66,48838.59,314.93,2.27,49855.21,912.13,-3.06,9574.97,524.39,2.98,1108.50
89900,68.16,538.85,1.00,1,1,1,1700.67,2.98,117227.53,1907.44,3.13,96633.63,653.65,3.05,33327.02,558.90,0.25,101106.92,518.98,2.98,437.77
105500,35.11,535.46,1.00,1,1,1,2130.07,-3.04,41858.16,814.71,-2.90,72918.26,912.13,-3.06,18536.16,166.56,2.39,42525.73,304.78,0.07,52476.99
128300,37.82,531.23,1.00,1,1,1,220.51,-1.00,98166.76,177.04,-2.23,30014.72,485.04,-2.96,18992.19,494.60,2.95,16027.89,1079.75,-0.07,34164.46
143000,31.05,530.21,1.00,1,1,1,466.12,-2.99,40238.65,80.14,2.34,13892.93,40.00,-2.38,30755.03,524.39,2.98,2277.32,2522.63,-0.13,98376.39
156900,36.22,532.87,1.00,1,1,1,418.61,0.47,62811.71,137.66,1.01,10220.62,285.42,2.63,19895.14,518.98,2.98,456.67,2331.03,-0.07,17142.77
172200,33.18,533.61,1.00,1,1,1,204.50,2.90,38463.50,490.11,2.67,34054.33,267.70,1.81,14332.15,304.78,0.07,53505.95,2851.23,-0.08,34009.55
186100,23.46,539.33,1.00,1,1,1,811.93,2.61,44520.50,450.97,2.04,21339.26,606.20,2.70,34735.21,1079.75,-0.07,56039.54,2964.67,-0.08,8228.61
201400,27.27,545.38,1.00,1,1,1,467.02,1.01,62038.00,697.28,2.71,29132.07,641.74,0.11,78495.30,2522.63,-0.13,94518.49,3304.49,-0.09,22324.06
223400,-0.19,550.17,1.00,2,2,2,1266.89,2.97,68530.10,1310.47,-0.15,90441.52,2237.87,-0.12,73572.14,4595.82,-0.12,94250.15,2985.77,-0.10,14518.76
238700,75.62,538.17,1.00,2,2,2,5016.12,-0.16,410645.97,5900.28,-0.16,300000.80,4860.34,-0.17,171844.16,6049.52,-0.09,95381.50,2774.89,-0.10,13786.00
253000,172.14,521.77,1.00,2,2,2,6846.47,-0.17,128082.08,9539.88,-0.18,254659.24,10475.41,-0.14,393057.50,6648.81,-0.09,41969.67,2946.84,-0.10,12052.91
267000,341.26,489.97,1.00,2,2,2,12291.70,-0.19,389114.16,15163.79,-0.13,403973.75,11545.32,-0.11,80974.68,6972.20,-0.10,23370.08,2976.78,-0.09,2732.40
281900,606.68,465.05,1.00,3,3,3,17892.28,-0.09,386927.67,13097.83,-0.06,151869.42,11168.97,-0.08,30420.89,6350.85,-0.10,41822.25,2762.14,-0.09,14438.15
304300,828.80,458.60,1.00,1,1,1,9919.93,-0.03,357970.33,8030.15,-0.01,227454.83,9097.25,-0.05,93373.65,4833.67,-0.11,67742.69,2675.07,-0.10,3912.44
318300,898.96,461.29,1.00,1,1,1,5015.17,0.04,351982.25,3884.11,-0.01,296146.03,3369.62,-0.02,409320.49,4395.08,-0.10,31439.71,2695.78,-0.10,1619.04
332900,939.87,457.31,1.00,1,1,1,2815.76,-0.10,154604.48,480.55,-3.04,298762.17,176.34,-0.25,219043.76,3328.56,-0.06,73691.02,2757.32,-0.10,4320.12
362400,877.87,459.14,1.00,1,1,1,2102.62,3.11,166632.17,1441.09,-3.11,32623.66,269.95,-2.73,14352.55,1466.27,-0.04,63163.50,2950.42,-0.10,6545.91
398800,844.95,454.50,1.00,1,1,1,913.48,-3.00,33298.27,165.77,-1.88,38335.68,658.38,-3.12,11574.89,151.25,-0.16,36163.29,2618.48,-0.10,9120.86
413800,875.31,451.01,1.00,1,1,1,2037.62,-0.11,195383.18,1090.38,0.05,77211.49,136.54,-2.90,35078.09,255.34,-3.03,26874.65,2385.86,-0.09,15616.35
428300,877.08,456.03,1.00,1,1,1,367.00,1.23,137149.29,253.50,2.69,90920.38,124.42,-0.02,17841.77,383.52,-3.13,9095.51,2116.86,-0.04,19916.90
458300,865.17,455.95,1.00,1,1,1,396.86,-3.13,20832.81,417.94,-3.06,7908.47,269.04,2.90,13043.29,31.74,-0.32,13787.62,1724.72,0.01,13596.13
480900,855.16,454.31,1.00,1,1,1,448.85,-2.98,3705.61,300.73,3.11,5476.91,61.13,3.02,9227.87,99.74,0.23,3301.28,1542.29,0.05,8467.75
495700,853.93,456.34,1.00,1,1,1,159.99,2.12,28124.08,599.34,0.13,60623.63,267.26,0.09,22118.49,97.33,0.38,1051.48,1649.77,0.06,7313.46
509500,872.15,456.61,1.00,1,1,1,1320.20,0.02,102030.65,1008.25,0.04,30102.39,82.19,0.77,15225.84,805.04,0.04,51754.05,1549.44,0.08,7734.08
524300,882.74,457.50,1.00,1,1,1,718.44,0.08,40906.70,455.99,3.06,98788.29,581.25,-0.01,35533.18,2069.49,0.06,85456.33,1829.40,0.06,18999.10
539300,858.60,457.66,1.00,2,2,2,1609.62,3.13,155069.44,180.75,-0.25,42314.62,1847.69,0.03,84471.17,3490.73,0.06,94749.70,2064.29,0.07,15709.04
554300,887.99,456.13,1.00,2,2,2,1962.12,-0.05,238055.68,3671.51,0.02,233196.48,3818.82,0.06,131486.44,4323.10,0.06,55491.52,1846.62,0.09,14656.79
576900,996.62,460.68,1.00,3,3,3,4810.56,0.04,126679.07,6698.03,0.06,134246.99,6435.28,0.06,115774.64,4231.95,0.07,4428.82,1841.89,0.08,727.68
592300,1141.99,472.59,1.00,1,1,1,9471.19,0.08,303146.45,9857.29,0.07,205167.91,7558.43,0.07,73112.72,4129.56,0.07,6700.30,2037.78,0.08,12721.64
607300,1295.54,481.73,1.00,1,1,1,10254.93,0.06,54276.68,8655.61,0.07,80124.20,6921.28,0.08,43248.78,4252.79,0.07,8232.72,2115.38,0.08,5188.53
622100,1399.33,490.13,1.00,1,1,1,7035.64,0.08,217862.27,3888.49,0.12,322677.40,4489.99,0.08,164285.47,3688.01,0.08,38290.89,2074.93,0.07,3220.98
636700,1409.08,495.09,1.00,1,1,1,749.43,0.47,434862.78,217.11,0.53,252799.45,1707.60,0.14,190907.82,3064.88,0.09,42781.06,1839.77,0.07,16111.21
651000,1404.73,493.31,1.00,1,1,1,328.30,-2.75,75312.27,524.52,3.12,50231.46,312.18,2.82,139308.46,2004.93,0.10,74133.42,1682.42,0.06,11026.68
665500,1393.97,495.42,1.00,1,1,1,756.08,2.95,35492.07,678.49,3.01,11566.88,419.42,3.06,9541.75,735.68,0.18,87792.72,1635.98,0.06,3235.15
688100,1379.78,496.65,1.00,1,1,1,630.26,3.05,6448.62,340.21,2.99,14972.18,191.79,2.74,10844.42,180.95,2.99,40208.59,1556.20,0.07,3586.10
703000,1381.36,497.32,1.00,1,1,1,114.72,0.40,49237.69,440.45,0.13,51897.08,121.36,2.75,4729.01,313.94,-3.03,9827.30,1215.70,0.08,22876.95
718100,1392.89,498.34,1.00,1,1,1,766.61,0.09,43597.16,173.41,0.23,17788.28,72.74,-2.34,7687.38,397.59,-3.03,5542.02,725.71,0.07,32450.63
732900,1386.40,498.51,1.00,2,2,2,438.35,3.12,81291.22,558.18,-2.85,49416.39,237.83,-2.73,11687.52,363.72,-2.98,2618.38,232.68,0.07,33313.89
748300,1376.74,493.50,1.00,3,3,3,706.77,-2.66,25094.14,509.10,-2.77,4154.07,591.73,-2.89,23305.21,256.44,-2.89,7162.01,162.53,-3.05,25660.30
778000,1364.98,490.25,1.00,1,1,1,410.82,-2.87,10656.12,611.75,-2.92,4375.96,544.85,-2.89,1578.47,261.93,-2.91,246.38,233.28,-3.05,2382.17
800100,1345.85,486.42,1.00,1,1,1,882.66,-2.94,21441.66,580.99,-2.99,2332.61,377.29,-2.95,7679.60,297.61,-2.91,1615.13,227.56,-3.13,930.96
830800,1334.68,485.48,1.00,1,1,1,365.33,-3.06,16981.70,115.09,3.10,15268.40,289.47,-3.04,3008.31,176.98,-2.68,4292.65,162.00,-3.12,2137.32
845800,1340.60,486.65,1.00,1,1,1,402.37,0.19,51101.33,224.05,0.35,22213.59,24.67,0.79,20592.14,156.15,-2.83,2135.85,64.53,-3.05,6517.88
861100,1341.05,487.82,1.00,1,1,1,82.27,1.21,23879.90,221.94,0.17,2717.81,444.75,0.02,27930.83,157.11,-3.08,2554.77,42.33,-2.68,1907.25
875800,1347.17,487.75,1.00,1,1,1,416.15,-0.01,26891.76,686.10,-0.08,32258.94,177.75,-0.09,18287.17,68.61,2.42,8065.40,68.62,-2.66,1789.15
890800,1361.35,486.12,1.00,1,1,1,952.12,-0.11,35985.12,154.16,-0.39,36066.44,16.25,1.08,11469.14,120.85,0.63,10107.11,50.29,-0.86,6262.58
912300,1352.37,485.62,1.00,1,1,1,418.34,-3.09,63547.01,545.80,3.01,32375.16,151.46,2.61,7054.54,180.09,0.37,3267.83,329.67,-3.00,16709.77
927400,1341.56,488.78,1.00,1,1,1,746.34,2.86,25066.16,525.83,2.66,12273.20,255.08,2.62,6863.24,225.74,0.14,4370.34,1066.25,-3.13,49032.84
942000,1338.51,492.82,1.00,1,1,1,346.38,2.22,35113.88,270.79,0.81,44846.54,222.48,0.79,25991.57,212.47,0.05,1566.36,1824.55,-3.14,51946.57
956100,1346.91,494.41,1.00,1,1,1,605.91,0.19,58159.92,796.70,0.09,43956.73,446.81,0.11,21817.17,260.31,0.04,3401.29,2563.50,-3.14,52407.70
971100,1361.60,494.89,1.00,1,1,1,980.38,0.03,26205.87,652.44,-0.11,13500.76,558.79,-0.10,10107.64,558.34,-3.06,54566.67,2788.87,-3.12,15202.23
992300,1370.39,491.87,1.00,1,1,1,438.14,-0.33,27917.48,399.77,-0.40,13775.62,732.48,-0.14,8298.20,2138.53,-3.13,74621.26,2375.69,-3.11,19597.48
1008000,1375.22,489.21,1.00,1,1,1,351.25,-0.50,7013.77,825.57,-0.17,28316.86,1194.67,-2.96,121221.39,3607.91,-3.12,93599.84,2292.14,-3.09,6071.36
1023700,1395.93,487.42,1.00,2,2,2,1323.95,-0.09,64520.97,3026.19,-3.04,243832.96,4851.55,-3.12,234281.96,4912.33,-3.12,83084.26,2250.83,-3.10,2907.32
1039000,1281.85,480.08,1.00,2,2,2,7471.32,-3.08,574023.26,10701.03,-3.14,502828.62,7266.71,-3.13,157901.58,5386.17,-3.11,31170.68,2369.78,-3.10,7812.14
1054100,1070.62,486.15,1.00,2,2,2,13994.75,3.11,436575.18,10257.60,3.13,30749.57,10033.37,-3.13,183226.49,4536.28,-3.10,56396.47,2082.65,-3.11,19109.42
1083100,829.51,484.27,1.00,1,1,1,8314.30,-3.13,196348.95,9572.13,-3.13,24457.63,9205.69,-3.13,28555.12,4393.10,-3.09,5473.37,2072.93,-3.10,775.05
1098100,649.46,482.31,1.00,1,1,1,12003.95,-3.13,245984.97,7702.25,-3.10,126397.77,4334.57,-3.09,325252.31,4194.51,-3.10,13479.21,2056.02,-3.11,1640.63
1113800,593.30,473.48,1.00,1,1,1,3621.26,-2.99,537385.21,362.76,-1.29,496418.25,1808.62,-2.92,163602.31,3774.71,-3.11,26836.78,2123.49,-3.12,4311.29
1150200,654.65,464.13,1.00,1,1,1,1704.89,-0.15,144825.41,1798.12,-0.24,45346.50,395.78,-0.79,56203.96,2046.53,-3.10,47478.09,2263.66,-3.11,3871.27
1165600,683.88,451.78,1.00,1,1,1,2060.54,-0.40,37997.14,524.57,-0.40,83365.07,833.66,-0.21,35529.05,868.89,-3.04,76676.04,2328.19,-3.10,4234.29
1195400,676.47,454.85,1.00,1,1,1,269.20,2.75,78178.89,525.98,2.83,35218.96,206.60,0.31,22249.35,201.92,-0.19,35693.00,2424.92,-3.11,3246.47
1202400,665.47,457.76,1.00,1,1,1,1625.17,2.88,194124.87,297.40,1.73,67185.18,193.37,2.10,44595.95,473.23,0.04,40094.52,1989.31,-3.11,62230.50
1248100,673.91,470.32,1.00,1,1,1,331.00,0.98,38543.85,225.31,0.85,5090.45,269.59,1.17,4779.22,28.43,1.29,10172.91,1249.60,-3.09,16193.45
1262600,674.40,467.97,1.00,1,1,1,165.35,-1.36,31848.14,411.01,0.42,15601.76,253.57,0.99,3431.51,273.30,2.90,19030.37,491.54,-3.07,52294.15
1278100,685.14,475.39,1.00,1,1,1,842.47,0.60,59302.89,319.58,1.18,18318.59,301.58,-3.04,32378.89,292.05,3.02,2534.81,124.37,-0.16,39557.27
1293100,678.07,477.00,1.00,1,1,1,483.23,2.92,81486.97,1001.64,-2.91,81032.75,542.35,-2.96,16175.36,137.03,-3.11,10542.55,312.83,0.03,12831.42
1308100,655.91,468.44,1.00,1,1,1,1583.99,-2.77,80882.30,1296.94,-2.75,23039.98,878.26,-2.84,23103.78,46.49,-2.32,7281.77,78.64,0.72,17119.23
1323100,642.10,462.17,1.00,1,1,1,1010.95,-2.71,38517.77,758.32,-2.75,35908.80,592.71,-2.61,21955.33,55.83,0.85,6820.92,127.91,2.05,8880.67
1337600,635.24,459.88,1.00,1,1,1,498.82,-2.82,35690.18,148.49,-1.24,52705.41,211.35,-0.17,52844.83,16.65,0.33,2906.27,134.30,2.51,4142.47
1359900,643.90,457.01,1.00,1,1,1,409.04,-0.32,38650.99,935.39,0.17,41409.23,578.42,0.29,17980.82,86.16,-0.02,3172.98,160.79,2.76,2033.26
1375200,669.88,465.99,1.00,1,1,1,1796.64,0.33,97564.59,1293.05,0.43,29836.15,804.31,0.30,14771.79,147.97,0.59,5992.55,161.25,-3.14,4018.04
1389900,679.10,473.30,1.00,1,1,1,800.51,0.67,73062.89,666.59,0.53,43039.89,820.81,0.41,6226.46,263.01,0.72,8008.51,277.14,-0.02,29821.43
1405200,687.14,476.08,1.00,1,1,1,556.08,0.33,21627.87,349.77,0.34,21546.84,217.90,1.45,47945.82,152.10,0.98,8013.02,900.65,-0.01,40752.16
1419900,689.00,476.79,1.00,1,1,1,135.11,0.37,28643.72,537.51,2.96,58448.00,269.35,2.41,15663.29,216.78,2.43,17000.93,1497.33,0.03,40741.09
1434800,671.48,478.88,1.00,1,1,1,1183.93,3.02,87583.36,777.19,2.82,17234.16,613.70,3.12,29976.41,280.31,3.03,10680.23,1884.16,0.08,26565.07
1449500,667.16,484.02,1.00,1,1,1,456.84,2.27,61633.60,684.61,-3.06,20907.59,1004.51,-3.11,26711.19,475.58,-0.09,51419.06,1975.82,0.13,9285.08
1471300,646.58,476.76,1.00,1,1,1,1000.81,-2.80,43225.38,1250.67,-2.93,26493.17,516.03,-2.93,23167.22,1594.99,-0.02,51431.26,1895.29,0.16,4284.09
1485400,623.23,474.70,1.00,1,1,1,1662.27,-3.05,52219.90,387.45,-2.75,61895.18,910.71,-0.20,99237.06,2502.10,0.03,64697.41,1915.68,0.14,2344.51
1515400,630.80,470.20,1.00,2,2,2,293.53,-0.54,63605.56,2162.92,-0.06,83889.14,3117.36,-0.02,74268.30,3126.11,0.06,21018.13,2026.17,0.09,5029.61
1545400,752.76,466.72,1.00,2,2,2,4067.02,-0.03,127107.27,6075.26,0.01,130661.77,4541.92,0.03,47870.94,3221.90,0.10,5040.19,2190.57,0.05,6211.05
1567200,945.50,471.91,1.00,2,2,2,8844.16,0.03,219664.27,7270.08,0.06,57628.98,6102.22,0.07,72304.58,3291.59,0.13,5503.67,2253.43,0.04,3099.14
1598000,1134.39,491.13,1.00,3,3,3,6164.57,0.10,88812.18,6165.85,0.15,40465.71,5964.25,0.15,16186.24,3362.41,0.11,3259.07,2297.21,0.04,1421.92
1613900,1230.20,515.00,1.00,3,3,3,6209.98,0.24,55602.30,3893.25,0.45,170719.48,3601.96,0.29,154000.70,3994.66,0.08,40359.88,2356.56,0.04,3747.86
1627900,1238.99,542.22,1.00,3,3,3,2042.85,1.26,386860.80,1468.77,2.15,309019.46,1504.93,0.52,154486.47,3988.18,0.07,3579.66,2386.04,0.03,2501.78
1643000,1206.88,550.82,1.00,3,3,3,2201.67,2.88,203867.36,502.84,-3.06,86557.07,822.10,0.14,53092.69,3009.06,0.07,64852.25,2525.39,0.04,9319.04
1664200,1220.80,540.72,1.00,1,1,1,811.22,-0.63,140255.03,2248.02,-0.35,127934.32,1683.61,-0.32,47980.20,2007.33,0.05,47323.36,2531.07,0.04,431.47
1679300,1283.43,522.56,1.00,1,1,1,4318.71,-0.28,236156.49,4286.73,-0.27,136186.53,2592.27,-0.28,60427.04,1262.06,-0.06,50793.99,2665.85,0.05,9046.32
1694200,1344.85,506.82,1.00,1,1,1,4255.37,-0.25,9931.42,3023.13,-0.22,85579.60,2850.09,-0.22,20844.69,1259.51,-0.24,14808.01,2376.06,0.06,19655.66
1709200,1371.66,502.90,1.00,1,1,1,1806.22,-0.14,164447.45,1414.09,-0.07,109151.24,1773.23,-0.17,72208.17,1609.98,-0.22,23468.56,1725.08,0.08,43425.33
1723800,1386.60,503.78,1.00,1,1,1,1024.87,0.06,56762.18,542.32,0.13,60895.76,810.29,-0.04,66717.19,1519.89,-0.16,8578.88,1116.12,0.05,41764.47
1738900,1387.64,504.94,1.00,1,1,1,103.49,0.84,63206.57,220.48,0.13,21314.56,671.67,0.04,10110.01,1134.65,-0.08,26346.43,858.86,-0.04,18096.87
1753900,1393.18,504.65,1.00,1,1,1,369.82,-0.05,21047.81,776.24,-0.01,37241.48,566.59,0.06,7037.44,678.51,0.05,31355.47,855.39,-0.15,6413.01
1776500,1416.82,504.79,1.00,1,1,1,1046.34,0.01,29979.57,768.89,0.05,1776.31,680.66,0.07,5066.15,436.70,0.10,10774.85,748.61,-0.25,5834.52
1805500,1432.81,506.47,1.00,1,1,1,554.26,0.10,17163.25,603.17,0.16,6322.91,587.04,0.14,3519.18,362.22,0.07,2601.22,173.46,-2.39,29471.66
1820400,1442.96,509.04,1.00,1,1,1,702.80,0.25,11652.64,305.31,0.55,22867.07,227.28,0.25,24308.20,521.47,0.01,10844.13,1286.74,-3.14,78256.33
1835500,1440.62,511.25,1.00,1,1,1,212.79,2.39,55393.05,323.73,-3.14,40114.16,113.30,0.14,7650.52,553.71,-0.00,2152.72,2336.87,3.11,69645.19
1850700,1433.15,509.02,1.00,1,1,1,513.00,-2.85,29358.55,101.69,-1.65,21806.05,335.78,-0.16,15118.63,48.07,-1.57,36565.98,2801.04,3.11,30538.74
1872500,1440.33,507.50,1.00,1,1,1,336.65,-0.21,37821.72,870.52,-0.11,40048.41,532.45,-0.16,9022.07,1752.65,3.14,80429.87,2812.14,3.12,1789.41
1887900,1465.33,505.43,1.00,1,1,1,1629.18,-0.08,84148.90,969.30,-0.07,6891.41,246.12,-2.52,47312.33,3449.27,3.12,110223.39,2618.83,-3.14,13350.89
1917300,1483.65,504.51,1.00,2,2,2,623.84,-0.05,34213.54,1105.63,-2.98,70092.11,3432.05,-3.14,110036.38,5031.92,3.12,53832.10,2586.56,-3.14,1099.12
1932400,1416.81,497.30,1.00,2,2,2,4452.33,-3.03,335721.15,10090.49,3.13,596280.22,6276.41,3.11,188608.37,5574.57,3.12,35946.90,2732.38,-3.13,9764.38
1946900,1184.99,507.22,1.00,2,2,2,16002.55,3.10,801351.72,11322.91,3.09,89784.22,11000.44,3.11,325794.83,5804.05,3.13,16276.19,2908.85,-3.11,12505.58
1978200,898.83,522.35,1.00,1,1,1,9155.24,3.09,218798.16,11580.48,3.10,8704.75,10850.44,3.10,5704.91,5597.22,-3.14,7600.26,2996.27,-3.12,2807.36
1993500,645.78,529.11,1.00,1,1,1,16544.91,3.11,483440.98,10275.05,3.12,86077.18,7923.18,3.12,191596.06,6192.45,-3.14,38904.13,3015.46,-3.11,2290.47
2015700,513.63,531.83,1.00,1,1,1,5954.01,3.12,477075.47,3294.13,-3.08,315319.25,4693.98,-3.07,147582.42,5729.50,-3.14,20853.54,2897.92,-3.12,5457.05
2030200,525.14,521.33,1.00,1,1,1,1074.22,-0.74,468912.76,2691.06,-0.41,401460.13,790.76,-2.55,277881.94,4006.56,-3.10,119461.87,2952.37,-3.13,4846.92
2045000,586.02,500.59,1.00,1,1,1,4346.25,-0.33,228981.46,2730.45,-0.27,25079.00,1650.88,-0.41,147285.55,2470.72,-3.03,104765.28,3054.53,-3.13,6904.35
2059600,602.48,499.84,1.00,1,1,1,1128.20,-0.05,224509.62,617.80,-0.42,145313.79,1129.74,-0.56,38327.81,706.95,-2.59,127230.60,3378.55,-3.13,22200.86
2074500,602.66,493.14,1.00,1,1,1,449.21,-1.54,79436.22,630.98,-2.24,66268.49,288.99,-2.30,81297.32,728.47,-0.51,82971.33,3099.46,3.14,19075.49
2096000,588.14,481.89,1.00,1,1,1,854.24,-2.48,32145.06,828.56,-2.91,23923.84,624.43,-2.64,16987.93,658.91,-0.28,8136.99,2195.42,-3.13,42098.59
2110700,573.44,486.38,1.00,1,1,1,1045.99,2.85,60565.24,737.76,-3.05,9566.61,170.41,-2.59,30901.39,132.54,-0.31,35813.27,1061.61,-3.07,77325.08
2125600,566.40,479.92,1.00,1,1,1,641.04,-2.40,60911.78,653.84,0.05,93371.97,392.53,0.79,37543.73,207.68,-2.83,21783.53,141.47,-2.40,64077.31
2140700,593.03,487.26,1.00,1,1,1,1829.75,0.27,160139.75,1415.73,0.45,56707.76,498.65,0.31,15657.01,285.04,2.97,9241.91,399.04,-0.31,32133.54
2155600,604.56,498.56,1.00,1,1,1,1083.26,0.78,68928.11,404.48,0.75,69507.71,272.11,0.81,19527.83,142.59,1.96,16234.66,245.81,-0.43,10597.30
2170600,601.88,495.51,1.00,1,1,1,270.74,-2.29,90228.15,929.58,-2.89,86576.94,454.95,2.73,40248.60,424.29,0.33,30375.19,34.47,-1.16,14738.91
2185500,577.61,491.75,1.00,1,1,1,1647.78,-2.99,97323.63,1005.38,3.03,23471.04,350.75,-3.14,13146.03,458.73,0.44,3970.55,60.12,-1.32,1791.95
2207100,565.39,499.45,1.00,1,1,1,668.80,2.58,56696.33,211.13,1.07,51098.70,357.81,0.36,32294.39,166.82,0.71,13952.15,67.66,-0.55,2241.31
2221900,581.31,498.49,1.00,1,1,1,1077.31,-0.06,114489.81,1948.89,0.07,124492.33,650.59,0.30,19859.89,131.54,-2.86,19709.95,79.71,2.91,9829.26
2237400,624.28,503.84,1.00,1,1,1,2793.85,0.12,112642.08,1272.34,0.16,44522.16,730.33,0.04,12888.78,85.75,-2.86,2953.82,30.69,2.86,3167.20
2251700,618.73,504.56,1.00,1,1,1,391.12,3.01,221960.33,529.81,-2.96,126017.60,87.79,-0.86,47471.12,187.16,-0.29,18417.11,306.47,-0.00,23501.88
2266800,608.96,501.00,1.00,1,1,1,688.60,-2.79,25568.36,676.84,-2.81,11467.71,457.24,-2.81,32890.24,360.88,-0.30,11505.44,677.58,-0.06,24647.33
2303000,585.96,493.10,1.00,1,1,1,671.97,-2.81,581.07,420.62,-2.70,7236.23,254.79,-2.08,8781.53,121.56,-2.49,12229.30,967.27,-0.13,8143.16
2317100,589.81,492.01,1.00,1,1,1,283.88,-0.27,65225.75,511.14,-0.45,59731.45,215.62,-1.05,16555.26,375.82,-2.89,19039.88,1144.93,-0.08,13073.66
2348300,606.81,483.03,1.00,1,1,1,616.21,-0.49,11020.73,666.93,-0.30,5738.17,275.37,-2.84,12331.50,268.93,-0.59,18911.32,1098.36,-0.06,1749.70
2363400,619.32,482.93,1.00,2,2,2,828.76,-0.01,26458.27,1372.26,3.05,134438.29,301.60,-3.01,3761.39,1112.53,-0.14,58178.33,1008.05,-0.07,6040.49
2378000,566.24,486.95,1.00,2,2,2,3646.11,3.07,306392.65,1479.76,3.03,7449.29,723.43,-0.06,69940.54,2096.21,-0.10,67504.04,946.97,-0.08,4242.82
2400400,564.89,488.82,1.00,3,3,3,103.14,2.20,159842.93,2391.81,-0.08,172820.89,2545.64,-0.05,81356.51,2404.58,-0.07,14170.96,819.56,-0.08,5690.76
2415300,655.18,479.91,1.00,1,1,1,6089.06,-0.10,413275.81,7574.68,-0.06,347881.97,4723.65,-0.08,146359.59,2282.92,-0.03,10007.41,801.01,-0.09,1287.96
2430000,788.69,475.20,1.00,1,1,1,9087.81,-0.04,206473.03,7642.38,-0.08,9310.03,6204.81,-0.06,101061.58,1782.76,-0.02,34106.12,816.90,-0.09,1089.29
2445100,882.26,462.52,1.00,1,1,1,6253.30,-0.13,194146.85,4835.17,-0.05,186254.01,4054.37,-0.03,142758.93,2172.05,-0.04,25914.47,960.03,-0.09,9488.69
2459600,931.64,468.29,1.00,1,1,1,3428.99,0.12,210546.11,562.65,0.75,307559.48,1020.55,0.06,209582.23,2356.98,-0.02,13088.28,904.42,-0.12,4518.09
2474300,894.31,473.69,1.00,1,1,1,2566.21,3.00,404469.13,2076.73,3.00,167957.03,489.39,2.68,99674.84,1552.94,0.02,54898.15,867.28,-0.10,2864.62
2496300,856.22,479.30,1.00,1,1,1,1749.67,3.00,37116.15,1129.65,3.07,43323.66,1122.21,2.93,29947.97,477.03,0.04,48913.40,889.51,-0.06,1811.01
2510400,853.64,476.75,1.00,1,1,1,257.77,-2.36,114046.13,193.96,0.96,87963.11,712.62,2.93,29049.18,143.77,2.81,43485.44,1079.04,-0.04,13546.93
2525400,859.47,483.92,1.00,1,1,1,616.27,0.89,58198.27,289.91,2.20,19425.03,22.55,-2.26,46838.01,559.55,-3.04,28881.61,1119.66,-0.03,2736.60
2539900,848.64,483.69,1.00,1,1,1,747.30,-3.12,85435.57,165.32,-2.20,25906.29,139.51,-0.71,9724.66,366.52,-2.87,14312.97,702.76,0.00,28828.25
2569500,855.17,478.03,1.00,1,1,1,291.86,-0.71,33225.79,380.41,-0.81,13074.61,318.40,-1.96,10291.91,89.28,-1.19,13051.81,149.81,-0.01,18681.68
2591900,862.29,469.37,1.00,1,1,1,500.55,-0.88,9752.71,508.02,-1.86,20521.75,309.28,-1.82,1914.47,146.12,-0.08,5969.39,249.63,3.00,17800.19
2606700,849.76,459.93,1.00,1,1,1,1060.64,-2.50,80536.38,758.97,-2.67,37219.55,177.75,-1.07,14635.41,171.93,-0.21,2237.80,430.94,3.11,12491.15
2621300,842.38,459.30,1.00,1,1,1,506.85,-3.06,47026.41,471.43,0.62,84053.96,204.25,0.38,17440.65,109.65,-0.18,4272.99,217.64,-3.11,14665.34
2635400,860.79,467.76,1.00,1,1,1,1436.71,0.43,136259.89,844.21,0.43,27672.10,507.52,0.46,21572.77,130.75,-2.98,16800.62,89.28,-1.19,18546.49
2665500,876.24,475.00,1.00,1,1,1,566.68,0.44,28905.82,532.07,0.38,10442.51,340.66,0.69,6386.96,352.68,3.08,7544.77,146.12,-0.08,4442.34
2688100,886.84,478.14,1.00,1,1,1,489.35,0.29,4903.51,188.14,2.59,29289.29,282.56,2.89,24632.42,321.46,2.90,2948.30,171.93,-0.21,1465.46
2717900,867.84,480.16,1.00,1,1,1,641.35,3.04,37223.68,1177.85,-3.07,34573.83,835.38,-3.11,19107.32,118.92,2.43,7450.81,109.65,-0.18,2093.48
2733000,834.07,474.59,1.00,1,1,1,2266.10,-2.98,109717.88,2024.14,-3.02,56310.05,1149.02,-3.07,20953.02,282.56,2.89,12154.16,130.75,-2.98,15687.99
2748000,807.35,472.84,1.00,1,1,1,1785.38,-3.08,34639.53,1106.12,-3.06,61306.32,672.99,-2.92,32823.41,835.38,-3.11,37959.88,352.68,3.08,15139.85
2763100,800.90,471.78,1.00,1,1,1,433.00,-2.98,89738.78,692.12,-0.07,118763.70,1106.12,-3.06,29664.36,1149.02,-3.07,20953.02,321.46,2.90,4412.69
2778200,828.20,471.43,1.00,1,1,1,1808.55,-0.01,148091.99,1808.55,-0.01,74046.00,692.12,-0.07,118763.70,672.99,-2.92,32606.04,118.92,2.43,14704.26
