%@metadata width_px 1920.0
%@metadata height_px 1080.0
%@metadata width_mm 540.0
%@metadata height_mm 254.0
%@metadata distance_mm 620.0
% The number after speed, direction denotes the step size that was used for the calculation.
% Acceleration was calculated between two adjacent samples of the already low pass filtered velocity
@RELATION gaze_labels

@ATTRIBUTE time INTEGER
@ATTRIBUTE x NUMERIC
@ATTRIBUTE y NUMERIC
@ATTRIBUTE confidence NUMERIC
@ATTRIBUTE handlabeller_final INTEGER
@ATTRIBUTE EYE_MOVEMENT_TYPE {UNKNOWN, FIX, SACCADE, SP, NOISE, BLINK, NOISE_CLUSTER, PSO}

@DATA
0,441.92,437.18,1.0,0,SACCADE
14500,501.66,423.95,1.0,0,FIX
37000,433.76,404.36,1.0,1,FIX
52100,550.63,401.97,1.0,1,FIX
67000,637.77,388.02,1.0,1,FIX
81400,654.3,382.73,1.0,1,FIX
96900,588.78,384.11,1.0,1,FIX
111800,568.02,383.29,1.0,1,FIX
133600,600.06,394.29,1.0,1,FIX
148100,649.1,383.27,1.0,1,SACCADE
163200,647.87,399.63,1.0,1,SACCADE
192900,600.29,388.43,1.0,2,SACCADE
207400,615.03,390.28,1.0,2,FIX
244100,609.78,393.04,1.0,1,FIX
259000,504.82,439.46,1.0,1,FIX
273700,463.96,489.71,1.0,1,FIX
288400,450.74,487.95,1.0,1,FIX
303300,456.3,490.62,1.0,1,FIX
326000,519.06,455.83,1.0,1,FIX
340600,514.36,448.28,1.0,1,FIX
354700,510.9,472.65,1.0,1,FIX
369700,467.77,466.56,1.0,1,FIX
383900,408.63,465.57,1.0,1,SACCADE
398800,469.81,467.0,1.0,1,SACCADE
420800,468.82,473.74,1.0,1,SACCADE
435300,500.71,462.17,1.0,2,FIX
449800,501.23,477.05,1.0,2,FIX
463800,403.31,458.76,1.0,1,FIX
478600,406.61,482.81,1.0,1,FIX
500700,323.2,480.75,1.0,1,FIX
514400,318.78,473.6,1.0,1,FIX
529200,335.41,456.09,1.0,1,FIX
558400,303.35,453.39,1.0,1,FIX
581100,343.68,481.15,1.0,1,FIX
597000,302.02,502.69,1.0,1,FIX
625800,357.67,492.26,1.0,1,FIX
640400,324.17,466.4,1.0,1,FIX
654800,313.76,455.08,1.0,1,FIX
677500,344.8,493.38,1.0,1,SACCADE
692800,361.06,478.63,1.0,2,SACCADE
707300,388.3,483.45,1.0,2,SP
722300,340.59,468.32,1.0,2,FIX
736900,417.94,482.45,1.0,1,FIX
751900,621.15,449.87,1.0,1,FIX
766500,715.09,452.09,1.0,1,FIX
789300,720.24,435.09,1.0,1,FIX
804500,750.11,445.33,1.0,1,SACCADE
818900,685.14,447.44,1.0,1,SACCADE
834400,687.06,439.09,1.0,2,SP
849800,678.49,456.79,1.0,2,FIX
864200,624.12,450.27,1.0,2,FIX
878800,262.7,467.24,1.0,3,FIX
901300,-28.52,506.67,1.0,1,FIX
915300,-57.01,516.16,1.0,1,FIX
945500,36.71,518.01,1.0,1,FIX
960700,39.68,522.36,1.0,1,FIX
997700,-22.05,511.33,1.0,1,SACCADE
1012800,-25.9,501.23,1.0,4,SACCADE
1026700,11.75,501.48,1.0,4,NOISE
1041400,4.1,501.4,1.0,4,NOISE
1055700,-16.63,536.7,1.0,4,FIX
1070700,-11.23,618.11,1.0,4,FIX
1092300,157.76,736.78,1.0,4,NOISE
1107100,407.72,753.15,1.0,4,NOISE
1121700,535.0,803.19,1.0,4,NOISE
1136500,405.35,762.28,1.0,4,NOISE
1151400,402.01,754.84,1.0,4,NOISE
1173300,352.88,647.19,1.0,4,FIX
1187800,437.98,611.26,1.0,4,FIX
1202800,638.53,543.98,1.0,4,FIX
1232100,805.6,554.76,1.0,1,FIX
1247000,710.25,519.6,1.0,1,FIX
1269500,735.15,483.43,1.0,1,FIX
1283600,702.65,497.26,1.0,1,FIX
1313100,817.39,492.73,1.0,1,FIX
1328500,752.63,463.07,1.0,1,FIX
1365200,766.65,468.16,1.0,1,FIX
1380200,771.8,448.63,1.0,1,FIX
1394900,777.25,473.48,1.0,1,FIX
1409900,789.08,463.16,1.0,1,FIX
1425000,834.91,435.89,1.0,1,SACCADE
1439400,793.17,460.45,1.0,1,SACCADE
1461300,791.21,463.98,1.0,2,SP
1477500,878.32,460.09,1.0,2,FIX
1492900,877.99,469.61,1.0,1,FIX
1508200,1119.16,433.32,1.0,1,FIX
1523100,1257.19,434.81,1.0,1,FIX
1537900,1279.0,438.74,1.0,1,FIX
1553200,1258.5,439.82,1.0,1,FIX
1567000,1298.13,475.55,1.0,1,SACCADE
1589200,1284.17,451.58,1.0,1,SACCADE
1604500,1273.3,441.93,1.0,1,FIX
1634400,1265.21,442.28,1.0,2,FIX
1650300,1220.68,455.72,1.0,2,UNKNOWN
1679800,1014.94,583.58,1.0,4,UNKNOWN
