@RELATION gaze_labels

%@METADATA width_px 1920
%@METADATA height_px 1080
%@METADATA width_mm 540.00
%@METADATA height_mm 254.00
%@METADATA distance_mm 620.00


@ATTRIBUTE time INTEGER
@ATTRIBUTE x NUMERIC
@ATTRIBUTE y NUMERIC
@ATTRIBUTE confidence NUMERIC
@ATTRIBUTE handlabeller1 INTEGER
@ATTRIBUTE handlabeller2 INTEGER
@ATTRIBUTE handlabeller_final INTEGER
@ATTRIBUTE speed_1 numeric
@ATTRIBUTE direction_1 numeric
@ATTRIBUTE acceleration_1 numeric
@ATTRIBUTE speed_2 numeric
@ATTRIBUTE direction_2 numeric
@ATTRIBUTE acceleration_2 numeric
@ATTRIBUTE speed_4 numeric
@ATTRIBUTE direction_4 numeric
@ATTRIBUTE acceleration_4 numeric
@ATTRIBUTE speed_8 numeric
@ATTRIBUTE direction_8 numeric
@ATTRIBUTE acceleration_8 numeric
@ATTRIBUTE speed_16 numeric
@ATTRIBUTE direction_16 numeric
@ATTRIBUTE acceleration_16 numeric

%The number after speed, direction denotes the step size that was used for the calculation.
%Acceleration was calculated between two adjacent samples of the already low pass filtered velocity

@DATA
0,255.18,542.93,1.00,1,1,1,0.00,0.00,0.00,473.39,1.85,0.00,464.85,2.16,0.00,423.49,2.34,0.00,215.33,1.56,0.00
14700,253.28,549.62,1.00,1,1,1,473.39,1.85,32203.15,464.85,2.16,9883.00,486.18,2.52,11765.57,317.82,2.42,7469.90,192.73,1.05,7051.65
29400,247.61,554.30,1.00,1,1,1,500.30,2.45,19765.99,486.18,2.52,11765.57,423.49,2.34,7130.35,208.09,2.11,9220.72,234.41,0.54,7922.62
43900,241.73,557.87,1.00,1,1,1,474.43,2.60,5167.36,398.01,2.54,6118.87,317.82,2.42,7572.93,175.34,1.11,12831.42,278.64,0.26,5730.38
58800,237.93,560.88,1.00,1,1,1,325.16,2.47,10556.01,192.18,2.21,15125.59,208.09,2.11,9096.95,215.33,1.56,6404.83,323.30,0.01,5890.52
81200,237.45,563.62,1.00,1,1,1,124.05,1.75,10991.83,159.99,1.10,8358.05,175.34,1.11,8306.06,192.73,1.05,4627.64,355.93,-0.29,4695.21
95500,240.58,566.13,1.00,1,1,1,280.60,0.67,17253.61,363.28,0.46,17798.37,298.44,0.47,13197.46,234.41,0.54,8144.23,198.78,-0.62,12602.90
110300,246.93,568.28,1.00,1,1,1,453.36,0.33,14334.84,521.76,0.24,12389.09,487.93,0.25,14047.53,278.64,0.26,5614.22,127.36,-1.69,11970.81
125100,255.57,569.86,1.00,1,1,1,592.91,0.18,10725.16,623.29,0.13,8238.12,511.34,0.12,4534.08,323.30,0.01,5930.32,112.83,2.83,12554.42
139800,265.18,570.59,1.00,1,1,1,655.62,0.08,6179.14,508.84,0.02,8814.79,425.35,0.01,6881.92,355.93,-0.29,7154.61,126.41,2.98,1544.32
161900,274.29,570.20,1.00,1,1,1,412.70,-0.04,11340.50,317.63,-0.13,9053.85,384.99,-0.28,5492.24,198.78,-0.62,8154.81,73.10,2.55,3043.05
191400,281.43,568.49,1.00,1,1,1,248.97,-0.24,5930.18,324.71,-0.67,5806.20,350.94,-0.73,5721.05,127.36,-1.69,6005.70,90.39,0.65,4522.18
206100,285.55,561.31,1.00,1,1,1,563.18,-1.05,29386.19,499.31,-1.16,17875.05,265.07,-1.94,24291.93,218.79,-2.64,12155.51,256.82,0.22,12141.27
236100,290.33,548.02,1.00,1,1,1,470.73,-1.23,4320.94,528.32,-2.56,22005.16,520.02,-2.63,11922.99,308.57,-2.83,3412.74,505.50,0.15,8333.59
251100,265.75,548.15,1.00,1,1,1,1638.31,3.14,123553.93,1245.69,-3.14,56953.51,759.17,-3.01,22352.09,286.31,-3.05,4448.06,773.97,0.09,18055.61
272900,244.49,547.72,1.00,1,1,1,975.72,-3.12,30430.56,1145.61,3.03,8083.64,1108.89,3.04,18889.44,139.94,2.88,7473.10,1083.83,0.07,14268.11
287500,224.33,552.93,1.00,1,1,1,1426.21,2.89,37915.33,961.15,2.86,17231.05,606.87,2.68,39930.74,209.47,0.56,22020.53,1354.48,0.04,18655.73
302200,217.41,555.45,1.00,1,1,1,500.95,2.79,63182.42,490.10,1.15,77487.63,534.33,0.96,58726.29,741.76,0.39,36477.69,1544.61,0.02,13023.21
316700,230.17,566.00,1.00,1,1,1,1141.77,0.69,100747.77,1635.44,0.38,91511.69,1372.95,0.28,70255.25,1517.19,0.20,55378.13,1684.17,-0.00,10067.55
331900,262.45,573.62,1.00,2,2,2,2182.45,0.23,83182.98,2228.35,0.14,49356.84,2515.13,0.18,76003.67,2530.39,0.13,67207.30,1885.36,-0.01,13302.38
353700,311.78,577.67,1.00,2,2,2,2270.59,0.08,15823.89,3270.66,0.10,48085.43,3508.64,0.09,47233.41,3373.30,0.08,39302.16,1945.32,-0.02,2787.88
368300,380.90,585.60,1.00,2,2,2,4764.95,0.11,171000.93,5125.50,0.06,127473.91,4488.62,0.05,68015.61,3939.90,0.05,39277.74,2135.79,-0.01,13112.24
383100,462.17,587.23,1.00,3,3,3,5492.40,0.02,58934.55,5999.88,0.02,61565.38,5667.81,0.02,80220.21,3981.39,0.01,12835.25,2184.98,-0.01,3351.63
397800,557.87,588.65,1.00,1,1,1,6510.86,0.01,69315.98,6219.50,-0.01,18664.72,5577.10,-0.01,15011.75,4033.31,-0.02,8559.61,2249.91,-0.00,4620.61
412400,644.39,585.46,1.00,1,1,1,5930.29,-0.04,45432.37,5157.17,-0.05,74190.74,4477.49,-0.06,77092.15,4035.52,-0.05,8121.13,2458.57,-0.01,14305.95
427100,708.81,581.54,1.00,1,1,1,4390.03,-0.06,105110.10,3114.39,-0.14,141292.85,3607.46,-0.11,60898.79,3680.57,-0.09,26372.84,2674.17,0.00,14776.10
449400,758.49,569.29,1.00,1,1,1,2294.43,-0.24,97428.16,2404.20,-0.22,33480.30,2633.68,-0.20,45119.96,2860.37,-0.12,36934.53,2746.28,-0.01,3725.53
464100,795.52,561.69,1.00,1,1,1,2571.86,-0.20,19965.20,2045.60,-0.30,26850.33,2059.63,-0.28,41514.32,2067.32,-0.13,53988.43,2849.92,-0.02,7282.98
478800,815.95,551.55,1.00,1,1,1,1551.60,-0.46,77737.44,1643.77,-0.39,29686.42,1430.80,-0.27,42807.45,1777.64,-0.13,19707.57,2977.00,-0.02,8662.58
493700,840.48,543.10,1.00,1,1,1,1741.44,-0.33,19066.29,1025.03,-0.23,43804.09,1004.63,-0.16,29832.44,1711.01,-0.08,6944.72,2951.62,-0.03,2521.86
523200,860.24,541.09,1.00,1,1,1,673.33,-0.10,37181.27,756.78,0.06,12474.21,1195.39,-0.03,8181.91,1782.98,-0.04,3453.02,2827.99,-0.04,4243.07
560100,890.66,545.86,1.00,2,2,2,834.27,0.16,6787.23,1371.41,0.10,16701.88,1523.84,0.10,10144.82,1968.05,-0.02,5153.23,2598.71,-0.04,6217.81
574800,930.66,548.13,1.00,2,2,2,2725.53,0.06,129056.97,3259.28,0.13,128494.56,2096.38,0.08,39095.14,2233.44,0.01,18582.70,2338.43,-0.04,17760.21
589500,985.69,558.15,1.00,3,3,3,3805.15,0.18,78264.80,2937.73,0.06,25942.01,3121.45,0.04,70081.82,2445.06,0.03,14678.15,2070.42,-0.03,18273.84
619300,1061.13,556.26,1.00,3,3,3,2532.49,-0.02,47733.30,3056.37,-0.02,9266.90,3457.85,0.03,11317.86,2813.13,0.03,12355.09,1941.09,-0.01,4563.91
641500,1144.59,554.82,1.00,1,1,1,3759.65,-0.02,55287.57,4087.30,-0.00,46537.24,3536.65,-0.01,6719.51,3229.65,0.02,18782.36,1774.85,0.01,7643.19
656300,1212.36,555.98,1.00,1,1,1,4580.28,0.02,56283.58,4387.08,0.01,20420.52,3861.89,-0.01,22010.97,3004.02,0.03,15402.18,1674.72,0.03,7245.01
670900,1273.56,555.74,1.00,1,1,1,4191.72,-0.00,27349.13,3576.13,-0.03,56448.77,3381.20,-0.00,33066.90,2472.46,0.02,36484.97,1611.57,0.05,4842.84
685400,1316.38,552.86,1.00,1,1,1,2959.76,-0.07,86338.96,2368.84,-0.02,83308.05,2372.87,0.03,69869.32,2147.42,0.03,22574.62,1631.29,0.07,1853.39
700100,1342.72,554.63,1.00,1,1,1,1795.95,0.07,81913.35,1214.03,0.22,83115.04,1162.76,0.11,82808.63,1504.59,0.07,43982.59,1585.98,0.05,3293.81
714900,1351.34,560.67,1.00,1,1,1,710.70,0.61,84043.71,325.79,0.96,67394.47,476.07,0.43,48977.92,885.40,0.12,41998.15,1423.48,0.03,11310.67
736700,1349.58,564.39,1.00,1,1,1,188.38,2.01,32276.30,222.29,2.45,17377.81,263.27,2.23,27294.03,440.61,0.25,20750.55,1231.42,-0.02,9195.98
751600,1345.07,565.90,1.00,1,1,1,319.20,2.82,15602.34,606.81,2.92,28248.75,456.36,2.86,19318.73,179.18,1.00,22297.12,1041.93,-0.02,12717.25
766400,1332.02,568.42,1.00,1,1,1,898.50,2.95,39442.29,776.37,3.00,12089.77,391.18,2.92,4765.07,184.06,2.49,16614.84,769.05,-0.05,18574.07
781300,1322.25,569.17,1.00,1,1,1,657.48,3.06,17192.99,174.85,2.94,40399.01,295.50,2.80,6985.63,239.00,-3.09,10426.96,539.38,-0.07,15435.98
796000,1326.95,569.46,1.00,1,1,1,320.23,0.06,66369.54,230.57,0.39,26397.62,131.51,3.01,11497.47,235.27,-2.75,5518.29,357.58,-0.08,12371.87
810900,1328.56,571.77,1.00,1,1,1,188.85,0.96,16828.16,97.93,3.11,21634.21,157.07,-1.83,12859.66,161.76,-2.39,6734.85,254.14,-0.04,7000.44
833300,1323.30,569.59,1.00,1,1,1,254.37,-2.75,19013.39,419.44,-2.19,16725.60,256.88,-1.85,4458.92,193.16,-1.36,7915.94,204.99,-0.03,2195.24
848100,1319.54,559.04,1.00,1,1,1,756.81,-1.91,41622.09,564.43,-1.64,20372.94,296.71,-1.49,7199.70,278.07,-0.68,11963.65,221.53,-0.12,1648.18
862800,1322.20,552.97,1.00,1,1,1,450.18,-1.16,35936.11,431.08,-0.58,34975.27,484.10,-1.07,16749.15,331.34,-0.46,5744.10,279.92,-0.09,3995.09
877500,1330.13,552.07,1.00,1,1,1,543.08,-0.11,34141.09,580.69,-0.51,10465.63,516.68,-0.39,22613.62,414.79,-0.36,6222.07,342.57,-0.08,4270.39
892100,1337.04,544.66,1.00,1,1,1,693.98,-0.82,30859.95,595.66,-0.28,9221.53,605.57,-0.11,12445.45,520.25,-0.21,8649.10,412.81,-0.07,4812.12
913900,1350.95,546.03,1.00,2,2,2,641.09,0.10,27208.06,659.38,0.09,11051.55,690.68,-0.03,4495.40,600.46,-0.06,5333.97,429.24,-0.12,1237.80
943200,1370.60,547.71,1.00,1,1,1,673.01,0.09,1124.40,794.11,0.12,4658.47,684.12,0.13,3718.62,667.48,0.04,3138.55,394.48,-0.16,1277.64
957800,1385.56,550.22,1.00,1,1,1,1039.08,0.17,25504.11,713.87,0.16,5901.01,687.64,0.11,803.08,702.06,0.05,2489.72,359.47,-0.21,2801.48
987100,1401.53,552.77,1.00,1,1,1,551.82,0.16,16631.50,596.81,0.10,4265.55,740.94,0.16,2179.19,707.52,0.13,1864.11,378.60,-0.15,1079.83
1009200,1416.10,553.14,1.00,1,1,1,659.51,0.03,6072.81,773.25,0.15,8180.64,718.57,0.14,1192.75,608.16,0.08,4718.44,407.33,-0.04,2253.53
1023900,1429.65,557.12,1.00,1,1,1,960.71,0.29,24836.56,932.81,0.19,11034.35,741.10,0.14,1536.55,488.26,0.06,8215.68,386.56,0.00,1858.86
1038700,1443.13,558.28,1.00,1,1,1,914.40,0.09,13004.75,701.16,0.12,16029.88,480.73,0.03,18197.60,314.63,-0.02,11913.29,353.47,0.06,2609.64
1053400,1450.17,559.69,1.00,1,1,1,488.46,0.20,29415.60,156.02,-1.29,47223.25,180.01,-0.54,23350.82,219.19,0.03,6569.17,288.35,0.09,4478.62
1068100,1444.40,553.87,1.00,1,1,1,557.25,-2.35,68056.56,472.71,-2.53,30373.30,217.07,-2.46,22177.08,159.79,0.05,4042.87,199.54,0.21,6381.31
1083000,1438.75,551.61,1.00,1,1,1,408.80,-2.76,16375.11,360.37,-2.79,10444.49,308.71,-2.85,9050.70,40.95,-0.86,9295.13,74.66,0.62,9015.50
1105100,1431.89,549.25,1.00,1,1,1,327.90,-2.81,3751.78,230.55,2.88,9836.88,125.11,3.12,8766.39,95.01,-3.10,5630.41,46.72,2.70,4783.40
1119700,1430.57,553.79,1.00,1,1,1,323.73,1.85,32303.01,217.44,0.85,26048.87,90.08,2.87,2997.18,223.34,-2.88,9052.86,98.35,-3.01,4397.95
1134500,1436.10,554.07,1.00,1,1,1,373.78,0.05,37031.80,83.53,-0.24,13068.96,144.54,1.65,9582.33,283.58,3.03,7537.14,85.31,-2.99,892.13
1149400,1432.98,553.21,1.00,1,1,1,216.66,-2.87,39407.69,206.42,2.49,19122.95,138.66,-2.94,14225.93,393.74,2.99,7447.65,111.83,-2.81,2138.33
1164000,1431.24,557.74,1.00,1,1,1,332.42,1.94,25916.17,313.05,-3.03,14754.98,442.44,3.00,21561.80,464.29,3.03,4991.75,159.85,-3.06,4033.91
1186200,1421.53,551.98,1.00,2,2,2,508.45,-2.61,29377.47,656.46,3.13,15667.71,699.04,3.00,11558.62,432.81,-3.06,4091.02,243.51,3.12,3873.84
1201000,1406.95,558.10,1.00,2,2,2,1068.29,2.74,58624.90,1197.57,2.93,38495.28,860.99,-3.10,14239.09,303.45,-3.04,8759.38,360.21,3.00,8227.79
1215600,1387.14,559.54,1.00,1,1,1,1360.40,3.07,33381.89,1119.43,-3.07,23633.49,764.51,-3.08,6700.43,211.77,-2.94,6481.64,565.12,3.02,14040.49
1230500,1374.02,555.63,1.00,1,1,1,918.86,-2.85,40103.29,496.81,-2.39,53437.96,212.59,-2.57,39489.40,209.95,-3.05,1470.13,846.51,3.02,18885.40
1245400,1376.34,549.41,1.00,1,1,1,445.48,-1.21,70333.47,462.11,-0.30,55715.38,185.07,-0.82,20526.05,270.55,2.94,6203.89,1155.10,3.06,20907.85
1275000,1393.69,549.63,1.00,1,1,1,586.15,0.01,20428.53,347.84,-0.13,4486.52,242.89,-0.05,5767.73,417.72,2.99,5004.66,1509.92,3.08,12019.00
1311800,1399.26,546.49,1.00,1,1,1,173.65,-0.51,12085.95,118.82,0.94,8386.44,105.78,1.57,7321.07,693.30,3.03,7508.85,1869.26,3.09,9773.77
1326400,1397.29,554.57,1.00,1,1,1,569.49,1.81,47931.49,606.47,2.57,42805.50,610.46,2.83,40149.70,1116.74,3.01,29020.70,2172.73,3.11,20990.15
1356700,1376.33,561.18,1.00,2,2,2,725.41,2.84,21458.44,1255.18,2.92,23563.00,1685.86,2.94,35710.16,1672.26,3.03,18352.04,2464.22,3.11,9625.40
1378400,1333.69,569.22,1.00,2,2,2,1999.68,2.96,59093.12,3080.56,3.03,84785.35,2715.69,3.02,48055.39,2559.00,3.06,40978.97,2642.67,3.12,8298.22
1393100,1264.87,573.42,1.00,2,2,2,4690.43,3.08,184901.36,5307.53,3.06,151751.44,4479.92,3.07,120572.15,3798.70,3.07,84361.77,2742.81,3.12,6885.05
1407900,1177.58,581.30,1.00,2,2,2,5921.58,3.05,83835.45,6210.78,3.09,61959.76,6020.46,3.10,104785.75,4337.18,3.10,37331.97,2813.22,3.12,4770.54
1422600,1081.87,582.51,1.00,2,2,2,6511.29,3.13,51764.54,6745.64,3.13,40971.27,6745.79,3.12,49653.53,5294.68,3.12,65538.62,2844.77,3.10,2984.52
1437200,979.94,582.66,1.00,3,3,3,6981.80,3.14,32635.85,7287.94,3.14,37167.27,6359.81,-3.14,29586.14,5798.44,3.14,34781.63,2985.84,3.10,9747.11
1451900,868.34,583.39,1.00,3,3,3,7592.05,3.14,41590.44,6051.60,-3.13,84528.04,6113.95,-3.12,18615.72,5634.55,3.13,11230.70,3073.72,3.10,6004.89
1473800,758.47,579.44,1.00,1,1,1,5019.89,-3.11,118061.95,5193.96,-3.09,40474.59,5607.72,-3.12,23124.11,5220.46,-3.14,19227.45,2957.61,3.10,5339.07
1489100,675.41,572.87,1.00,1,1,1,5445.98,-3.06,31472.71,5065.59,-3.10,9241.88,4664.05,-3.13,61847.80,4507.82,-3.14,46586.24,2961.45,3.11,1157.60
1503700,607.15,572.93,1.00,1,1,1,4675.17,3.14,59573.89,4021.82,3.09,77646.71,3962.80,-3.13,48053.29,3540.44,3.13,66336.82,2774.74,3.13,13497.42
1519100,554.94,579.51,1.00,1,1,1,3417.33,3.02,87817.56,2865.23,3.09,75103.65,2709.03,3.09,82345.56,2314.79,3.14,79590.98,2379.21,-3.14,25836.01
1533500,521.90,577.69,1.00,1,1,1,2297.72,-3.09,85288.42,1360.43,3.10,104530.52,1245.77,2.95,103095.74,1345.08,3.09,67565.94,1726.69,-3.10,45656.14
1548300,515.24,580.99,1.00,1,1,1,502.28,2.68,126830.40,526.69,0.62,122087.35,110.48,0.85,88230.13,511.74,2.90,57316.41,1240.15,-3.05,33265.33
1563000,534.57,586.69,1.00,1,1,1,1370.71,0.29,120575.57,1211.85,0.09,54567.59,1023.30,0.15,64018.44,243.91,0.18,50388.79,733.08,-2.96,34968.77
1585200,559.78,584.98,1.00,1,1,1,1138.24,-0.07,22416.50,1477.41,0.02,12613.20,1479.26,0.07,20982.98,901.69,-0.07,30119.83,240.66,-2.45,24145.57
1599900,589.07,587.93,1.00,1,1,1,2002.71,0.10,61286.77,1815.22,0.06,23367.39,1551.80,-0.08,16473.18,1260.35,-0.09,24432.80,313.96,-0.46,31782.67
1614600,613.05,588.23,1.00,2,2,2,1631.24,0.01,27503.80,1665.00,-0.19,31501.05,1839.32,-0.13,20277.88,1570.31,-0.13,21466.61,622.10,-0.16,22786.51
1629400,637.29,578.57,1.00,2,2,2,1762.92,-0.38,45416.01,1923.65,-0.30,21822.56,1492.73,-0.22,25910.44,1707.65,-0.16,9842.38,866.87,-0.09,16923.83
1644200,667.45,571.40,1.00,2,2,2,2094.51,-0.23,29307.39,1394.72,-0.25,36215.66,1688.38,-0.28,14437.31,1679.74,-0.18,2632.13,1046.77,-0.07,12225.88
1680800,706.80,561.05,1.00,1,1,1,1111.88,-0.26,26866.44,1553.58,-0.26,4391.15,1842.75,-0.22,5116.87,1575.36,-0.19,2912.30,1115.39,-0.04,2069.59
1695700,744.70,550.57,1.00,1,1,1,2638.67,-0.27,102479.29,2622.62,-0.19,72393.66,1583.69,-0.21,17390.88,1500.02,-0.18,5166.57,1073.70,-0.04,2798.70
1710400,783.00,546.22,1.00,1,1,1,2622.64,-0.11,28057.61,1623.58,-0.16,68108.70,1659.39,-0.16,7902.09,1358.40,-0.12,11108.94,961.25,-0.05,7734.08
1739600,815.06,539.18,1.00,1,1,1,1123.85,-0.22,51684.68,1107.54,-0.12,17782.16,1329.53,-0.06,12500.04,1158.96,-0.06,7322.03,887.72,-0.05,2520.32
1761900,839.65,539.53,1.00,1,1,1,1102.92,0.01,11519.93,1010.89,0.15,13222.35,898.94,0.07,20295.60,967.18,0.04,9814.20,791.41,-0.07,4392.15
1776500,851.96,544.63,1.00,1,1,1,912.46,0.39,28931.08,676.00,0.64,36115.58,671.44,0.48,26581.73,578.97,0.24,28507.74,728.31,-0.08,4375.09
1791300,855.54,551.47,1.00,1,1,1,521.88,1.09,41340.42,520.78,1.40,31298.37,454.61,1.49,38850.07,288.94,0.64,22514.02,673.58,-0.05,4089.11
1806000,854.61,559.76,1.00,1,1,1,567.44,1.68,21886.70,682.63,2.32,37730.54,646.25,2.42,35792.11,249.50,1.60,17017.72,591.20,-0.02,5770.53
1820600,841.92,566.12,1.00,1,1,1,971.92,2.68,55856.44,1117.16,2.84,42608.46,660.34,2.66,10601.85,322.79,2.21,12814.34,535.44,0.06,4722.17
1835400,823.29,569.67,1.00,1,1,1,1281.38,2.95,29487.67,698.12,2.92,28810.79,640.46,2.84,8124.73,324.70,2.44,4997.89,431.29,0.18,8141.09
1857200,816.97,571.62,1.00,1,1,1,303.56,2.84,44967.75,258.69,2.87,20186.48,409.13,2.93,10815.18,250.76,2.53,3573.72,306.74,0.38,6599.27
1872100,814.15,572.23,1.00,1,1,1,193.60,2.93,7522.67,51.00,3.06,14012.66,38.31,2.75,24935.00,122.64,2.55,8603.73,224.22,0.95,11351.25
1886700,815.47,571.75,1.00,1,1,1,96.16,-0.34,19807.63,241.45,-0.23,20001.00,225.31,-0.17,17999.62,81.11,0.30,12664.97,240.64,1.92,14794.93
1901100,820.97,570.63,1.00,1,1,1,389.53,-0.20,20461.49,505.26,-0.16,18397.18,412.77,-0.13,13045.08,278.14,0.06,13909.32,324.70,2.44,11684.99
1915800,829.99,569.41,1.00,1,1,1,619.14,-0.13,15775.79,548.70,-0.09,3778.17,557.10,-0.07,10024.95,350.16,0.13,5111.98,250.76,2.53,5299.80
1938000,841.12,568.72,1.00,1,1,1,502.67,-0.06,5561.64,600.86,-0.01,3291.56,587.67,0.03,2895.78,296.95,0.39,4434.86,122.64,2.55,5774.57
1952700,852.16,569.29,1.00,1,1,1,751.54,0.05,17575.36,647.68,0.17,7918.74,472.12,0.25,11126.97,199.09,1.48,18412.39,81.11,0.30,12578.81
1967500,859.97,571.87,1.00,1,1,1,555.95,0.32,17632.51,386.76,0.76,26603.94,321.06,1.17,25404.83,587.67,0.03,40305.04,278.14,0.06,13533.40
1982500,860.48,577.26,1.00,1,1,1,360.77,1.48,35134.81,615.03,2.24,46350.70,613.61,2.42,39683.83,472.12,0.25,10904.43,350.16,0.13,5009.74
1997300,848.59,586.24,1.00,1,1,1,1006.96,2.50,59034.84,1076.84,2.66,38608.00,615.03,2.24,7230.23,321.06,1.17,25404.83,296.95,0.39,6652.29
2027000,818.07,599.57,1.00,1,1,1,1121.19,2.73,9216.42,1121.19,2.73,3065.24,1076.84,2.66,19239.00,613.61,2.42,20042.34,199.09,1.48,9113.20
