@RELATION gaze_labels

%@METADATA width_px 1920
%@METADATA height_px 1080
%@METADATA width_mm 540.00
%@METADATA height_mm 254.00
%@METADATA distance_mm 620.00


@ATTRIBUTE time INTEGER
@ATTRIBUTE x NUMERIC
@ATTRIBUTE y NUMERIC
@ATTRIBUTE confidence NUMERIC
@ATTRIBUTE handlabeller1 INTEGER
@ATTRIBUTE handlabeller2 INTEGER
@ATTRIBUTE handlabeller_final INTEGER
@ATTRIBUTE speed_1 numeric
@ATTRIBUTE direction_1 numeric
@ATTRIBUTE acceleration_1 numeric
@ATTRIBUTE speed_2 numeric
@ATTRIBUTE direction_2 numeric
@ATTRIBUTE acceleration_2 numeric
@ATTRIBUTE speed_4 numeric
@ATTRIBUTE direction_4 numeric
@ATTRIBUTE acceleration_4 numeric
@ATTRIBUTE speed_8 numeric
@ATTRIBUTE direction_8 numeric
@ATTRIBUTE acceleration_8 numeric
@ATTRIBUTE speed_16 numeric
@ATTRIBUTE direction_16 numeric
@ATTRIBUTE acceleration_16 numeric

%The number after speed, direction denotes the step size that was used for the calculation.
%Acceleration was calculated between two adjacent samples of the already low pass filtered velocity

@DATA
0,428.32,386.50,1.00,1,1,1,0.00,0.00,0.00,5115.92,-3.02,0.00,4016.10,-3.10,0.00,2577.19,3.01,0.00,1318.03,2.87,0.00
14800,353.14,377.49,1.00,1,1,1,5115.92,-3.02,345670.10,4016.10,-3.10,78448.06,2293.35,2.90,129528.57,1334.16,2.66,94596.19,802.44,2.62,38733.18
29500,309.93,382.10,1.00,1,1,1,2956.47,3.04,158500.74,2293.35,2.90,130409.71,2577.19,3.01,26034.97,873.18,2.25,43095.14,491.76,2.46,22333.64
44200,287.67,393.58,1.00,1,1,1,1703.85,2.67,102033.63,1378.74,2.48,80041.26,1334.16,2.66,95239.70,616.06,1.97,22525.93,259.57,2.49,15811.97
58900,277.91,406.96,1.00,1,1,1,1126.61,2.20,58556.84,766.38,2.05,51279.97,873.18,2.25,43095.14,1318.03,2.87,71664.76,181.72,2.83,7353.77
81400,274.51,418.87,1.00,1,1,1,550.44,1.85,28383.89,560.06,1.79,11825.24,616.06,1.97,14716.94,802.44,2.62,25477.83,75.95,-1.61,9550.44
96100,273.31,427.28,1.00,1,1,1,578.01,1.71,5576.32,435.77,1.78,8472.29,385.41,1.91,15786.00,491.76,2.46,22333.64,198.40,-0.52,12013.60
110600,271.90,431.32,1.00,1,1,1,295.30,1.91,20270.00,188.82,2.39,20762.92,207.14,2.38,15240.02,259.57,2.49,16030.06,396.44,-0.23,14732.30
125300,269.30,431.06,1.00,1,1,1,178.09,-3.04,20908.64,250.56,-2.56,18770.45,214.94,-2.65,16881.33,181.72,2.83,7353.77,282.09,2.54,45416.83
140200,265.69,427.27,1.00,1,1,1,351.03,-2.33,16439.36,407.04,-2.20,13046.93,306.39,-2.17,10127.27,75.95,-1.61,14421.81,257.13,0.93,26149.27
155100,262.16,421.25,1.00,1,1,1,468.33,-2.10,10046.30,374.47,-1.97,6455.04,333.64,-2.28,2877.38,198.40,-0.52,11852.34,489.52,0.42,19767.42
176900,260.38,414.60,1.00,1,1,1,316.09,-1.83,8441.82,275.60,-2.37,7450.63,300.27,-1.13,15854.56,396.44,-0.23,9799.01,673.07,0.27,9223.65
191400,254.98,414.29,1.00,1,1,1,373.15,-3.08,28044.73,505.58,-0.36,46288.49,448.71,-0.22,24563.18,653.45,-0.02,19297.30,813.16,0.16,11333.35
206000,274.15,409.41,1.00,1,1,1,1354.90,-0.25,117426.37,965.80,-0.02,35508.82,849.32,0.05,29608.20,817.82,0.07,12054.17,949.21,0.08,10365.71
235200,297.27,413.58,1.00,1,1,1,804.70,0.18,24187.15,1074.90,0.16,7067.35,1382.79,0.14,18569.94,1099.35,0.10,9684.43,1067.06,0.03,4367.53
257100,328.41,417.91,1.00,2,2,2,1435.65,0.14,28877.25,1905.53,0.23,38262.15,1321.45,0.22,5633.62,1397.09,0.14,13832.86,1114.22,-0.01,3026.06
271700,364.95,429.61,1.00,2,2,2,2627.75,0.31,84770.33,1610.76,0.27,20576.65,1770.61,0.18,31064.06,1614.92,0.11,15221.82,1140.15,-0.03,2312.71
301300,397.11,436.60,1.00,3,3,3,1111.87,0.21,51508.72,1664.46,0.12,8044.12,1996.04,0.19,7649.89,1686.31,0.12,2411.88,1157.16,-0.04,757.40
316100,438.29,438.74,1.00,1,1,1,2785.96,0.05,114748.02,2579.43,0.12,61831.36,1845.15,0.10,15562.63,1916.53,0.08,16021.60,1148.02,-0.03,1187.03
331200,473.72,445.54,1.00,1,1,1,2389.11,0.19,35286.02,2064.57,0.07,34779.56,2224.32,0.03,26755.39,1876.16,0.04,6271.52,1181.42,-0.01,2857.95
352900,514.07,444.14,1.00,1,1,1,1860.79,-0.03,32641.58,1953.96,-0.07,13623.74,2112.57,-0.01,6493.25,1647.76,-0.04,12108.38,1248.07,0.01,3135.62
368200,545.86,440.82,1.00,1,1,1,2088.94,-0.10,17411.99,2190.61,-0.11,16476.13,1798.02,-0.15,26931.80,1603.52,-0.12,9048.74,1258.11,0.02,1453.11
382700,578.98,437.15,1.00,1,1,1,2297.92,-0.11,14440.41,1621.78,-0.27,44816.28,1438.83,-0.27,28257.05,1229.58,-0.17,26269.66,1384.93,0.01,8769.46
397400,591.44,427.99,1.00,1,1,1,1052.43,-0.63,100864.27,793.19,-0.74,66791.84,992.19,-0.49,35354.42,979.62,-0.26,18220.30,1463.29,-0.01,5713.89
412100,596.15,421.38,1.00,1,1,1,552.34,-0.95,37800.54,536.53,-1.20,26692.80,497.44,-0.89,38623.03,821.84,-0.27,10784.42,1377.81,-0.04,6728.90
426900,597.15,413.23,1.00,1,1,1,554.58,-1.45,18358.29,286.39,-1.22,16912.80,261.50,-1.08,16577.48,742.50,-0.26,5422.24,1374.09,-0.07,2258.89
449300,599.76,411.35,1.00,1,1,1,143.52,-0.62,20947.89,69.82,-0.24,11364.74,275.06,-0.28,9298.58,781.67,-0.19,2992.84,1239.85,-0.08,6045.85
464100,599.67,412.61,1.00,1,1,1,85.39,1.64,14097.71,501.82,0.33,30054.74,583.79,0.10,23269.98,1008.71,-0.10,16166.33,1199.96,-0.14,5740.39
478900,613.79,416.23,1.00,2,2,2,984.66,0.25,65731.47,1237.26,0.12,50947.71,1289.49,0.10,47682.51,1093.35,-0.05,6688.90,1112.65,-0.16,6086.59
493600,635.90,417.10,1.00,2,2,2,1504.98,0.04,39488.67,2099.61,0.04,59294.34,2000.78,0.02,49140.69,1162.14,-0.00,6114.11,1116.26,-0.16,262.76
508300,675.46,418.99,1.00,2,2,2,2694.27,0.05,80912.53,2776.10,-0.02,47347.33,1924.99,-0.02,7540.69,1261.02,0.01,6799.92,1111.38,-0.13,2240.91
523000,717.49,415.21,1.00,3,3,3,2871.00,-0.09,28582.65,1792.79,-0.08,67416.52,1746.17,-0.03,12313.83,1445.12,-0.06,14099.31,1251.75,-0.07,10851.59
545300,741.59,413.78,1.00,1,1,1,1082.37,-0.06,80243.46,930.46,-0.06,38682.61,1244.54,-0.07,22620.45,1381.53,-0.10,3864.46,1470.84,-0.02,10215.24
560100,751.95,413.10,1.00,1,1,1,701.59,-0.07,25731.36,561.88,-0.04,24928.04,969.57,-0.21,21204.04,1438.40,-0.12,4126.85,1733.42,0.02,18224.96
575000,758.26,413.13,1.00,1,1,1,423.79,0.01,18826.15,1045.88,-0.37,36732.61,907.98,-0.26,5122.12,1367.59,-0.11,4862.96,2027.62,0.04,19941.52
589500,780.57,401.87,1.00,1,1,1,1723.64,-0.47,93802.26,1154.02,-0.33,8237.22,1196.27,-0.21,20110.12,1440.35,-0.05,7572.43,2328.67,0.05,20827.68
618900,806.23,396.83,1.00,1,1,1,889.31,-0.19,30612.75,1292.97,-0.14,9064.87,1454.09,-0.13,9622.03,1796.19,-0.00,12338.89,2552.33,0.07,7708.65
641100,846.63,392.49,1.00,1,1,1,1830.25,-0.11,42676.74,1738.68,-0.01,21848.40,1778.50,0.01,17787.42,2225.90,0.03,19550.94,2642.87,0.07,4150.11
670800,896.46,395.62,1.00,2,2,2,1681.12,0.06,11211.39,2372.21,0.11,22992.60,2634.63,0.08,29170.61,2623.41,0.05,13531.14,2581.37,0.09,2447.43
685500,951.29,404.27,1.00,2,2,2,3776.35,0.16,143435.08,4237.12,0.14,127004.14,3412.04,0.12,53669.65,3021.23,0.09,28177.30,2502.75,0.11,6255.59
700200,1019.82,412.97,1.00,3,3,3,4698.85,0.13,63350.98,4993.35,0.13,51621.30,4367.47,0.14,65157.43,3688.43,0.13,46011.00,2522.91,0.12,2033.98
714700,1095.94,422.61,1.00,3,3,3,5291.92,0.13,40901.87,4471.91,0.14,36111.84,4835.72,0.14,32302.97,3949.47,0.15,18738.10,2545.88,0.12,1637.87
736900,1182.42,435.26,1.00,1,1,1,3936.66,0.15,61175.95,4711.62,0.14,10883.26,4989.52,0.16,8745.29,4206.51,0.17,12377.27,2543.95,0.12,325.59
751700,1268.50,447.42,1.00,1,1,1,5874.09,0.14,130917.24,5636.40,0.18,63968.76,4547.48,0.17,29984.76,3913.15,0.18,20031.56,2411.58,0.12,9011.69
766400,1345.94,465.37,1.00,1,1,1,5407.89,0.23,46136.14,4345.20,0.20,88074.59,4031.49,0.21,37119.52,3395.12,0.19,35308.25,2379.58,0.13,2315.27
781100,1393.67,472.97,1.00,1,1,1,3287.52,0.16,145632.73,2427.92,0.27,131348.82,2895.67,0.27,78361.08,2938.13,0.20,31147.66,2070.61,0.14,21129.83
795800,1414.70,484.52,1.00,1,1,1,1632.86,0.50,124861.65,1494.94,0.45,67524.92,1816.26,0.27,73436.03,2457.66,0.20,32696.63,1695.14,0.16,25715.96
810800,1433.65,492.27,1.00,1,1,1,1364.59,0.39,21193.71,1331.54,0.27,20021.67,1340.61,0.30,31874.57,1628.03,0.19,55327.75,1064.78,0.22,42294.42
832900,1462.30,497.74,1.00,1,1,1,1319.90,0.19,12246.04,1241.80,0.16,7649.02,1066.07,0.18,13990.86,838.84,0.13,35857.20,362.59,0.56,33160.03
847600,1478.77,499.52,1.00,1,1,1,1126.75,0.11,14761.65,752.94,-0.01,35112.97,537.31,-0.17,40175.46,86.18,-0.09,51355.16,474.92,2.90,52605.70
862400,1484.51,497.48,1.00,1,1,1,411.96,-0.34,52488.22,562.13,-2.22,79628.53,378.66,-2.15,52113.22,685.10,-2.95,51910.38,1257.09,3.10,53851.70
877000,1468.73,486.39,1.00,1,1,1,1320.70,-2.53,109217.15,1330.19,-2.65,58281.85,1194.44,-2.78,62859.17,1626.06,-3.01,64604.58,1901.97,-3.13,44541.56
891700,1450.15,479.09,1.00,1,1,1,1358.44,-2.77,21759.12,1789.31,-2.92,42025.29,2471.10,-2.95,89033.93,2921.80,-3.04,88300.77,2553.71,-3.10,44541.13
913500,1405.03,471.98,1.00,2,2,2,2095.01,-2.99,37757.37,3463.57,-3.05,78136.53,3756.14,-3.05,60545.58,3658.20,-3.05,33792.89,3002.51,-3.09,20605.42
927700,1326.04,467.07,1.00,2,2,2,5573.67,-3.08,246024.85,6166.64,-3.10,191114.47,5317.06,-3.09,110754.64,4395.91,-3.07,52141.31,3282.20,-3.09,19710.90
943600,1219.60,463.76,1.00,2,2,2,6697.57,-3.11,71676.20,7541.54,-3.12,87060.85,5905.68,-3.10,37052.69,4616.07,-3.08,14303.99,3473.13,-3.09,12062.15
957800,1099.09,462.37,1.00,2,2,2,8487.31,-3.13,126466.11,5725.52,-3.10,128279.72,5951.54,-3.10,4084.02,5175.48,-3.09,39511.08,3563.97,-3.10,6578.09
987200,970.19,453.19,1.00,3,3,3,4395.37,-3.07,139730.78,5025.16,-3.09,23881.80,5217.33,-3.09,25061.59,5623.26,-3.09,15270.50,3539.78,-3.10,846.34
1009400,840.13,448.99,1.00,1,1,1,5861.41,-3.11,66632.47,4790.57,-3.09,10582.94,5078.02,-3.08,6670.22,5487.31,-3.10,6593.29,3468.88,-3.11,3348.67
1039100,721.92,439.71,1.00,1,1,1,3992.37,-3.06,63377.31,5139.84,-3.08,11905.35,5370.47,-3.09,9902.84,5062.05,-3.12,14527.44,3443.19,-3.13,2291.74
1053700,612.93,434.12,1.00,1,1,1,7475.52,-3.09,238788.28,6360.53,-3.09,83846.38,4975.47,-3.10,27458.10,4062.38,-3.13,68601.81,3480.82,3.14,5022.64
1069500,528.80,430.19,1.00,1,1,1,5330.25,-3.09,135788.73,4738.15,3.14,104334.67,4819.56,3.12,20199.22,3437.16,3.13,39919.44,3382.12,3.12,7468.09
1083500,471.73,434.69,1.00,1,1,1,4089.03,3.06,97998.61,3255.62,2.99,114118.46,2635.50,3.02,158214.52,2510.39,3.10,66531.29,3109.76,3.10,19886.80
1098600,435.21,444.89,1.00,1,1,1,2511.25,2.87,112266.70,1066.93,2.59,152980.94,1115.21,2.73,105744.85,1952.06,3.01,39121.34,2706.31,3.08,26950.10
1120500,438.17,455.48,1.00,1,1,1,502.35,1.30,116955.65,818.75,0.50,74651.56,507.76,1.08,57779.32,1348.69,2.85,29964.74,2167.82,3.07,24620.09
1135200,461.53,459.22,1.00,1,1,1,1608.70,0.16,100071.11,1713.28,0.18,66098.83,788.51,0.54,29684.41,870.36,2.56,39134.41,1657.33,3.05,34840.66
1149900,487.76,464.35,1.00,1,1,1,1818.37,0.19,14813.48,752.67,0.60,72928.82,515.15,1.11,30600.53,601.17,2.12,28244.35,996.99,3.02,45014.03
1164300,479.61,471.57,1.00,1,1,1,756.07,2.42,163558.11,1409.29,2.68,131623.70,672.87,2.26,45697.13,492.84,1.41,27148.26,350.21,2.85,45430.45
1178600,451.50,482.28,1.00,1,1,1,2103.43,2.78,99410.06,1395.52,2.70,1894.55,1044.66,2.55,31164.52,515.47,0.90,17984.20,316.86,0.21,45215.68
1200800,433.59,493.39,1.00,1,1,1,949.70,2.59,53369.98,786.57,2.37,31530.52,767.58,2.31,15766.83,552.42,0.54,8780.79,836.47,0.02,23788.50
1215900,430.52,502.78,1.00,1,1,1,654.25,1.89,40788.14,667.62,0.91,64325.74,534.47,0.72,62598.17,735.29,0.19,18867.50,1163.84,-0.04,22076.15
1230100,445.55,508.86,1.00,2,2,2,1142.28,0.38,89922.74,1647.27,0.06,92202.81,1480.09,0.01,79461.84,1177.11,-0.04,34553.25,1421.78,-0.08,18562.26
1244900,478.21,505.57,1.00,2,2,2,2217.45,-0.10,89126.40,2591.71,-0.19,72693.59,2533.98,-0.14,73933.85,1831.44,-0.13,45121.10,1506.87,-0.12,6864.56
1259600,520.61,494.31,1.00,2,2,2,2984.70,-0.26,59151.55,3446.72,-0.23,58814.76,2920.26,-0.22,30392.69,2512.95,-0.19,47082.67,1406.90,-0.15,7229.44
1274600,577.77,481.80,1.00,2,2,2,3901.13,-0.22,61913.08,3182.60,-0.25,17766.22,3326.12,-0.25,27563.91,2623.62,-0.22,9702.28,1373.77,-0.18,3576.69
1296800,635.46,465.58,1.00,3,3,3,2699.38,-0.27,54803.66,3229.63,-0.26,3258.75,3457.87,-0.26,6119.28,2754.35,-0.25,6785.18,1434.98,-0.20,3262.07
1311500,692.87,450.90,1.00,1,1,1,4030.98,-0.25,90740.25,3805.80,-0.27,39294.46,2698.57,-0.28,51789.88,2569.25,-0.26,12839.12,1471.30,-0.21,2543.62
1326300,743.55,435.20,1.00,1,1,1,3584.49,-0.30,32783.74,2255.88,-0.30,104808.71,2606.42,-0.28,6227.16,2168.50,-0.27,27084.49,1427.93,-0.22,3005.43
1355700,788.27,421.88,1.00,1,1,1,1587.10,-0.29,67944.46,1809.56,-0.28,15215.41,1953.71,-0.28,22209.03,1911.41,-0.28,8796.25,1354.41,-0.23,2630.54
1370700,820.76,412.97,1.00,1,1,1,2245.88,-0.27,44002.78,1598.91,-0.27,14131.28,1277.56,-0.28,45076.69,1676.71,-0.30,15827.44,1199.50,-0.28,11128.62
1393300,846.27,406.06,1.00,1,1,1,1169.52,-0.26,47627.19,824.22,-0.29,34302.10,1129.17,-0.29,6579.04,1174.82,-0.32,22225.93,932.60,-0.32,11968.51
1422800,861.89,400.64,1.00,1,1,1,560.51,-0.33,20731.93,729.06,-0.34,3471.81,835.49,-0.37,10301.02,595.86,-0.32,19625.85,549.05,-0.39,13103.27
1437300,876.51,395.35,1.00,1,1,1,1072.00,-0.35,35281.28,868.52,-0.51,13369.84,316.71,-0.54,36245.90,157.25,-0.41,30311.23,148.41,-0.91,29397.17
1452100,884.10,388.22,1.00,1,1,1,703.99,-0.75,34378.59,349.07,-3.03,79023.17,398.24,2.97,47504.84,290.60,-3.13,29660.40,348.09,-3.11,30533.83
1466800,866.28,394.17,1.00,1,1,1,1278.17,2.82,131972.59,1378.42,2.81,73140.84,1042.10,2.89,43955.74,818.71,3.02,36198.50,773.05,3.04,29287.73
1489200,835.82,405.08,1.00,2,2,2,1444.33,2.80,7538.10,1619.61,2.83,10853.49,1642.16,2.92,26839.16,1594.43,2.97,34711.28,1140.89,2.99,16559.22
1503600,809.62,412.66,1.00,2,2,2,1894.26,2.86,32058.57,1996.26,3.01,35093.39,2056.53,2.95,29074.17,2094.53,2.95,34812.68,1521.62,2.99,26439.57
1518500,777.81,412.53,1.00,2,2,2,2134.91,-3.14,41651.47,2632.59,3.04,42964.52,2966.22,2.97,61162.44,2698.06,2.93,40636.13,1733.47,2.98,14231.75
1532900,732.85,420.15,1.00,2,2,2,3166.71,2.97,78053.48,3962.72,2.95,94788.56,3157.82,2.97,13315.55,3043.69,2.94,24114.23,1885.50,2.98,10571.35
1547100,666.56,434.17,1.00,3,3,3,4771.55,2.93,113567.26,3587.78,2.93,26793.27,3765.49,2.94,43625.32,3405.23,2.95,25540.25,2088.18,2.97,14296.31
1569400,604.75,447.35,1.00,1,1,1,2833.99,2.93,86886.22,3613.76,2.93,1222.85,4030.89,2.94,11906.90,3507.11,2.98,5772.63,2165.74,2.97,3542.40
1584200,535.48,462.33,1.00,1,1,1,4788.69,2.93,132076.38,4577.62,2.95,65343.47,3787.63,2.94,16438.48,3450.37,2.97,4382.77,2208.79,2.95,3477.78
1599000,471.75,473.23,1.00,1,1,1,4368.71,2.97,31400.89,4006.78,2.95,38574.63,3897.33,2.98,12122.65,3007.76,2.97,29907.14,2027.55,2.96,12250.74
1613700,419.41,484.67,1.00,1,1,1,3644.48,2.93,50815.83,3214.36,3.02,56210.91,3102.61,3.00,54431.82,2547.56,2.97,31328.22,1915.04,2.97,7795.55
1628300,378.30,484.97,1.00,1,1,1,2815.80,3.13,72808.10,2210.89,3.10,70355.70,1998.11,3.02,75708.82,2240.97,2.98,21017.40,1716.64,2.98,13719.24
1643100,354.47,487.44,1.00,1,1,1,1618.91,3.04,82058.57,1045.36,3.03,79051.20,1323.28,3.07,45922.63,1696.29,2.99,36821.66,1589.62,3.00,8717.62
1665700,339.44,489.24,1.00,1,1,1,669.81,3.02,42001.39,631.80,2.99,18350.93,780.55,2.99,24290.32,1070.12,2.99,27706.94,1380.20,3.05,10020.28
1680700,330.97,490.94,1.00,1,1,1,575.67,2.94,7082.39,448.44,2.86,13067.24,458.56,2.90,21786.79,660.39,3.03,27406.12,1057.43,-3.07,24911.20
1695100,326.76,492.86,1.00,1,1,1,321.37,2.71,18931.52,252.17,2.58,15181.51,237.33,2.72,15872.64,344.82,3.03,21914.68,2240.97,2.98,85782.81
1709900,324.75,494.88,1.00,1,1,1,192.68,2.35,10609.25,108.18,2.32,10135.77,121.26,2.61,7938.58,182.56,-2.85,12847.48,1696.29,2.99,36821.66
1739200,323.51,496.35,1.00,1,1,1,65.61,2.28,4346.32,47.46,2.73,2298.45,47.33,-2.76,3389.23,221.10,-1.64,7952.47,1070.12,2.99,21371.22
1761400,322.51,495.86,1.00,1,1,1,49.84,-2.69,3238.16,101.52,-1.76,5466.16,165.68,-1.49,7126.50,542.26,-1.18,16089.58,660.39,3.03,18517.65
1791000,322.54,491.18,1.00,2,2,2,158.22,-1.56,4857.59,386.76,-1.37,9975.71,533.77,-1.25,12669.94,47.33,-2.76,18405.38,344.82,3.03,10661.20
1805800,325.98,479.04,1.00,3,3,3,852.21,-1.29,47364.08,1312.45,-1.19,63151.02,1243.97,-1.12,48555.73,165.68,-1.49,10689.74,182.56,-2.85,12847.48
1820700,337.16,455.04,1.00,0,0,0,1776.94,-1.13,63453.12,2565.42,-1.06,85516.52,1312.45,-1.19,7529.33,533.77,-1.25,25169.81,221.10,-1.64,15638.08
1835100,362.72,413.47,1.00,0,0,0,3389.18,-1.02,113666.25,3389.18,-1.02,57802.97,2565.42,-1.06,88485.84,1243.97,-1.12,49904.50,542.26,-1.18,24804.76
