@RELATION gaze_labels

%@METADATA width_px 1920
%@METADATA height_px 1080
%@METADATA width_mm 540.00
%@METADATA height_mm 254.00
%@METADATA distance_mm 620.00


@ATTRIBUTE time INTEGER
@ATTRIBUTE x NUMERIC
@ATTRIBUTE y NUMERIC
@ATTRIBUTE confidence NUMERIC
@ATTRIBUTE handlabeller1 INTEGER
@ATTRIBUTE handlabeller2 INTEGER
@ATTRIBUTE handlabeller_final INTEGER
@ATTRIBUTE speed_1 numeric
@ATTRIBUTE direction_1 numeric
@ATTRIBUTE acceleration_1 numeric
@ATTRIBUTE speed_2 numeric
@ATTRIBUTE direction_2 numeric
@ATTRIBUTE acceleration_2 numeric
@ATTRIBUTE speed_4 numeric
@ATTRIBUTE direction_4 numeric
@ATTRIBUTE acceleration_4 numeric
@ATTRIBUTE speed_8 numeric
@ATTRIBUTE direction_8 numeric
@ATTRIBUTE acceleration_8 numeric
@ATTRIBUTE speed_16 numeric
@ATTRIBUTE direction_16 numeric
@ATTRIBUTE acceleration_16 numeric

%The number after speed, direction denotes the step size that was used for the calculation.
%Acceleration was calculated between two adjacent samples of the already low pass filtered velocity

@DATA
0,-8.49,419.07,1.00,1,1,1,0.00,0.00,0.00,2114.06,0.42,0.00,1714.62,0.55,0.00,1152.54,0.88,0.00,543.09,1.42,0.00
14500,19.53,431.49,1.00,1,1,1,2114.06,0.42,145797.09,1714.62,0.55,32706.37,1140.29,0.97,56399.33,757.12,1.42,44264.56,392.99,1.83,16619.62
29200,34.15,445.31,1.00,1,1,1,1368.25,0.76,64083.85,1140.29,0.97,55631.99,1152.54,0.88,7489.60,696.79,1.95,25952.03,312.07,2.05,7688.18
43600,38.26,458.88,1.00,1,1,1,985.01,1.28,49217.86,871.95,1.54,43328.83,757.12,1.42,44571.95,676.08,2.30,16571.48,165.42,1.99,10228.04
58700,34.84,471.02,1.00,1,1,1,835.10,1.85,35124.39,672.43,2.05,28552.95,696.79,1.95,25264.56,543.09,1.42,35301.75,118.65,0.42,13491.18
80500,26.86,480.92,1.00,1,1,1,583.41,2.25,17280.49,671.90,2.37,9955.10,676.08,2.30,10946.30,392.99,1.83,11054.34,364.66,-0.10,12308.99
95300,17.17,488.13,1.00,1,1,1,815.58,2.50,19596.50,735.99,2.58,10788.73,483.27,2.51,15476.13,312.07,2.05,7636.23,702.76,-0.15,22908.26
110000,8.47,492.47,1.00,1,1,1,661.57,2.68,13685.25,342.17,2.74,27348.12,275.40,2.66,14621.08,165.42,1.99,10019.31,1045.23,-0.14,23299.51
139700,3.18,494.04,1.00,1,1,1,185.89,2.85,16148.32,77.24,3.02,9044.62,70.72,2.84,6942.69,118.65,0.42,6859.15,801.08,0.18,12999.72
176600,3.37,493.11,1.00,1,1,1,25.59,-1.37,5398.90,164.04,-0.48,6449.66,172.22,-0.37,6580.62,364.66,-0.10,7271.98,824.19,0.09,2121.61
191300,10.69,490.13,1.00,1,1,1,537.64,-0.39,35635.65,546.27,-0.32,26214.07,551.93,-0.28,25900.66,702.76,-0.15,23064.10,831.30,0.01,4622.62
220700,26.26,485.61,1.00,2,2,2,551.59,-0.28,2006.96,1010.48,-0.24,15911.05,1183.57,-0.21,21556.59,1045.23,-0.14,11649.75,847.31,-0.02,1062.10
235400,53.98,479.58,1.00,2,2,2,1929.87,-0.21,93882.13,2145.59,-0.17,77495.48,1618.61,-0.16,30045.04,1406.75,-0.14,24605.12,861.50,-0.07,2759.96
250100,88.39,474.72,1.00,3,3,3,2364.20,-0.14,31430.26,2351.38,-0.12,16493.43,2508.63,-0.12,60780.83,1905.10,-0.15,33921.48,973.11,-0.10,7834.77
272300,140.16,469.50,1.00,1,1,1,2343.64,-0.10,4330.94,2801.18,-0.09,20567.78,2647.31,-0.09,6959.07,1982.75,-0.15,3550.48,1076.95,-0.11,4735.36
287100,191.66,465.83,1.00,1,1,1,3488.24,-0.07,77546.06,3017.87,-0.07,14992.52,2704.56,-0.11,5367.88,2152.53,-0.12,12352.84,1194.97,-0.11,7978.83
301900,229.27,463.30,1.00,1,1,1,2547.50,-0.07,63568.68,2587.26,-0.15,32834.44,2481.04,-0.15,16273.56,1868.20,-0.11,19305.61,1415.93,-0.09,15061.95
316800,267.63,454.34,1.00,1,1,1,2643.77,-0.23,28967.44,1967.73,-0.27,45261.51,1753.12,-0.12,48997.81,1749.00,-0.10,8078.94,1753.03,-0.07,22661.45
331500,285.44,447.87,1.00,1,1,1,1288.70,-0.35,93393.95,917.55,-0.04,74450.69,1089.87,-0.14,45145.95,1606.64,-0.09,9709.10,1958.92,-0.06,14198.93
346300,294.68,453.30,1.00,1,1,1,724.66,0.53,67449.10,448.93,0.34,35577.95,789.37,-0.04,21228.95,1408.26,-0.07,13513.56,2319.38,-0.06,24355.16
368400,301.07,453.36,1.00,1,1,1,288.86,0.01,22436.45,686.62,-0.04,14291.80,836.93,0.06,4298.11,1432.50,-0.03,3226.13,2528.32,-0.05,9483.12
383100,319.93,452.32,1.00,1,1,1,1285.27,-0.06,67834.89,1357.42,-0.05,45639.68,1104.15,-0.01,18721.86,1595.74,0.02,12069.24,2668.37,-0.05,9563.22
397600,340.65,451.32,1.00,1,1,1,1430.57,-0.05,10041.90,1627.50,0.01,19708.47,1829.34,0.05,50292.58,1953.87,0.05,24923.04,2569.59,-0.05,6851.06
412500,367.78,452.87,1.00,2,2,2,1823.49,0.06,28714.85,2297.39,0.10,46568.08,2499.33,0.04,44979.06,2484.87,-0.00,36441.85,2420.80,-0.06,10036.41
427700,409.42,458.57,1.00,2,2,2,2765.35,0.14,63060.64,3357.56,0.05,70365.45,3065.89,0.04,37276.57,3234.03,-0.02,49328.65,2411.67,-0.07,2049.33
442400,468.02,458.29,1.00,2,2,2,3986.42,-0.00,88936.93,3708.67,0.01,26021.95,3861.44,-0.00,55218.13,3647.49,-0.03,28427.06,2175.94,-0.06,16052.49
464000,544.04,460.06,1.00,1,1,1,3520.25,0.02,22118.67,4281.79,-0.04,28227.55,4500.62,-0.04,30330.21,3431.85,-0.03,9984.15,2026.62,-0.06,6913.16
478900,624.17,451.86,1.00,1,1,1,5406.32,-0.10,131770.35,5478.68,-0.08,81277.90,4689.59,-0.07,15629.70,3281.28,-0.05,10766.74,1859.52,-0.09,11628.81
493700,706.24,447.17,1.00,1,1,1,5554.28,-0.06,19372.20,5199.73,-0.10,19730.07,3775.06,-0.09,62090.20,3249.99,-0.08,7908.98,1741.50,-0.09,7998.22
508300,776.35,437.29,1.00,1,1,1,4849.28,-0.14,56566.75,2628.17,-0.10,176146.38,2813.99,-0.10,65884.39,2632.70,-0.10,42445.46,1626.73,-0.09,7860.49
537800,821.52,435.19,1.00,1,1,1,1533.01,-0.05,112748.22,1460.10,-0.11,39602.24,2243.74,-0.16,19954.79,2107.27,-0.15,18237.10,1558.59,-0.08,2357.24
560100,851.49,428.64,1.00,1,1,1,1375.32,-0.22,13054.00,1800.38,-0.26,18472.58,1226.51,-0.20,45694.00,1343.36,-0.22,34636.97,1551.14,-0.10,1058.40
574900,886.11,418.15,1.00,1,1,1,2444.33,-0.29,72889.58,967.87,-0.34,56728.07,637.67,-0.50,43642.54,627.33,-0.41,49736.86,1529.35,-0.11,2160.20
604200,891.72,414.40,1.00,1,1,1,230.54,-0.59,75932.08,464.14,-2.76,46106.07,446.44,-2.40,30360.05,185.31,-1.24,17798.10,1472.83,-0.10,2002.76
619100,867.09,410.46,1.00,1,1,1,1674.10,-2.98,124142.31,2195.32,-3.02,117517.26,1073.69,-3.01,50569.60,270.76,-2.57,19365.94,1369.74,-0.10,6935.12
633800,827.23,406.41,1.00,1,1,1,2725.33,-3.04,71989.05,1827.17,-3.09,26825.23,1586.17,-3.09,35513.44,316.27,-2.68,3794.42,1345.12,-0.08,2401.41
656000,799.76,406.91,1.00,1,1,1,1237.70,3.12,67738.36,1111.24,3.08,33012.65,1191.35,3.10,18655.04,294.73,-2.91,3295.06,1381.88,-0.08,1658.52
670900,786.08,408.77,1.00,1,1,1,927.01,3.01,22470.93,456.99,2.64,48770.77,234.36,2.99,64362.35,22.54,3.08,18337.09,1470.59,-0.07,6038.88
685600,787.92,413.46,1.00,1,1,1,342.58,1.20,72254.85,880.04,0.00,88346.05,783.31,0.04,69005.40,529.30,0.15,37507.46,1685.80,-0.07,14659.60
700200,811.86,408.82,1.00,1,1,1,1670.04,-0.19,112476.77,1980.63,-0.08,75782.06,1751.48,0.06,66333.52,1380.06,0.08,58432.67,1746.91,-0.07,4290.60
715000,845.95,408.56,1.00,2,2,2,2303.27,-0.01,49224.81,2618.74,0.07,49523.97,2242.27,0.05,33166.10,2419.31,0.03,70481.22,1651.16,-0.04,7154.12
729700,888.90,414.56,1.00,2,2,2,2950.21,0.14,51063.04,2474.04,0.14,14872.78,2988.55,0.06,50791.55,3302.35,-0.00,60357.53,1602.23,-0.01,4854.20
752000,936.61,421.23,1.00,1,1,1,2160.15,0.14,35428.70,3284.50,0.05,37969.69,3881.81,0.03,40351.40,3944.33,-0.03,29079.73,1331.25,0.04,12514.19
766600,1009.93,420.96,1.00,1,1,1,5022.07,-0.00,198641.20,5707.26,-0.03,167797.81,4689.45,-0.02,57099.73,3887.74,-0.02,3929.07,1001.93,0.11,23322.30
781000,1102.04,416.08,1.00,1,1,1,6405.40,-0.05,97997.00,6494.87,-0.07,56574.77,5893.95,-0.06,84927.69,3699.49,-0.02,13164.84,655.99,0.29,25992.22
795600,1197.88,408.66,1.00,1,1,1,6584.06,-0.08,16346.98,6083.07,-0.09,29521.48,4809.79,-0.08,74504.78,3145.79,-0.01,37979.06,312.60,0.90,30070.80
810300,1279.62,400.84,1.00,1,1,1,5585.97,-0.10,68304.49,3489.76,-0.09,176425.39,3527.06,-0.07,87285.95,2101.69,0.01,71098.03,345.56,2.17,26647.51
832600,1326.46,396.86,1.00,1,1,1,2108.02,-0.08,155969.87,1511.39,-0.01,89075.42,1610.13,0.02,86499.60,691.27,0.17,63813.72,691.00,2.64,18518.17
847400,1335.69,400.06,1.00,1,1,1,660.10,0.33,103309.78,895.75,2.57,156805.81,689.62,2.71,152100.00,807.81,2.79,97985.40,1090.39,2.80,28620.86
861800,1304.44,410.98,1.00,1,1,1,2298.24,2.81,197575.61,2503.40,2.92,117361.52,2228.25,2.94,108597.36,2057.24,2.94,87684.67,1435.89,2.90,25491.33
891100,1228.94,424.00,1.00,1,1,1,2615.00,2.97,17542.32,2851.63,2.99,13410.70,3813.00,2.97,54198.41,3183.04,2.97,38508.83,1781.81,2.96,12162.70
927400,1119.55,439.39,1.00,2,2,2,3043.22,3.00,12041.24,4939.43,3.00,57520.53,4257.01,2.99,12326.19,4048.41,2.98,23886.55,2094.45,2.99,8798.81
942100,979.67,460.37,1.00,2,2,2,9622.07,2.99,447553.21,6361.89,2.99,96845.74,5326.61,2.99,72781.66,4647.98,2.99,40992.35,2280.16,3.01,12951.86
971200,844.24,482.45,1.00,3,3,3,4715.19,2.98,168647.15,5776.49,2.99,20123.34,6189.81,3.00,29681.34,4848.50,3.01,7641.15,2497.75,3.02,7555.52
986000,729.03,498.94,1.00,3,3,3,7864.05,3.00,212911.92,5986.70,3.01,17054.16,5629.51,3.01,38191.62,5119.08,3.03,18644.60,2643.04,3.03,9923.48
1008100,625.17,510.85,1.00,1,1,1,4730.45,3.03,142001.03,5457.86,3.04,24819.47,5830.18,3.05,13118.13,5285.30,3.04,8076.93,2820.03,3.04,8040.69
1022800,529.25,519.68,1.00,1,1,1,6552.32,3.05,124227.74,5644.16,3.09,24333.04,4830.81,3.08,68847.29,3926.64,3.06,92641.00,2884.11,3.04,4382.72
1037500,459.42,518.89,1.00,1,1,1,4750.65,-3.13,128656.63,4052.15,-3.14,109556.94,4052.45,3.12,54676.83,3103.80,3.10,56844.46,2813.28,3.05,5241.96
1051900,411.34,519.40,1.00,1,1,1,3339.58,3.13,98177.65,2435.98,-3.09,112726.36,1869.05,-3.05,153160.68,1952.72,-3.11,80973.78,2694.23,3.05,8292.28
1066300,389.36,515.34,1.00,1,1,1,1552.13,-2.96,127818.53,328.63,-1.92,161567.27,473.24,-2.47,103917.80,1143.20,-2.96,58302.59,2539.70,3.07,11050.18
1088400,407.19,508.14,1.00,1,1,1,870.04,-0.38,105590.22,1318.41,-0.33,61768.44,1019.13,-0.45,58606.96,500.90,-2.61,31387.76,2078.18,3.10,21222.22
1103100,435.21,499.47,1.00,1,1,1,1995.25,-0.30,76907.97,2281.32,-0.27,65912.54,1520.66,-0.31,36213.27,251.31,-1.42,31876.18,1773.97,-3.12,21961.06
1117800,471.81,490.18,1.00,1,1,1,2568.90,-0.25,39830.66,1774.95,-0.28,34478.14,1211.01,-0.28,21159.46,301.84,-0.71,13619.86,1446.71,-3.06,23163.77
1132500,485.33,484.95,1.00,1,1,1,986.16,-0.37,108454.10,144.42,-0.51,111186.68,527.74,-0.38,46765.26,377.20,-0.53,6484.62,1220.48,-3.01,16213.27
1147200,475.52,488.12,1.00,1,1,1,701.12,2.83,114737.39,736.06,3.00,59354.91,453.60,3.03,66149.62,225.75,-1.25,17365.27,890.03,-2.92,23251.40
1161800,463.98,487.99,1.00,1,1,1,790.86,-3.13,17596.21,918.42,2.98,12521.24,803.40,3.05,23965.96,425.94,-2.64,30391.97,702.47,-2.87,13179.28
1184400,441.78,493.46,1.00,1,1,1,1011.73,2.90,13993.10,857.92,3.08,4547.15,903.09,-3.03,9001.18,919.57,-2.97,23643.44,511.52,-2.79,8705.79
1198700,432.38,489.98,1.00,2,2,2,700.41,-2.79,40852.68,977.95,-2.70,33010.12,1157.16,-2.95,18516.73,1299.73,-3.05,27356.42,307.19,-2.66,14715.03
1213500,416.04,481.32,1.00,3,3,3,1250.00,-2.65,38071.76,1588.69,-2.79,41887.10,1478.96,-2.87,23081.19,1246.03,-3.03,4082.44,193.05,-2.48,8296.10
1228100,388.59,473.74,1.00,3,3,3,1950.20,-2.87,53286.12,1996.40,-2.95,34151.41,1878.68,-2.96,29404.20,1285.10,-3.03,2712.81,109.39,-1.48,11141.75
1242800,358.64,470.05,1.00,1,1,1,2053.08,-3.02,21203.88,2206.72,-3.09,24302.72,1526.74,-3.03,25165.97,1165.28,-3.01,8463.91,211.06,-0.43,12416.09
1257800,323.16,470.06,1.00,1,1,1,2365.44,3.14,27525.39,1267.55,-3.10,62633.63,1394.45,-3.09,10475.79,789.40,-3.02,25067.09,487.13,-0.25,18793.37
1294500,293.16,467.36,1.00,1,1,1,820.61,-3.05,42231.09,926.02,-3.09,9313.07,961.01,3.12,12034.86,326.71,-3.00,12608.97,827.60,-0.21,9313.88
1309300,275.53,467.51,1.00,1,1,1,1191.04,3.13,25873.15,446.00,2.82,36213.26,135.78,2.78,56385.69,307.15,-0.11,42489.44,1137.12,-0.19,20938.44
1323900,280.71,471.48,1.00,1,1,1,446.95,0.65,107377.69,814.65,0.20,83702.17,867.83,0.09,67912.46,1035.12,-0.03,49958.04,1412.84,-0.19,18887.92
1353700,310.99,474.69,1.00,2,2,2,1021.55,0.11,22861.99,1592.70,0.03,26906.64,2000.73,0.00,38219.18,1838.29,-0.07,27004.99,1548.76,-0.18,4574.28
1375900,363.50,473.91,1.00,2,2,2,2365.66,-0.01,61126.81,3451.85,-0.05,84176.74,3018.96,-0.03,45995.56,2962.66,-0.07,50647.58,1665.78,-0.15,5603.04
1390600,438.19,468.16,1.00,3,3,3,5096.28,-0.08,186334.92,5531.27,-0.06,141463.23,4676.94,-0.08,113592.09,3642.16,-0.08,46328.86,1759.63,-0.14,6534.36
1405500,526.97,464.80,1.00,3,3,3,5962.50,-0.04,59899.81,6207.16,-0.10,48565.10,5861.32,-0.10,79778.76,3802.49,-0.09,11288.56,1850.33,-0.13,6177.32
1420200,621.01,449.85,1.00,1,1,1,6477.57,-0.16,61546.95,6201.31,-0.14,16190.87,5910.81,-0.12,9012.76,4242.43,-0.11,30393.46,1979.48,-0.12,8835.83
1435100,708.78,439.52,1.00,1,1,1,5931.27,-0.12,40332.87,5617.16,-0.14,39245.25,4780.31,-0.15,76460.43,4227.90,-0.12,2989.25,2213.63,-0.09,16532.80
1449800,785.59,426.21,1.00,1,1,1,5302.93,-0.17,47500.98,3637.76,-0.16,134740.28,3813.27,-0.16,65834.67,3640.50,-0.14,40314.64,2400.74,-0.07,13117.64
1471900,840.97,418.40,1.00,1,1,1,2530.88,-0.14,125540.60,2363.41,-0.18,57734.83,2773.93,-0.17,47077.60,2919.68,-0.18,33012.67,2559.19,-0.05,7421.79
1486600,871.16,410.63,1.00,1,1,1,2120.16,-0.25,33035.66,1697.48,-0.20,45392.41,1619.62,-0.22,78867.34,2170.29,-0.19,51001.68,2639.93,-0.05,5502.46
1501400,890.04,408.39,1.00,1,1,1,1284.82,-0.12,58384.10,704.61,-0.39,68558.67,838.92,-0.38,54283.21,1419.92,-0.14,51071.13,2654.51,-0.04,1875.33
1516100,890.36,402.67,1.00,1,1,1,389.62,-1.51,86836.16,310.34,-1.95,52020.14,353.83,-0.58,33809.18,1084.82,-0.02,24714.10,2435.47,-0.03,15119.06
1530700,886.71,399.93,1.00,1,1,1,312.54,-2.50,23135.91,133.58,-2.03,12159.85,114.00,0.87,24542.36,1103.19,0.13,11367.12,2345.15,-0.02,6424.73
1545700,888.62,399.12,1.00,1,1,1,137.82,-0.40,26656.18,446.69,1.05,38669.13,662.88,0.48,37255.19,1146.63,0.16,3955.71,2048.03,0.01,20131.18
1567400,894.91,414.12,1.00,2,2,2,749.71,1.17,35146.07,1289.40,0.53,42729.85,1482.49,0.38,38060.02,1347.07,0.17,9250.20,1905.11,0.02,6772.77
1582200,929.18,422.98,1.00,2,2,2,2391.72,0.25,137001.55,2935.66,0.26,116802.17,1808.15,0.26,25519.88,1546.72,0.18,13527.42,1696.02,0.05,14497.21
1596400,977.19,435.99,1.00,2,2,2,3502.68,0.26,78272.66,2297.02,0.14,50212.56,2384.21,0.15,43879.92,1960.14,0.17,29178.54,1525.72,0.07,12266.49
1626000,1028.84,436.79,1.00,3,3,3,1745.21,0.02,62902.52,2090.51,0.06,9081.36,2190.40,0.12,6870.30,2012.39,0.15,2154.58,1301.12,0.10,7673.85
1647600,1084.04,442.31,1.00,1,1,1,2568.12,0.10,38986.51,2098.63,0.11,4496.64,2323.77,0.07,7846.09,2290.44,0.10,13857.83,1056.37,0.12,11374.74
1676600,1134.44,447.95,1.00,1,1,1,1749.01,0.11,28257.73,2597.64,0.09,17254.90,2187.68,0.08,4693.61,2160.11,0.08,4741.67,808.01,0.15,8624.02
1691300,1197.10,452.44,1.00,1,1,1,4273.32,0.07,171879.91,2276.53,0.05,22828.96,2216.46,0.05,4074.61,1826.32,0.05,23030.99,604.32,0.19,13999.52
1728300,1252.00,453.74,1.00,1,1,1,1484.12,0.02,75454.53,1897.57,0.01,10492.36,2130.09,0.03,2783.82,1438.67,0.05,10477.14,384.43,0.26,6023.04
1743000,1295.20,453.30,1.00,1,1,1,2939.16,-0.01,99099.07,1875.92,-0.02,4353.37,1247.00,-0.01,60178.60,786.84,0.02,44391.05,133.06,0.31,17114.42
1757700,1307.13,452.47,1.00,1,1,1,813.83,-0.07,144716.72,114.26,-0.45,120569.64,165.31,-0.57,75561.85,61.00,-1.36,52920.05,208.91,-3.05,23129.66
1772400,1298.23,451.85,1.00,1,1,1,607.17,-3.07,96438.21,1608.53,-3.06,116195.01,1523.05,-3.05,112691.80,874.66,-3.01,59937.01,550.52,-3.02,23247.81
1787000,1260.17,448.51,1.00,2,2,2,2616.84,-3.05,137658.41,3128.31,-3.07,104105.33,2592.46,-3.06,73275.60,2001.03,-3.05,77240.62,874.05,-3.04,22176.39
1802100,1205.57,444.98,1.00,2,2,2,3623.23,-3.08,66810.52,3375.90,-3.07,16399.42,3465.20,-3.07,57802.32,2905.60,-3.07,59994.23,1190.84,-3.03,20988.16
1823800,1136.29,439.16,1.00,2,2,2,3204.06,-3.06,19551.81,3739.33,-3.07,16750.21,3886.14,-3.07,19401.63,3545.67,-3.06,29506.28,1470.22,-3.03,12878.37
1838600,1069.46,434.94,1.00,3,3,3,4524.65,-3.08,89388.90,4520.55,-3.07,52807.57,4145.79,-3.07,17566.68,3712.83,-3.07,11400.75,1647.12,-3.03,11972.16
1853400,1002.79,430.05,1.00,3,3,3,4516.57,-3.07,3137.68,4650.55,-3.08,8924.28,4622.72,-3.06,32431.51,3412.89,-3.06,20291.69,1870.02,-3.05,15125.26
1868000,933.00,426.32,1.00,1,1,1,4786.84,-3.09,19561.78,4728.08,-3.05,11002.84,3961.22,-3.07,45368.36,3279.85,-3.05,9390.57,1960.28,-3.06,6418.13
1882300,866.74,417.35,1.00,1,1,1,4675.98,-3.01,27960.00,3407.86,-3.06,92363.41,3021.19,-3.06,65789.32,3031.57,-3.05,17414.39,1859.20,-3.07,7179.55
1904600,808.71,415.94,1.00,1,1,1,2603.11,-3.12,94535.30,2059.88,-3.07,60463.67,2569.73,-3.03,20563.64,2465.63,-3.04,25383.68,1821.98,-3.07,1750.91
1933600,761.34,409.79,1.00,1,1,1,1647.08,-3.01,33799.81,1869.25,-2.98,8761.15,1878.90,-3.03,23823.57,1758.30,-3.04,24390.49,1602.65,-3.08,7576.12
1948200,728.22,403.17,1.00,1,1,1,2313.71,-2.94,46563.38,1574.87,-2.92,21400.18,1119.95,-2.96,52334.03,1156.74,-3.04,41205.26,1507.47,-3.09,6536.97
1963000,716.14,399.77,1.00,1,1,1,847.87,-2.87,99314.58,56.66,-1.63,105439.98,241.31,-2.83,59566.27,562.34,-3.10,40278.86,1427.87,-3.09,5404.94
1977700,728.12,401.51,1.00,1,1,1,823.83,0.14,113477.60,818.61,0.17,56661.56,540.46,0.16,53045.72,203.90,3.12,24436.20,1333.07,-3.09,6450.80
2000100,746.09,404.81,1.00,1,1,1,815.42,0.18,1441.01,978.49,0.21,7303.71,751.37,0.22,9570.10,61.80,1.12,10540.79,1210.28,-3.09,5488.22
2015000,763.85,408.95,1.00,1,1,1,1224.34,0.23,27626.48,696.94,0.27,19277.42,632.24,0.30,8781.25,126.00,0.90,4505.08,994.84,-3.07,14507.53
2044300,775.74,413.16,1.00,1,1,1,430.30,0.34,27238.61,351.11,0.52,12523.69,251.09,0.62,13721.08,126.35,2.09,4804.95,562.34,-3.10,14776.45
2059000,777.24,416.67,1.00,1,1,1,259.79,1.17,21667.57,223.14,2.63,34193.97,262.28,2.72,30278.15,378.53,2.93,21078.44,203.90,3.12,24436.20
2096100,765.68,418.85,1.00,2,2,2,316.99,2.96,12154.06,702.68,3.07,13754.80,860.17,3.08,16746.27,696.85,3.10,8876.81,61.80,1.12,6364.25
2110800,740.93,419.24,1.00,3,3,3,1683.98,3.13,93378.13,2029.05,-3.12,90530.66,1346.38,-3.12,33679.94,842.53,-3.11,10689.07,126.00,0.90,4566.37
2125500,706.04,417.64,1.00,3,3,3,2375.98,-3.10,47810.98,2488.55,-3.07,32128.42,2164.37,-3.07,55955.75,860.17,3.08,5781.60,126.35,2.09,9577.21
2140200,667.94,414.21,1.00,1,1,1,2602.33,-3.05,17116.59,2303.59,-3.02,15028.59,1832.58,-3.01,24087.52,1346.38,-3.12,33679.94,378.53,2.93,21078.44
2155200,638.11,409.50,1.00,1,1,1,2013.32,-2.99,40560.48,1203.99,-2.87,75203.40,2303.59,-3.02,31476.90,2164.37,-3.07,54836.64,696.85,3.10,21955.32
2170100,633.25,404.59,1.00,1,1,1,463.85,-2.35,111591.28,463.85,-2.35,55982.25,1203.99,-2.87,75708.12,1832.58,-3.01,23764.20,842.53,-3.11,10545.59
