@RELATION gaze_labels

%@METADATA width_px 1920
%@METADATA height_px 1080
%@METADATA width_mm 540.00
%@METADATA height_mm 254.00
%@METADATA distance_mm 620.00


@ATTRIBUTE time INTEGER
@ATTRIBUTE x NUMERIC
@ATTRIBUTE y NUMERIC
@ATTRIBUTE confidence NUMERIC
@ATTRIBUTE handlabeller1 INTEGER
@ATTRIBUTE handlabeller2 INTEGER
@ATTRIBUTE handlabeller_final INTEGER
@ATTRIBUTE speed_1 numeric
@ATTRIBUTE direction_1 numeric
@ATTRIBUTE acceleration_1 numeric
@ATTRIBUTE speed_2 numeric
@ATTRIBUTE direction_2 numeric
@ATTRIBUTE acceleration_2 numeric
@ATTRIBUTE speed_4 numeric
@ATTRIBUTE direction_4 numeric
@ATTRIBUTE acceleration_4 numeric
@ATTRIBUTE speed_8 numeric
@ATTRIBUTE direction_8 numeric
@ATTRIBUTE acceleration_8 numeric
@ATTRIBUTE speed_16 numeric
@ATTRIBUTE direction_16 numeric
@ATTRIBUTE acceleration_16 numeric

%The number after speed, direction denotes the step size that was used for the calculation.
%Acceleration was calculated between two adjacent samples of the already low pass filtered velocity

@DATA
0,14.97,405.75,1.00,1,1,1,0.00,0.00,0.00,3160.37,0.11,0.00,2407.35,0.12,0.00,1068.15,0.19,0.00,223.37,0.79,0.00
14800,61.44,411.08,1.00,1,1,1,3160.37,0.11,213538.64,2407.35,0.12,50915.34,814.73,0.20,107821.28,220.82,0.76,60195.44,179.07,2.34,19203.98
29300,84.96,414.51,1.00,1,1,1,1639.26,0.14,105012.73,814.73,0.20,110052.06,1068.15,0.19,17485.33,442.33,2.83,40056.24,214.53,2.54,3565.90
51800,91.00,416.94,1.00,1,1,1,289.82,0.38,60416.82,121.12,1.57,35550.24,220.82,0.76,39595.22,650.80,2.95,9677.03,113.94,1.86,6412.85
66700,84.96,419.04,1.00,1,1,1,429.10,2.81,45305.72,666.41,2.92,43695.66,442.33,2.83,38980.90,223.37,0.79,53458.93,297.49,0.31,21221.87
81000,72.01,421.17,1.00,1,1,1,917.99,2.98,34986.50,976.27,2.98,21922.74,650.80,2.95,15226.09,179.07,2.34,19875.45,743.20,0.09,32053.41
95700,57.01,423.55,1.00,1,1,1,1032.98,2.98,7834.80,640.59,2.96,22859.43,599.09,2.93,3561.73,214.53,2.54,3517.38,1244.29,0.03,34267.42
124800,44.40,426.18,1.00,1,1,1,442.66,2.94,20317.90,386.24,2.86,8905.20,342.12,2.81,9032.40,113.94,1.86,4958.39,1859.43,0.02,21142.27
146700,38.08,428.98,1.00,1,1,1,315.78,2.73,6807.90,124.50,2.08,14162.07,112.35,1.62,14510.89,297.49,0.31,14438.63,1323.38,0.08,24787.60
176000,41.27,431.74,1.00,1,1,1,144.11,0.71,13629.63,433.55,0.28,16320.50,407.79,0.24,13726.25,743.20,0.09,15643.81,1323.06,0.07,354.45
190800,56.47,434.22,1.00,1,1,1,1040.03,0.16,62181.28,851.50,0.10,29160.24,1008.55,0.06,41298.23,1244.29,0.03,34035.89,1399.59,0.05,5418.00
227900,85.24,436.17,1.00,2,2,2,777.50,0.07,7436.18,1506.58,0.01,17860.48,1979.29,0.00,26265.56,1859.43,0.02,16583.29,1556.17,0.04,4244.69
242800,134.80,435.18,1.00,2,2,2,3326.61,-0.02,171341.38,3959.59,-0.03,164794.80,2701.96,-0.02,48607.08,2419.34,0.02,37579.13,1689.46,0.03,9116.36
257600,202.78,432.35,1.00,3,3,3,4597.31,-0.04,86047.83,4810.82,-0.03,57515.50,4410.86,-0.01,115477.07,2896.04,0.02,32212.33,1828.06,0.02,9413.46
272300,276.64,430.51,1.00,3,3,3,5026.12,-0.02,29672.96,4868.56,0.01,14163.67,4723.09,0.01,21927.40,3112.92,0.01,14958.60,1917.96,0.01,6206.59
287000,345.91,433.57,1.00,1,1,1,4716.78,0.04,31045.58,4643.11,0.05,20305.64,4026.54,0.03,47822.22,3784.10,0.00,45683.14,2054.36,0.01,9281.55
301700,412.98,437.28,1.00,1,1,1,4569.59,0.06,10636.39,3355.68,0.05,87587.04,3616.95,0.03,27864.28,3664.79,-0.01,8334.28,2216.77,0.00,11155.69
323800,469.23,440.17,1.00,1,1,1,2548.24,0.05,91466.17,2809.75,0.00,25631.50,3225.96,0.01,17842.95,3361.41,-0.00,13738.24,2434.10,-0.01,9893.89
339000,517.79,437.74,1.00,1,1,1,3198.80,-0.05,46848.57,3071.52,-0.04,19037.73,2727.04,-0.03,33847.39,2869.64,-0.00,32353.49,2520.20,-0.01,5701.66
353300,559.77,436.76,1.00,1,1,1,2936.79,-0.02,19208.41,2625.32,-0.07,31893.00,2621.48,-0.06,9381.50,2293.53,-0.00,40289.09,2736.04,-0.03,15254.04
368100,593.99,432.32,1.00,1,1,1,2331.52,-0.13,44960.15,2173.02,-0.09,30679.03,2023.22,-0.07,40480.98,1981.54,-0.03,21464.74,2620.67,-0.03,7820.17
382800,623.63,431.15,1.00,2,2,2,2017.78,-0.04,25088.67,1425.23,-0.07,50893.25,1359.75,-0.04,45278.10,1893.29,-0.06,7389.65,2336.43,-0.03,19337.02
397400,635.63,429.20,1.00,2,2,2,832.97,-0.16,81863.78,711.03,0.08,50014.81,1233.81,-0.03,8643.39,1818.28,-0.06,5189.48,1999.75,-0.02,23078.88
419400,649.58,433.14,1.00,2,2,2,658.57,0.28,16582.64,1083.73,0.01,17156.56,1245.33,-0.07,2053.72,1689.04,-0.09,6317.61,1838.80,-0.02,7316.30
434300,675.62,429.54,1.00,3,3,3,1764.57,-0.14,79921.58,1917.28,-0.14,57653.42,1638.23,-0.04,26526.87,1573.85,-0.08,7740.10,1697.07,-0.02,9518.40
449100,706.00,425.43,1.00,1,1,1,2071.04,-0.13,20710.83,2336.62,-0.07,29995.33,2061.30,-0.12,30259.45,1369.71,-0.09,13843.97,1533.76,-0.01,11136.86
463700,744.16,424.95,1.00,1,1,1,2614.48,-0.01,41972.22,2208.29,-0.10,10553.95,1962.07,-0.12,6808.15,1260.45,-0.06,7964.36,1514.46,0.02,2864.20
478300,770.13,418.71,1.00,1,1,1,1828.87,-0.24,63307.66,1589.54,-0.19,43775.21,1495.55,-0.11,31953.74,1409.12,-0.06,10205.11,1537.92,0.03,1904.84
492700,789.43,416.25,1.00,1,1,1,1351.52,-0.13,35217.50,928.73,-0.13,46129.62,950.67,-0.10,37862.17,1427.04,-0.01,4930.12,1642.63,0.05,7605.79
515000,803.91,414.15,1.00,1,1,1,655.77,-0.14,31207.69,600.89,0.04,15781.90,941.38,0.04,6045.75,1260.12,0.06,8490.72,1754.85,0.05,5041.93
544300,820.42,417.41,1.00,1,1,1,574.38,0.19,7583.22,973.75,0.18,13291.95,1061.52,0.14,5172.55,1288.55,0.10,2000.53,1878.63,0.07,4308.97
559100,846.12,422.03,1.00,1,1,1,1764.47,0.18,80419.37,1872.46,0.19,60727.16,1127.64,0.22,7442.20,1437.28,0.13,10462.25,1974.02,0.05,6654.25
573900,874.83,427.95,1.00,2,2,2,1980.74,0.20,14951.57,1259.62,0.24,41688.41,1652.21,0.21,35447.63,1712.82,0.14,18642.59,1972.63,0.06,320.68
610800,909.41,437.38,1.00,3,3,3,971.26,0.27,27459.83,1526.46,0.22,7247.85,1935.96,0.17,7913.13,2102.90,0.13,10576.53,1943.28,0.07,1068.24
625600,951.76,445.55,1.00,1,1,1,2914.50,0.19,131582.07,3129.31,0.13,109270.76,2364.93,0.14,29337.05,2541.71,0.13,29649.77,1808.66,0.06,9126.38
640300,1000.98,449.02,1.00,1,1,1,3356.85,0.07,39455.72,3855.32,0.08,50448.70,3693.31,0.09,90910.67,2519.76,0.11,4067.97,1685.45,0.08,8631.45
655000,1064.72,454.93,1.00,1,1,1,4354.26,0.09,68092.47,4258.67,0.07,27816.86,3774.39,0.09,5719.81,2492.12,0.09,4075.18,1537.84,0.09,10074.98
669900,1126.76,457.37,1.00,1,1,1,4167.34,0.04,19706.08,3694.58,0.09,38324.96,3238.23,0.07,36284.71,2822.92,0.07,22361.22,1420.95,0.11,8067.50
684800,1174.38,464.69,1.00,1,1,1,3233.45,0.15,68581.71,2424.09,0.07,85397.32,2654.73,0.03,39668.94,2481.97,0.04,23753.95,1413.97,0.09,1388.94
707000,1216.51,463.24,1.00,1,1,1,1898.49,-0.03,63629.26,1826.84,-0.06,29259.38,2050.64,0.05,27248.04,2009.81,0.03,21274.53,1315.27,0.07,4646.48
721700,1241.69,460.91,1.00,1,1,1,1720.46,-0.09,14072.19,1580.86,0.01,18499.29,1339.39,-0.08,50464.58,1320.73,0.00,47016.18,1210.80,0.08,7130.07
736400,1262.98,463.81,1.00,1,1,1,1461.77,0.14,30197.19,728.26,-0.16,59279.27,633.90,-0.15,48206.20,634.99,0.01,46649.65,1181.44,0.05,3035.53
751000,1262.77,457.59,1.00,1,1,1,425.83,-1.60,108904.69,384.21,-2.56,71589.11,198.53,-2.63,54764.20,252.78,-0.34,27845.33,1009.40,0.03,11841.63
766000,1253.47,457.57,1.00,1,1,1,619.68,-3.14,49250.99,1042.08,-3.06,48606.22,768.85,-3.03,39381.50,151.38,-2.18,21800.76,792.24,0.03,14477.42
781200,1231.39,455.11,1.00,1,1,1,1461.43,-3.03,55787.46,1112.02,3.14,7571.24,843.29,-3.07,5369.27,295.27,-2.95,14061.66,555.01,0.03,15607.26
803600,1211.66,457.82,1.00,1,1,1,889.20,3.01,28455.22,681.49,-3.07,19441.68,728.87,-2.94,6861.85,458.09,-2.94,7270.22,355.20,0.06,8937.62
818300,1206.17,453.36,1.00,1,1,1,480.93,-2.46,44982.74,403.36,-2.11,38168.69,394.68,-3.09,23383.15,452.81,-3.08,4469.60,175.20,-0.08,12486.33
833100,1205.60,447.58,1.00,1,1,1,392.59,-1.67,23360.67,33.78,2.84,26825.45,131.64,-2.31,21216.85,354.20,-3.11,6702.36,27.62,-0.61,10262.12
847600,1205.23,453.66,1.00,1,1,1,419.99,1.63,55861.61,156.62,1.39,10757.72,16.00,2.12,9441.83,104.69,2.83,17787.24,46.23,-2.71,4471.38
862500,1206.41,452.11,1.00,1,1,1,130.66,-0.92,35799.08,22.91,0.84,9234.71,127.07,1.50,7680.98,94.94,0.42,12526.74,102.39,-2.79,3785.78
877300,1205.68,454.17,1.00,1,1,1,147.36,1.91,18559.19,105.08,1.62,6094.22,159.57,0.49,9522.33,128.30,0.36,2290.58,45.80,-2.66,3868.09
899500,1206.21,455.99,1.00,1,1,1,85.76,1.29,4171.55,239.08,0.47,9824.35,254.48,0.57,4329.53,127.42,0.57,1170.68,31.54,-0.86,2757.75
928900,1216.66,459.80,1.00,1,1,1,378.04,0.35,11378.75,431.23,0.39,6600.06,209.09,0.32,2496.44,149.78,0.07,2436.50,100.19,-0.24,2611.46
943600,1223.81,463.22,1.00,1,1,1,539.10,0.45,11358.01,182.85,0.08,17898.01,177.55,0.16,2980.44,177.73,0.05,1911.82,149.81,-0.31,3430.44
973400,1224.77,460.44,1.00,1,1,1,98.65,-1.24,18753.43,87.97,-1.73,7421.95,167.37,-0.33,2834.58,279.57,-0.06,3515.11,80.14,-0.42,2368.87
995600,1223.06,458.70,1.00,1,1,1,109.74,-2.35,4971.50,188.78,-0.82,6863.41,183.78,-0.70,2980.46,344.81,-0.10,2994.74,32.06,-2.70,4686.00
1010400,1229.55,455.35,1.00,1,1,1,493.85,-0.48,36266.40,449.80,-0.40,19443.59,417.84,-0.33,17257.89,315.56,-0.26,4153.00,191.04,-2.89,10785.00
1025000,1235.25,453.59,1.00,1,1,1,408.65,-0.30,7965.35,742.23,-0.18,21827.23,631.81,-0.22,15160.70,232.69,-0.58,8082.40,372.01,-3.00,12573.30
1039800,1251.03,451.49,1.00,1,1,1,1075.46,-0.13,45679.60,824.29,-0.12,6307.99,521.38,-0.23,7487.71,125.32,-1.42,11927.73,561.75,-3.02,12830.39
1054500,1259.39,450.66,1.00,1,1,1,571.60,-0.10,34319.01,305.29,-0.37,36316.37,295.61,-0.48,16709.72,238.62,-2.61,15305.47,779.31,-3.05,14870.72
1069300,1259.43,448.23,1.00,1,1,1,163.95,-1.56,38954.44,246.37,-2.40,31712.44,375.52,-2.84,41931.90,631.92,-2.94,27933.64,1078.64,-3.03,20253.25
1091500,1252.68,444.49,1.00,2,2,2,347.48,-2.64,13792.12,879.41,-3.01,31186.75,943.36,-3.03,26100.67,1083.70,-3.02,20554.06,1265.77,-3.01,8511.79
1106200,1227.25,443.99,1.00,2,2,2,1729.93,-3.12,97414.31,1892.40,-3.13,69664.95,1625.62,-3.06,46499.43,1647.36,-3.06,38496.06,1485.10,-3.04,15197.95
1120800,1197.24,443.68,1.00,2,2,2,2056.03,-3.13,22370.20,2564.43,-3.09,46432.46,2589.36,-3.09,66152.48,2087.48,-3.09,30370.44,1627.93,-3.04,9789.32
1135600,1151.97,439.83,1.00,2,2,2,3069.35,-3.06,69625.90,3280.81,-3.08,48447.87,3090.64,-3.09,33884.10,2536.11,-3.08,30326.78,1721.05,-3.05,6476.44
1150400,1100.33,437.31,1.00,3,3,3,3493.33,-3.09,29735.45,3613.32,-3.09,22756.76,3233.67,-3.11,10238.90,2978.50,-3.07,29952.95,1585.15,-3.06,9247.49
1165200,1045.15,434.48,1.00,3,3,3,3733.32,-3.09,16226.68,3197.72,-3.13,29405.12,3448.41,-3.09,14845.89,3072.60,-3.09,7003.98,1581.05,-3.08,1932.96
1187100,982.99,435.89,1.00,1,1,1,2839.42,3.12,42273.74,3315.03,-3.09,7821.38,3326.23,-3.06,7754.91,3040.09,-3.07,2476.84,1547.69,-3.11,2390.93
1201800,923.98,428.36,1.00,1,1,1,4046.74,-3.01,89072.00,3509.39,-2.97,30334.03,3056.49,-3.08,19276.99,2809.57,-3.08,15720.74,1411.86,-3.12,9330.64
1216500,881.27,418.63,1.00,1,1,1,2980.16,-2.92,76105.95,2734.91,-3.07,56667.82,2826.73,-3.03,19001.68,2013.20,-3.08,54179.67,1385.42,-3.14,2405.56
1231200,843.76,422.81,1.00,1,1,1,2567.05,3.03,68809.83,2160.89,-3.12,39857.12,2100.99,-3.05,49524.37,1525.25,-3.10,33271.49,1296.49,-3.14,6050.43
1246000,817.53,417.30,1.00,1,1,1,1811.03,-2.93,68872.24,1485.24,-3.02,47297.00,947.83,3.13,78530.71,1037.80,3.14,33120.66,1228.89,-3.13,4610.09
1261400,799.25,417.31,1.00,1,1,1,1187.36,3.14,45058.30,260.09,2.96,80498.03,285.89,3.03,43110.50,460.71,2.99,38103.26,1123.71,-3.13,6830.78
1297700,804.31,419.74,1.00,1,1,1,154.70,0.45,36597.04,448.25,0.36,18845.78,337.86,0.75,15617.90,221.77,2.42,8230.36,1023.83,3.14,2777.91
1312500,820.67,425.43,1.00,1,1,1,1170.10,0.33,68684.97,1255.84,0.45,54768.60,610.98,0.39,21533.36,134.22,1.06,15835.01,920.22,-3.13,7050.58
1327200,837.59,436.02,1.00,1,1,1,1358.07,0.56,23086.26,798.12,0.40,31332.68,674.04,0.43,4634.90,209.30,0.69,6558.88,794.73,-3.11,8619.22
1357000,853.33,439.38,1.00,1,1,1,540.04,0.21,29206.77,344.15,0.37,15244.46,463.04,0.45,7093.17,214.98,0.57,898.83,686.44,-3.12,3639.18
1379100,854.24,442.50,1.00,1,1,1,146.92,1.29,22078.45,73.27,1.11,13316.18,83.85,0.45,17157.91,128.48,1.48,7709.91,613.76,-3.11,3291.97
1393700,854.52,441.79,1.00,2,2,2,52.14,-1.19,13061.36,376.95,-2.82,29560.10,375.87,-3.01,31246.86,288.95,2.99,21154.26,568.80,-3.08,3438.49
1408500,843.72,439.01,1.00,2,2,2,753.71,-2.89,51499.88,893.98,-2.92,35167.11,825.02,-3.04,30375.36,565.76,-3.05,19796.67,543.79,-3.10,1855.52
1423400,828.59,436.07,1.00,2,2,2,1034.10,-2.95,19150.45,1283.39,-3.11,29238.79,1264.94,-3.00,29652.14,963.77,-3.02,26766.46,504.23,-3.09,2655.65
1438000,805.88,437.70,1.00,3,3,3,1559.65,3.07,42650.90,1645.27,-3.05,25524.42,1353.68,-3.03,6421.86,1217.01,-2.95,18062.04,605.65,-3.11,6967.08
1452700,780.61,431.45,1.00,3,3,3,1770.92,-2.90,38155.56,1415.53,-2.97,17630.76,1552.58,-3.02,13539.60,1409.68,-2.97,13244.43,671.41,-3.07,4769.97
1475000,754.30,428.61,1.00,1,1,1,1186.57,-3.03,27620.45,1479.94,-3.00,3544.81,1570.36,-2.91,7973.41,1475.56,-2.98,3065.14,701.74,-3.03,1849.97
1489700,726.41,423.66,1.00,1,1,1,1927.12,-2.97,50856.55,1772.97,-2.85,26011.03,1539.41,-2.95,4908.05,1355.70,-3.00,8241.05,741.58,-3.05,2832.98
1504200,704.76,413.57,1.00,1,1,1,1646.97,-2.71,37309.66,1619.43,-2.89,11836.06,1616.19,-2.95,5312.93,1270.56,-3.00,5885.38,732.62,-3.02,1389.24
1519000,680.43,411.95,1.00,1,1,1,1647.91,-3.07,40886.64,1479.53,-3.06,20092.65,1159.26,-2.96,30926.34,1085.30,-3.01,12527.68,695.07,-3.05,2885.65
1533700,661.25,410.10,1.00,1,1,1,1310.31,-3.05,23154.30,801.73,-3.08,46131.55,989.11,3.13,17788.91,862.86,-3.01,15133.13,643.29,-3.06,3533.81
1555800,650.97,410.19,1.00,1,1,1,465.09,3.13,38421.54,609.70,2.96,11562.46,640.19,3.13,15787.96,531.45,-3.09,15207.51,574.02,-3.08,3200.88
1570500,639.19,414.16,1.00,1,1,1,846.34,2.82,29230.54,446.03,2.98,11164.79,219.60,2.84,29603.02,331.97,3.04,14233.17,497.62,-3.06,5234.02
1585300,637.98,412.26,1.00,1,1,1,151.81,-2.14,55644.50,277.70,0.04,48671.04,135.09,1.44,15989.39,169.63,2.71,12160.59,407.47,-3.08,6117.97
1600000,647.37,414.49,1.00,1,1,1,656.48,0.23,52552.73,368.58,0.50,11666.18,215.87,0.25,14124.39,81.68,1.68,9914.33,331.65,-3.02,5392.04
1629400,652.25,420.05,1.00,1,1,1,251.45,0.85,16126.93,187.07,0.43,6201.66,215.36,0.57,2322.49,94.05,1.26,1300.50,238.98,-3.00,3155.48
1651500,656.11,418.54,1.00,1,1,1,187.56,-0.37,11634.59,89.09,0.83,4984.45,159.56,0.61,2547.20,98.57,0.71,2381.45,163.79,-3.02,3405.21
1681400,655.39,423.45,1.00,1,1,1,166.04,1.72,10230.32,136.42,0.90,1606.74,66.75,0.98,3353.22,115.08,0.60,669.15,101.51,-3.13,2136.20
1695400,659.83,423.23,1.00,1,1,1,317.63,-0.05,27561.28,44.52,1.36,7034.98,82.66,2.06,5563.13,44.17,0.23,5403.40,46.94,2.99,3986.34
1725000,655.80,425.35,1.00,1,1,1,153.88,2.66,15601.14,149.76,2.84,5148.49,9.55,2.61,2523.82,42.95,-1.15,1880.71,38.66,2.46,797.83
1747400,652.40,425.54,1.00,1,1,1,152.22,3.09,2895.18,49.77,-2.19,6351.79,104.08,-2.18,4630.60,71.49,-1.61,1700.37,20.57,1.22,1673.73
1762200,654.73,423.84,1.00,1,1,1,194.89,-0.63,22508.90,326.34,-1.30,20104.48,176.62,-1.63,6978.83,94.36,-2.01,2688.17,37.82,0.76,1441.32
1776800,654.97,416.30,1.00,1,1,1,516.91,-1.54,29161.25,351.18,-1.54,5751.87,311.56,-1.39,10018.32,114.30,-2.44,3338.03,29.74,0.48,860.37
1791100,655.07,413.70,1.00,1,1,1,181.98,-1.53,23422.34,299.74,-1.49,3732.65,225.78,-1.95,11892.22,119.77,-2.63,1578.74,23.09,0.25,626.71
1806300,655.66,407.48,1.00,1,1,1,410.72,-1.48,15081.03,191.64,-2.76,19918.87,135.17,-2.69,10184.28,98.73,-2.68,1423.48,62.46,-0.05,2694.46
1820900,649.78,411.55,1.00,1,1,1,489.24,2.54,55922.74,271.69,2.63,14598.45,204.83,2.86,9504.47,73.63,-2.73,1750.14,127.31,-0.19,4523.69
1843200,646.90,412.37,1.00,1,1,1,134.30,2.86,16351.54,266.35,2.49,1729.02,286.35,2.42,5934.25,18.67,1.40,3826.18,150.18,-0.06,1312.82
1858100,641.90,417.55,1.00,1,1,1,483.42,2.34,25057.54,320.02,2.20,6709.83,139.51,1.96,11623.94,69.35,1.14,3456.47,233.75,-0.14,5689.48
1872700,641.34,419.99,1.00,1,1,1,171.85,1.80,23821.97,171.52,0.54,25760.13,177.46,0.64,13506.16,158.00,0.50,7567.12,303.91,-0.14,4806.11
1887700,646.25,420.17,1.00,1,1,1,327.41,0.04,26491.52,473.17,-0.10,23397.20,292.18,0.24,9695.32,300.81,0.13,10924.35,358.93,-0.18,3772.87
1902500,655.37,418.61,1.00,1,1,1,625.44,-0.17,21083.73,423.70,0.12,7374.95,493.34,-0.07,15773.41,434.90,0.15,9076.77,377.40,-0.11,2084.15
1917300,658.70,421.66,1.00,1,1,1,305.10,0.74,33813.98,509.93,-0.05,7974.97,654.46,-0.08,10888.06,589.09,-0.01,11765.81,406.10,-0.06,2363.38
1939200,674.06,417.60,1.00,2,2,2,725.49,-0.26,28170.88,850.38,-0.16,15848.76,687.86,0.05,4114.22,691.33,-0.06,4915.12,408.57,-0.01,991.46
1953900,689.44,416.81,1.00,2,2,2,1047.86,-0.05,25128.31,915.49,0.12,16991.08,866.07,-0.08,13822.98,781.86,-0.13,7057.08,420.17,-0.03,924.82
1968600,700.79,420.75,1.00,3,3,3,817.26,0.33,28807.65,892.61,0.01,6633.74,915.35,-0.05,3813.71,699.35,-0.14,5628.17,413.56,-0.00,752.97
1983200,715.59,417.13,1.00,3,3,3,1043.85,-0.24,39059.44,940.31,-0.21,14426.30,926.92,-0.17,7439.00,735.78,-0.14,2496.86,398.71,-0.03,1201.19
1998000,727.81,414.94,1.00,1,1,1,839.06,-0.18,14383.29,987.95,-0.33,8182.43,725.30,-0.28,14921.37,644.77,-0.11,6261.72,394.03,-0.05,667.44
2012700,743.19,407.76,1.00,1,1,1,1154.21,-0.44,27551.91,604.68,-0.33,26074.94,632.27,-0.20,7206.37,527.50,-0.10,7986.08,361.23,-0.03,2269.81
2049500,757.23,404.72,1.00,1,1,1,390.47,-0.21,21150.95,438.77,-0.04,6100.69,481.07,-0.18,4116.49,404.82,-0.14,3359.99,317.05,-0.01,1214.11
2064200,765.77,406.87,1.00,1,1,1,598.56,0.25,20595.69,360.68,0.11,6661.40,286.33,0.02,14259.80,252.53,-0.07,10469.77,299.51,-0.07,1647.83
2093800,773.12,406.46,1.00,1,1,1,248.65,-0.05,12449.47,115.59,0.31,8393.48,137.56,0.69,6659.29,165.02,-0.02,2973.80,247.48,-0.08,1762.05
2108700,770.67,408.43,1.00,1,1,1,210.74,2.47,29364.30,242.84,2.50,21758.17,145.79,2.46,14704.95,69.44,0.92,9129.32,207.31,-0.19,3149.91
2130900,765.88,411.83,1.00,1,1,1,264.53,2.52,2500.43,412.86,2.74,8373.74,300.98,2.74,7472.52,118.13,2.27,5564.26,199.03,-0.41,2023.80
2145800,756.56,414.40,1.00,1,1,1,648.77,2.87,27539.27,388.19,2.92,5018.81,334.29,2.76,2289.65,162.22,2.74,5207.45,181.51,-0.53,1926.59
2160600,754.64,414.40,1.00,1,1,1,129.87,-3.14,35464.45,235.43,2.80,10597.21,340.93,2.86,2380.63,212.84,2.95,4340.36,166.33,-0.60,1348.32
2175200,750.04,416.72,1.00,1,1,1,353.04,2.67,16754.62,294.61,2.79,4059.25,200.68,3.02,10015.88,170.74,-3.02,4986.92,128.44,-0.51,2747.17
2190000,746.52,417.40,1.00,1,1,1,242.52,2.95,9274.39,179.43,-2.98,11123.15,146.58,-2.88,5743.32,147.23,-2.31,7631.77,95.67,-0.13,3582.89
2205200,744.73,415.85,1.00,1,1,1,155.61,-2.43,12546.54,152.36,-1.81,12144.56,168.60,-1.74,11200.68,190.28,-1.39,10145.58,110.30,0.85,6435.96
2227500,745.17,411.84,1.00,1,1,1,180.57,-1.46,7069.83,292.67,-1.25,8160.95,307.58,-1.23,8145.24,224.80,-1.08,3231.98,212.84,2.95,12784.58
2241900,748.10,405.65,1.00,1,1,1,475.86,-1.13,21572.31,550.73,-1.03,18975.98,448.73,-1.00,11423.03,269.61,-0.79,5830.60,170.74,-3.02,5056.18
2256600,753.45,398.12,1.00,1,1,1,628.31,-0.95,12303.28,661.01,-0.86,10228.85,476.06,-0.81,6232.56,280.12,-0.40,7272.04,147.23,-2.31,7683.68
2271400,760.84,390.89,1.00,1,1,1,698.68,-0.77,9248.77,443.03,-0.63,16909.14,425.97,-0.53,9193.92,302.02,0.34,14389.42,190.28,-1.39,10419.78
2301300,769.45,386.45,1.00,1,1,1,323.90,-0.48,13393.70,335.69,-0.15,7108.82,385.02,0.10,8394.47,476.06,-0.81,14959.35,224.80,-1.08,2410.47
2323000,777.97,388.30,1.00,1,1,1,401.87,0.21,11816.31,576.95,0.77,21158.31,582.67,0.99,21024.76,425.97,-0.53,6270.51,269.61,-0.79,3869.15
2337800,784.57,401.10,1.00,1,1,1,973.21,1.09,52795.95,1441.61,1.37,68712.31,576.95,0.77,8761.58,385.02,0.10,16959.10,280.12,-0.40,7222.90
2353100,786.83,430.78,1.00,1,1,1,1945.35,1.49,72919.22,1945.35,1.49,35853.97,1441.61,1.37,66466.81,582.67,0.99,29819.43,302.02,0.34,13919.18
