@RELATION gaze_labels

%@METADATA width_px 1920
%@METADATA height_px 1080
%@METADATA width_mm 540.00
%@METADATA height_mm 254.00
%@METADATA distance_mm 620.00


@ATTRIBUTE time INTEGER
@ATTRIBUTE x NUMERIC
@ATTRIBUTE y NUMERIC
@ATTRIBUTE confidence NUMERIC
@ATTRIBUTE handlabeller1 INTEGER
@ATTRIBUTE handlabeller2 INTEGER
@ATTRIBUTE handlabeller_final INTEGER
@ATTRIBUTE speed_1 numeric
@ATTRIBUTE direction_1 numeric
@ATTRIBUTE acceleration_1 numeric
@ATTRIBUTE speed_2 numeric
@ATTRIBUTE direction_2 numeric
@ATTRIBUTE acceleration_2 numeric
@ATTRIBUTE speed_4 numeric
@ATTRIBUTE direction_4 numeric
@ATTRIBUTE acceleration_4 numeric
@ATTRIBUTE speed_8 numeric
@ATTRIBUTE direction_8 numeric
@ATTRIBUTE acceleration_8 numeric
@ATTRIBUTE speed_16 numeric
@ATTRIBUTE direction_16 numeric
@ATTRIBUTE acceleration_16 numeric

%The number after speed, direction denotes the step size that was used for the calculation.
%Acceleration was calculated between two adjacent samples of the already low pass filtered velocity

@DATA
0,426.53,899.73,1.00,1,1,1,0.00,0.00,0.00,3044.72,3.08,0.00,1676.16,3.09,0.00,150.35,3.09,0.00,82.29,0.11,0.00
14700,381.85,902.35,1.00,1,1,1,3044.72,3.08,207123.69,1676.16,3.09,93100.23,328.83,-0.07,136391.45,822.02,-0.05,66148.05,282.28,-0.00,13656.80
29300,377.50,902.49,1.00,1,1,1,298.32,3.11,188117.84,328.83,-0.07,137325.64,150.35,3.09,32820.04,1047.99,-0.05,15483.86,161.02,0.05,8338.90
51300,393.85,901.49,1.00,1,1,1,744.91,-0.06,47415.41,1067.79,-0.06,33591.61,822.02,-0.05,44198.93,899.08,-0.03,6799.03,105.75,2.93,12025.29
66000,416.62,900.27,1.00,1,1,1,1551.03,-0.05,54841.04,1431.93,-0.05,24781.17,1047.99,-0.05,15378.53,82.29,0.11,55627.35,276.66,3.07,11745.87
80900,436.19,899.43,1.00,1,1,1,1314.47,-0.04,15908.31,1023.67,-0.03,27427.48,899.08,-0.03,10038.83,282.28,-0.00,13473.48,372.32,3.12,6494.10
95700,447.01,899.26,1.00,1,1,1,731.08,-0.02,39457.97,365.38,0.03,44563.46,341.79,0.03,37726.18,161.02,0.05,8226.21,162.44,-3.08,14262.38
110400,446.96,899.79,1.00,1,1,1,36.21,1.66,50044.05,355.85,2.99,48843.44,259.77,2.98,40733.14,105.75,2.93,17997.03,146.97,-0.26,20766.46
124900,436.74,900.88,1.00,1,1,1,708.70,3.04,48461.05,758.77,3.05,27894.87,730.70,3.05,32558.15,276.66,3.07,11907.88,357.80,-0.08,14814.22
147100,419.22,902.24,1.00,1,1,1,791.59,3.06,3855.07,1027.37,3.07,12121.63,997.42,3.07,12037.96,372.32,3.12,4358.65,747.60,-0.06,17566.39
161900,398.82,903.52,1.00,1,1,1,1381.10,3.08,39845.87,1292.62,3.09,17962.83,825.09,3.11,11829.43,162.44,-3.08,14262.38,1006.68,-0.05,17510.77
176800,380.89,904.32,1.00,1,1,1,1204.84,3.10,11930.86,572.27,-3.10,48685.29,503.63,-3.09,21905.66,146.97,-0.26,20487.71,1198.83,-0.04,12928.19
191200,382.07,902.76,1.00,1,1,1,136.05,-0.92,90002.66,329.00,-0.39,61201.36,309.33,-0.23,55905.25,571.29,-0.11,29637.73,1395.61,-0.03,13727.17
205800,389.70,900.67,1.00,1,1,1,541.89,-0.27,30256.98,802.32,-0.12,33781.21,1084.75,-0.12,53317.58,1146.34,-0.07,39426.09,1537.99,-0.02,9798.70
242800,423.16,897.71,1.00,2,2,2,907.87,-0.09,10459.03,1516.53,-0.08,19338.63,1535.78,-0.08,12259.74,1732.78,-0.06,15855.71,1621.54,-0.01,2272.92
257500,467.84,894.17,1.00,2,2,2,3048.59,-0.08,145630.93,2391.33,-0.06,59573.60,2153.11,-0.06,42097.34,2208.90,-0.05,32443.81,1658.26,-0.00,2709.36
287100,528.90,891.16,1.00,3,3,3,2065.32,-0.05,33315.29,2897.13,-0.04,17217.00,3300.86,-0.04,38787.67,2686.21,-0.03,16188.29,1620.91,0.00,1278.92
301800,596.09,889.27,1.00,3,3,3,4572.56,-0.03,170617.86,4672.32,-0.03,120775.21,3329.48,-0.03,4640.91,3007.18,-0.02,21961.70,1696.74,0.01,5172.64
316500,666.20,886.95,1.00,1,1,1,4772.10,-0.03,13668.67,3849.05,-0.01,56206.55,4354.19,-0.01,69897.71,3496.85,-0.01,33394.40,1747.19,0.00,3435.95
338700,738.10,887.26,1.00,1,1,1,3238.96,0.00,69378.49,4102.94,0.02,12723.94,4245.67,0.01,5643.44,3256.26,0.01,11176.13,1839.46,0.00,4167.32
353400,817.57,889.52,1.00,1,1,1,5408.46,0.03,147744.49,4744.36,0.03,43874.56,3719.98,0.03,36164.15,2914.67,0.03,23514.13,1948.47,-0.00,7416.66
368200,877.99,891.77,1.00,1,1,1,4084.83,0.04,89479.13,3238.63,0.05,101819.94,3161.84,0.06,38545.27,2347.81,0.05,38507.87,2097.42,-0.00,10064.62
382700,912.36,894.03,1.00,1,1,1,2375.52,0.07,118041.14,1556.01,0.16,117328.17,1473.91,0.13,116795.64,1773.44,0.08,39819.52,2323.72,0.00,15611.12
397100,922.38,898.92,1.00,1,1,1,774.47,0.45,116949.80,216.14,1.39,104012.47,468.20,0.44,72094.12,1370.33,0.10,28087.46,2399.15,0.00,5257.62
419200,913.78,901.79,1.00,1,1,1,410.70,2.82,50032.31,477.35,2.80,22225.08,258.17,2.41,27873.39,994.96,0.10,16985.61,2523.74,0.00,5638.05
433900,905.84,904.82,1.00,1,1,1,577.81,2.78,11453.35,493.39,2.89,3123.61,228.01,2.77,6357.04,911.77,0.07,6014.37,2479.86,0.00,2993.70
448600,899.74,905.44,1.00,1,1,1,417.38,3.04,14008.13,83.16,-0.19,39209.57,461.20,0.02,46120.27,1081.92,0.03,11903.27,2384.39,0.00,6499.32
463500,908.26,904.37,1.00,2,2,2,576.56,-0.13,66702.25,1404.05,-0.08,88684.66,1456.22,-0.06,66905.70,1495.68,-0.01,27997.49,2111.68,0.00,18303.81
478000,940.89,902.24,1.00,2,2,2,2255.21,-0.07,115865.57,2858.40,-0.05,100351.84,2351.02,-0.05,61731.59,2112.96,-0.03,42625.94,1939.25,-0.00,11934.70
492500,991.03,899.85,1.00,2,2,2,3461.81,-0.05,83284.06,3108.36,-0.03,17750.70,3216.37,-0.04,59704.10,2624.64,-0.04,35343.07,1677.90,-0.02,18093.51
514800,1055.21,898.36,1.00,3,3,3,2878.91,-0.02,26362.87,3497.53,-0.02,17503.31,3578.33,-0.03,16234.58,3037.91,-0.04,18532.16,1573.29,-0.03,4772.33
529500,1120.40,896.64,1.00,1,1,1,4436.00,-0.03,105926.78,4164.60,-0.03,45453.83,3654.50,-0.04,5186.57,2747.55,-0.04,19764.13,1504.86,-0.04,4821.33
544300,1177.99,894.07,1.00,1,1,1,3895.39,-0.04,36883.13,3851.89,-0.05,21396.41,3809.97,-0.04,10529.45,2742.63,-0.04,389.76,1483.51,-0.05,1511.04
559000,1233.90,891.26,1.00,1,1,1,3808.14,-0.05,6120.33,3454.17,-0.04,27084.80,2366.97,-0.04,98163.12,2266.75,-0.04,32395.41,1436.49,-0.05,3198.86
573700,1279.46,889.78,1.00,1,1,1,3100.47,-0.03,48317.47,1521.49,-0.03,131495.97,2061.13,-0.04,20805.93,1993.87,-0.06,18647.50,1398.08,-0.04,2701.78
610800,1312.69,889.12,1.00,1,1,1,895.89,-0.02,59425.32,1272.02,-0.04,6731.84,1307.71,-0.06,20327.79,1513.67,-0.07,12950.67,1245.41,-0.03,4126.29
625600,1345.43,887.42,1.00,1,1,1,2215.42,-0.05,89208.45,1060.86,-0.12,15567.76,884.42,-0.10,28768.59,1000.07,-0.07,34706.18,930.33,-0.02,21296.64
655200,1359.48,883.71,1.00,1,1,1,490.85,-0.26,58715.38,446.02,-0.33,21353.26,583.61,-0.18,10344.10,523.57,-0.06,16099.46,497.85,0.02,14644.24
670000,1364.18,881.04,1.00,1,1,1,365.25,-0.52,11247.62,163.19,-2.62,38287.75,87.44,-2.38,43153.08,138.16,0.01,26072.73,31.19,1.79,34114.96
685000,1355.27,881.27,1.00,1,1,1,593.73,3.12,62122.22,646.69,3.08,34587.65,609.08,3.09,36875.38,332.34,3.04,31330.38,542.14,3.05,35566.06
707000,1340.29,882.50,1.00,1,1,1,683.19,3.06,4380.66,994.58,3.01,16004.21,945.35,3.00,15575.19,980.93,3.08,29493.37,1038.01,3.08,22557.73
721800,1318.98,885.97,1.00,2,2,2,1459.32,2.98,52712.45,1324.27,2.95,22812.80,1359.30,3.00,27971.66,1676.43,3.06,47030.76,1484.31,3.08,30161.00
736500,1301.95,889.97,1.00,2,2,2,1189.87,2.91,19348.99,1817.49,3.00,33925.10,2263.23,3.04,61624.46,2352.94,3.06,46023.02,1878.93,3.09,26864.07
751100,1266.28,893.65,1.00,2,2,2,2455.95,3.04,87991.82,3222.44,3.07,97071.68,2753.83,3.05,33655.82,2956.41,3.07,41361.15,2272.51,3.10,26965.90
765600,1208.39,896.32,1.00,2,2,2,3996.69,3.10,106969.62,3504.09,3.07,19449.82,3771.11,3.07,70367.75,3688.63,3.08,50538.92,2497.92,3.10,15576.13
787800,1138.01,902.91,1.00,2,2,2,3183.96,3.05,37395.77,4202.64,3.07,31469.19,4552.18,3.09,35258.27,4099.37,3.08,18562.85,2722.41,3.10,10112.73
802600,1053.27,907.12,1.00,2,2,2,5733.16,3.09,172707.67,5852.59,3.10,111784.26,4946.72,3.09,26716.17,4507.81,3.10,27820.71,2724.80,3.10,611.40
817400,964.95,910.72,1.00,2,2,2,5972.13,3.10,16526.84,5881.67,3.11,4624.53,5607.56,3.10,44883.93,4325.90,3.10,12460.10,2685.80,3.11,2769.45
832100,879.86,913.11,1.00,3,3,3,5790.84,3.11,13326.35,5361.16,3.11,35437.67,5338.02,3.11,18788.02,4096.44,3.11,15798.15,2482.54,3.11,13827.49
846800,807.41,915.56,1.00,3,3,3,4931.53,3.11,58495.09,4791.00,3.12,39024.56,4101.13,3.12,84181.71,3832.38,3.13,18395.55,2410.22,3.10,4925.62
861400,739.51,915.67,1.00,1,1,1,4650.76,3.14,21962.74,3097.89,3.14,116035.71,3247.57,-3.14,58685.68,3122.36,3.13,48670.48,2358.22,3.11,3595.04
883700,693.10,915.92,1.00,1,1,1,2081.23,3.14,115226.71,2030.72,-3.10,48075.83,2256.76,-3.11,44612.87,2405.03,-3.13,32272.40,2163.43,3.11,8765.17
898500,664.22,912.82,1.00,1,1,1,1962.18,-3.03,17264.20,1212.59,-2.99,56656.77,1167.95,-3.07,73689.13,1459.91,-3.11,63886.11,2004.06,3.12,10776.72
913100,657.88,910.41,1.00,1,1,1,465.09,-2.78,103896.76,120.95,-2.23,77243.01,520.93,-2.83,46074.56,975.12,-3.11,33207.88,1825.97,3.13,12251.61
927900,662.05,910.01,1.00,1,1,1,283.13,-0.10,49310.41,241.40,-0.57,18882.84,73.82,-1.36,35078.05,531.20,-3.10,29998.83,1597.08,3.13,15480.16
942600,663.87,906.57,1.00,1,1,1,264.93,-1.08,17696.66,89.27,-0.72,10452.00,80.44,0.04,6760.61,305.78,-3.03,15439.47,1348.29,3.14,16940.28
979000,665.49,907.02,1.00,1,1,1,46.02,0.27,7111.52,81.08,1.46,4142.53,27.93,1.77,2449.71,201.82,-3.06,2864.69,1095.03,-3.14,6963.47
993600,664.35,910.68,1.00,1,1,1,262.81,1.87,18377.45,222.06,2.21,11802.86,190.11,2.91,12345.88,270.26,3.12,4926.52,871.21,-3.12,15364.19
1008200,661.61,912.21,1.00,2,2,2,214.96,2.63,12499.85,409.14,3.14,22446.38,440.54,3.04,17339.37,413.75,3.12,9829.23,642.06,-3.10,15715.28
1037800,646.26,910.74,1.00,1,1,1,520.73,-3.05,12330.01,639.68,-3.08,7874.25,618.25,3.13,6233.56,530.71,3.08,3991.25,468.21,-3.08,5892.86
1052700,633.20,910.41,1.00,1,1,1,877.12,-3.12,24125.03,868.75,3.13,15838.12,817.26,-3.13,13383.48,715.01,3.10,12391.53,336.94,-3.08,8809.82
1074700,614.21,911.15,1.00,1,1,1,863.82,3.10,2644.34,1034.62,3.11,7588.62,1024.16,3.13,9452.00,762.99,-3.14,2672.41,274.36,-3.10,2860.74
1089400,595.25,911.65,1.00,1,1,1,1290.30,3.12,29027.27,1218.55,3.13,12579.71,1018.78,3.13,388.41,757.59,-3.11,1448.06,252.45,-3.14,1668.16
1104200,578.27,911.71,1.00,1,1,1,1147.44,3.14,9822.61,1000.11,-3.13,14914.64,960.09,-3.13,4382.32,656.59,-3.10,6830.29,247.82,3.00,2446.96
1119600,565.05,911.25,1.00,1,1,1,858.89,-3.11,18905.07,708.34,-3.07,19183.15,677.17,-3.07,18574.39,493.52,-3.08,10615.51,715.01,3.10,30464.19
1134300,556.99,910.26,1.00,1,1,1,551.91,-3.02,21276.24,352.58,-2.91,24798.48,297.67,-2.93,26190.84,280.97,-3.03,14531.89,762.99,-3.14,3999.53
1149100,554.91,908.91,1.00,1,1,1,167.84,-2.56,27565.32,89.33,-0.99,26526.17,79.64,-1.06,22289.79,47.51,-2.86,15824.85,757.59,-3.11,1438.27
1171100,558.80,907.52,1.00,1,1,1,187.59,-0.34,14476.53,351.60,-0.18,13518.73,337.22,-0.14,13446.08,127.01,0.32,7931.37,656.59,-3.10,4594.92
1185800,567.62,906.65,1.00,1,1,1,602.82,-0.10,28797.29,690.45,-0.02,23635.22,522.63,0.03,13549.48,79.64,-1.06,9303.91,493.52,-3.08,11121.01
1200500,579.09,907.11,1.00,1,1,1,781.33,0.04,13756.24,750.26,0.15,9359.52,609.29,0.26,10577.75,337.22,-0.14,20123.39,280.97,-3.03,14531.89
1215300,589.49,910.01,1.00,1,1,1,729.44,0.27,12281.88,587.33,0.59,22493.26,750.26,0.15,10741.16,522.63,0.03,13457.93,47.51,-2.86,15824.85
1229900,593.41,916.77,1.00,1,1,1,534.97,1.05,34930.95,534.97,1.05,17584.29,587.33,0.59,22801.39,609.29,0.26,10650.20,127.01,0.32,11951.38
