%@metadata width_px 1920.0
%@metadata height_px 1080.0
%@metadata width_mm 540.0
%@metadata height_mm 254.0
%@metadata distance_mm 620.0
% The number after speed, direction denotes the step size that was used for the calculation.
% Acceleration was calculated between two adjacent samples of the already low pass filtered velocity
@RELATION gaze_labels

@ATTRIBUTE time INTEGER
@ATTRIBUTE x NUMERIC
@ATTRIBUTE y NUMERIC
@ATTRIBUTE confidence NUMERIC
@ATTRIBUTE handlabeller_final INTEGER
@ATTRIBUTE EYE_MOVEMENT_TYPE {UNKNOWN, FIX, SACCADE, SP, NOISE, BLINK, NOISE_CLUSTER, PSO}

@DATA
0,1435.53,859.79,1.0,1,FIX
15700,1488.82,857.19,1.0,1,FIX
31400,1413.59,870.01,1.0,1,FIX
47100,1466.89,857.13,1.0,1,FIX
78800,1431.51,870.62,1.0,1,FIX
94600,1374.41,868.1,1.0,2,FIX
126000,1340.58,876.88,1.0,2,FIX
141700,1320.01,868.31,1.0,2,SACCADE
172900,1380.82,844.82,1.0,2,SACCADE
188600,1354.66,847.8,1.0,3,FIX
204400,1142.82,886.86,1.0,3,FIX
220100,1251.91,869.8,1.0,1,FIX
235800,1192.49,889.24,1.0,1,FIX
251500,1088.48,895.44,1.0,1,FIX
274900,1164.62,885.01,1.0,1,FIX
290600,1183.28,894.91,1.0,1,FIX
306400,1215.3,879.93,1.0,1,FIX
322200,1150.98,888.93,1.0,1,FIX
353700,1190.47,878.81,1.0,1,FIX
368700,1110.57,892.47,1.0,1,FIX
384600,1060.18,914.9,1.0,1,FIX
400500,1145.43,889.44,1.0,1,FIX
414400,1171.42,880.42,1.0,1,FIX
430200,1161.79,884.19,1.0,1,FIX
445000,1111.41,890.37,1.0,1,FIX
460200,1152.99,893.22,1.0,1,FIX
491700,1238.02,873.05,1.0,1,FIX
507500,1111.56,902.19,1.0,2,FIX
539300,1165.07,883.3,1.0,2,FIX
555500,1142.48,882.71,1.0,2,SACCADE
571700,1173.92,898.01,1.0,2,SACCADE
587600,1173.92,898.01,1.0,1,SP
610400,1296.78,881.02,1.0,1,FIX
626100,1271.39,873.6,1.0,1,FIX
641800,1242.23,886.16,1.0,1,FIX
656900,1303.34,870.52,1.0,1,FIX
672900,1152.56,888.81,1.0,1,FIX
704200,1210.0,882.15,1.0,2,SACCADE
720000,1327.23,868.2,1.0,2,SACCADE
735700,1315.64,868.88,1.0,2,FIX
751600,1541.91,853.62,1.0,3,FIX
766800,1549.61,845.38,1.0,1,FIX
782600,1548.02,847.06,1.0,1,FIX
798300,1549.88,848.02,1.0,1,FIX
829800,1605.03,839.6,1.0,1,FIX
861100,1502.22,849.31,1.0,1,FIX
876100,1463.56,864.35,1.0,1,FIX
891900,1558.42,853.55,1.0,1,FIX
923400,1450.17,856.16,1.0,1,FIX
939300,1506.57,847.62,1.0,1,FIX
962300,1383.22,850.5,1.0,1,SACCADE
978000,1497.84,853.87,1.0,2,SP
993800,1496.48,852.9,1.0,2,FIX
1009500,1651.18,842.63,1.0,3,FIX
1041000,1699.08,844.13,1.0,1,FIX
1056300,1658.02,848.89,1.0,1,FIX
1072200,1672.5,864.56,1.0,1,FIX
1087900,1597.66,861.97,1.0,1,FIX
1103600,1540.34,857.92,1.0,2,NOISE
1119300,1634.87,843.96,1.0,2,NOISE
1150200,1547.64,849.23,1.0,3,NOISE
1165600,1429.78,854.98,1.0,1,FIX
1181300,1317.56,860.37,1.0,1,FIX
1196900,1335.27,869.92,1.0,1,FIX
1212600,1437.92,862.96,1.0,1,FIX
1243700,1416.42,858.74,1.0,1,FIX
1266900,1461.75,850.25,1.0,1,FIX
1298500,1354.36,855.9,1.0,1,FIX
1313400,1480.87,848.36,1.0,1,FIX
1329300,1419.09,854.4,1.0,2,FIX
1344900,1376.71,855.44,1.0,2,NOISE
1375200,1442.4,851.99,1.0,2,NOISE
1390400,1367.44,857.64,1.0,2,NOISE
1405700,1259.41,871.46,1.0,3,NOISE
1437200,1161.38,901.62,1.0,1,NOISE
1452900,1273.32,873.48,1.0,1,NOISE
