@RELATION gaze_labels

%@METADATA width_px 1920
%@METADATA height_px 1080
%@METADATA width_mm 540.00
%@METADATA height_mm 254.00
%@METADATA distance_mm 620.00


@ATTRIBUTE time INTEGER
@ATTRIBUTE x NUMERIC
@ATTRIBUTE y NUMERIC
@ATTRIBUTE confidence NUMERIC
@ATTRIBUTE handlabeller1 INTEGER
@ATTRIBUTE handlabeller2 INTEGER
@ATTRIBUTE handlabeller_final INTEGER
@ATTRIBUTE speed_1 numeric
@ATTRIBUTE direction_1 numeric
@ATTRIBUTE acceleration_1 numeric
@ATTRIBUTE speed_2 numeric
@ATTRIBUTE direction_2 numeric
@ATTRIBUTE acceleration_2 numeric
@ATTRIBUTE speed_4 numeric
@ATTRIBUTE direction_4 numeric
@ATTRIBUTE acceleration_4 numeric
@ATTRIBUTE speed_8 numeric
@ATTRIBUTE direction_8 numeric
@ATTRIBUTE acceleration_8 numeric
@ATTRIBUTE speed_16 numeric
@ATTRIBUTE direction_16 numeric
@ATTRIBUTE acceleration_16 numeric

%The number after speed, direction denotes the step size that was used for the calculation.
%Acceleration was calculated between two adjacent samples of the already low pass filtered velocity

@DATA
0,389.82,625.96,1.00,1,1,1,0.00,0.00,0.00,2198.49,0.05,0.00,1491.22,-0.00,0.00,327.50,-0.41,0.00,493.74,-0.18,0.00
22000,438.12,628.34,1.00,1,1,1,2198.49,0.05,99931.23,1491.22,-0.00,32454.27,352.17,-2.31,79445.75,502.03,-2.66,34234.01,561.41,-0.15,3140.87
36700,444.54,625.70,1.00,1,1,1,472.23,-0.39,121262.32,352.17,-2.31,118898.41,327.50,-0.41,37739.43,390.28,-2.67,7612.83,875.60,-0.05,21967.22
51300,431.14,620.75,1.00,1,1,1,978.66,-2.79,93423.55,716.21,-2.82,30214.67,502.03,-2.66,51585.49,132.66,-1.30,26485.81,1358.70,0.01,33374.70
81300,414.29,615.46,1.00,1,1,1,588.82,-2.84,13057.21,619.53,-2.79,3279.10,390.28,-2.67,3730.29,493.74,-0.18,15065.27,1994.43,0.03,21214.82
95800,405.28,611.20,1.00,1,1,1,687.25,-2.70,9100.08,144.56,-2.03,36174.11,132.66,-1.30,26668.47,561.41,-0.15,4765.45,2430.29,0.04,30138.91
133000,411.00,608.75,1.00,1,1,1,167.31,-0.40,21717.21,567.55,-0.09,17022.02,644.55,-0.09,16429.73,875.60,-0.05,8680.60,3089.08,0.05,17711.09
147600,434.55,608.43,1.00,2,2,2,1612.97,-0.01,99978.48,1468.06,0.02,62105.46,1321.91,0.02,46863.32,1358.70,0.01,33374.70,3180.48,0.04,6287.90
177200,475.87,610.18,1.00,2,2,2,1397.37,0.04,7813.78,2207.51,0.05,25052.52,2327.78,0.05,34031.49,1994.43,0.03,21501.51,1665.18,-0.00,51319.53
192000,532.42,613.63,1.00,2,2,2,3828.07,0.06,164262.29,3355.85,0.06,77618.97,2933.58,0.06,40985.97,2430.29,0.04,29527.99,1525.58,0.00,9438.99
214200,599.78,618.20,1.00,3,3,3,3041.06,0.07,35466.15,3809.78,0.07,20454.85,3954.42,0.06,45995.61,3089.08,0.05,29678.04,1358.92,0.00,7510.01
228800,672.30,623.16,1.00,1,1,1,4978.66,0.07,132712.29,4710.67,0.05,62021.39,4039.32,0.05,5823.92,3180.48,0.04,6287.90,1295.77,0.01,4433.45
243500,737.65,624.60,1.00,1,1,1,4447.01,0.02,39074.97,4326.66,0.04,26241.54,4131.57,0.04,6952.74,3240.82,0.03,4690.32,1365.04,0.01,4714.26
258300,799.84,628.05,1.00,1,1,1,4208.32,0.06,18829.34,3566.04,0.04,51393.46,3521.75,0.02,41556.49,2774.42,0.04,31547.84,1389.88,0.01,1743.10
273500,844.56,628.75,1.00,1,1,1,2942.01,0.02,83814.46,2718.31,-0.00,56444.27,2531.81,-0.00,65291.47,1975.33,0.03,52586.06,1591.75,0.00,13284.06
287800,880.03,627.75,1.00,1,1,1,2481.86,-0.03,33220.33,1688.24,-0.07,72740.30,1507.08,0.00,71663.30,1215.84,0.02,53128.95,1643.95,-0.00,3687.33
310000,906.02,624.36,1.00,1,1,1,1180.55,-0.13,59139.45,531.12,0.03,52316.51,386.54,-0.05,50511.81,637.67,-0.04,26165.49,1659.12,-0.02,1339.24
324400,899.46,628.42,1.00,1,1,1,535.69,2.59,116893.73,696.00,3.05,85053.99,470.05,-3.11,59431.22,264.80,-0.35,27355.89,1537.60,-0.03,8548.30
353900,875.59,627.12,1.00,1,1,1,810.33,-3.09,16300.21,1300.95,-3.11,20892.01,1076.08,-3.10,20545.92,205.67,-0.63,2981.11,1563.58,-0.03,892.32
368500,842.12,626.50,1.00,1,1,1,2292.89,-3.12,101600.09,1653.48,-3.01,26074.11,788.75,-2.92,22458.64,227.94,-0.61,1554.82,1493.92,-0.05,5280.40
383600,826.91,620.68,1.00,1,1,1,1078.72,-2.78,88073.04,352.56,-2.00,98975.97,263.66,-1.96,44670.02,332.42,-0.43,7655.16,1338.48,-0.07,10384.32
406100,836.55,614.47,1.00,1,1,1,509.66,-0.57,64007.80,1163.84,-0.23,56994.56,1015.79,-0.27,47946.00,635.17,-0.25,13959.98,1298.15,-0.09,2282.91
420700,868.94,610.81,1.00,1,1,1,2232.92,-0.11,122637.12,2439.21,-0.09,88940.52,1568.03,-0.14,39422.66,1217.24,-0.12,40665.36,1276.27,-0.11,2216.30
435300,907.51,608.38,1.00,1,1,1,2647.00,-0.06,29540.59,1915.50,-0.10,35904.22,1803.73,-0.08,17548.86,1737.60,-0.10,35715.23,1261.07,-0.11,1137.57
464600,952.65,602.75,1.00,2,2,2,1552.34,-0.12,37600.51,1524.71,-0.08,13373.02,2125.04,-0.03,11407.86,1893.99,-0.07,5516.88,1248.43,-0.11,526.72
501800,1008.59,600.35,1.00,2,2,2,1505.17,-0.04,3571.94,2308.52,0.01,21528.43,2256.69,-0.04,3555.98,2206.38,-0.06,8412.86,1236.78,-0.11,322.61
516200,1071.76,603.74,1.00,3,3,3,4393.42,0.05,201311.61,3940.12,-0.01,113348.52,2174.61,-0.03,5889.07,2188.23,-0.07,1622.22,1284.03,-0.09,3468.97
530800,1122.85,599.61,1.00,1,1,1,3510.54,-0.08,70441.55,2023.18,-0.08,132141.87,2727.11,-0.05,37950.92,2146.13,-0.07,2898.23,1271.01,-0.06,2581.90
560400,1160.87,596.27,1.00,1,1,1,1289.57,-0.09,75034.45,1952.22,-0.10,2713.63,2265.00,-0.11,16431.34,2138.47,-0.06,914.32,1178.03,-0.03,3416.83
575900,1210.43,590.59,1.00,1,1,1,3218.15,-0.11,124473.60,2548.52,-0.13,38722.14,2019.95,-0.11,15822.35,2011.14,-0.05,8405.54,990.18,0.00,12379.72
598300,1256.61,583.45,1.00,1,1,1,2086.00,-0.15,50747.12,2103.73,-0.13,19867.88,2089.95,-0.10,3255.27,1362.26,-0.07,29000.51,741.74,0.04,11199.97
612500,1286.81,580.86,1.00,1,1,1,2134.70,-0.09,10671.43,1493.20,-0.04,44383.66,1206.09,-0.04,62606.74,737.04,0.02,44426.45,466.69,0.11,19573.67
627200,1299.73,581.79,1.00,1,1,1,881.15,0.07,86525.45,237.20,1.12,96258.84,167.24,0.92,76170.30,250.22,0.39,34819.94,185.95,0.42,20063.22
641800,1289.83,587.12,1.00,1,1,1,769.66,2.65,108596.24,1311.53,2.89,94451.60,1074.00,2.81,77886.36,444.62,2.75,44279.99,190.43,2.68,23313.63
656500,1262.47,591.21,1.00,1,1,1,1882.01,2.99,80731.85,2166.48,2.92,58221.94,1682.84,2.90,42146.21,1131.68,2.90,47309.94,523.98,3.03,23911.44
671700,1226.68,601.52,1.00,1,1,1,2450.65,2.86,41783.00,1977.68,2.90,12724.15,1760.42,2.94,7115.43,1692.90,2.95,37258.59,746.34,3.09,14785.82
693400,1191.67,608.88,1.00,2,2,2,1648.64,2.93,37576.47,1523.40,2.96,21500.82,1995.15,2.95,10890.75,2021.89,2.99,15499.76,930.02,3.12,8578.25
722800,1150.14,615.71,1.00,3,3,3,1431.62,2.98,7735.98,2014.72,3.00,16907.01,2159.07,3.01,6664.29,2255.02,3.03,8363.92,950.18,-3.13,1098.62
737500,1103.69,621.30,1.00,3,3,3,3182.32,3.02,119260.03,3269.36,3.04,85684.00,2308.66,3.05,12047.59,2318.83,3.06,6247.05,926.26,-3.11,2366.58
752200,1054.47,625.01,1.00,1,1,1,3358.02,3.07,15529.33,2664.08,3.09,42212.13,2873.08,3.09,39227.49,2040.88,3.11,20403.41,1692.90,2.95,55451.25
774500,1005.25,626.28,1.00,1,1,1,2207.98,3.12,51921.51,2564.65,-3.14,7715.24,2737.93,-3.13,9110.35,1929.53,-3.12,7121.50,2021.89,2.99,15082.73
789200,959.58,624.71,1.00,1,1,1,3108.66,-3.11,62207.35,2842.95,-3.07,23045.59,1947.09,-3.06,55045.88,1449.92,-3.03,34248.42,2255.02,3.03,16727.85
803900,921.90,620.05,1.00,1,1,1,2582.79,-3.02,39647.55,1441.89,-2.94,96818.12,1557.66,-2.92,31016.23,830.23,-2.78,45889.71,2318.83,3.06,6247.05
833000,897.66,612.26,1.00,1,1,1,874.75,-2.83,59486.77,768.82,-2.57,26812.52,584.56,-2.44,37003.12,1947.09,-3.06,40250.09,2040.88,3.11,10306.88
848000,893.45,601.59,1.00,1,1,1,764.67,-1.95,47243.56,594.36,-0.88,68191.63,758.90,-0.69,69089.44,1557.66,-2.92,30395.90,1929.53,-3.12,10587.30
884600,917.12,588.56,1.00,1,1,1,738.18,-0.50,27124.73,1727.86,-0.32,34636.78,594.36,-0.88,5745.74,584.56,-2.44,29420.51,1449.92,-3.03,13755.51
899400,977.87,574.01,1.00,1,1,1,4221.17,-0.24,237493.98,4221.17,-0.24,169110.50,1727.86,-0.32,85655.81,758.90,-0.69,70023.08,830.23,-2.78,45579.64
