@RELATION gaze_labels

%@METADATA width_px 1920
%@METADATA height_px 1080
%@METADATA width_mm 540.00
%@METADATA height_mm 254.00
%@METADATA distance_mm 620.00


@ATTRIBUTE time INTEGER
@ATTRIBUTE x NUMERIC
@ATTRIBUTE y NUMERIC
@ATTRIBUTE confidence NUMERIC
@ATTRIBUTE handlabeller1 INTEGER
@ATTRIBUTE handlabeller2 INTEGER
@ATTRIBUTE handlabeller_final INTEGER
@ATTRIBUTE speed_1 numeric
@ATTRIBUTE direction_1 numeric
@ATTRIBUTE acceleration_1 numeric
@ATTRIBUTE speed_2 numeric
@ATTRIBUTE direction_2 numeric
@ATTRIBUTE acceleration_2 numeric
@ATTRIBUTE speed_4 numeric
@ATTRIBUTE direction_4 numeric
@ATTRIBUTE acceleration_4 numeric
@ATTRIBUTE speed_8 numeric
@ATTRIBUTE direction_8 numeric
@ATTRIBUTE acceleration_8 numeric
@ATTRIBUTE speed_16 numeric
@ATTRIBUTE direction_16 numeric
@ATTRIBUTE acceleration_16 numeric

%The number after speed, direction denotes the step size that was used for the calculation.
%Acceleration was calculated between two adjacent samples of the already low pass filtered velocity

@DATA
0,266.84,626.43,1.00,1,1,1,0.00,0.00,0.00,732.70,1.79,0.00,604.35,2.09,0.00,252.08,2.13,0.00,705.33,-0.05,0.00
14700,264.47,636.93,1.00,1,1,1,732.70,1.79,49843.30,604.35,2.09,15924.49,312.98,2.62,25277.72,103.20,-0.07,22023.45,958.13,-0.13,17769.71
29400,258.06,641.87,1.00,1,1,1,550.67,2.49,31848.98,312.98,2.62,25277.72,252.08,2.13,10197.28,474.81,-0.28,25473.07,1313.46,-0.14,24175.12
51700,254.40,642.66,1.00,1,1,1,167.54,2.93,18198.14,37.18,-1.62,14858.77,103.20,-0.07,14517.70,1039.21,-0.22,25368.80,1580.53,-0.12,12014.48
66000,257.99,640.51,1.00,1,1,1,292.02,-0.54,31738.68,619.35,-0.35,42614.34,474.81,-0.28,26185.60,705.33,-0.05,25376.96,1691.86,-0.10,8188.05
80700,271.27,636.47,1.00,1,1,1,944.27,-0.30,45214.51,860.75,-0.24,17307.43,1039.21,-0.22,38484.64,958.13,-0.13,17769.71,1829.27,-0.09,9393.69
110300,295.01,631.39,1.00,1,1,1,820.35,-0.21,4884.79,1319.19,-0.18,15639.36,1407.89,-0.17,12602.95,1313.46,-0.14,12005.89,2076.03,-0.08,8370.43
124900,328.62,625.97,1.00,1,1,1,2331.78,-0.16,103633.70,2070.05,-0.14,51635.14,1547.28,-0.14,10219.87,1580.53,-0.12,18350.89,2080.42,-0.06,3114.77
147100,370.44,620.74,1.00,1,1,1,1898.46,-0.12,19806.03,1744.39,-0.11,14896.08,2155.42,-0.11,27491.97,1691.86,-0.10,5274.29,1465.09,-0.05,27744.85
176500,418.09,616.08,1.00,2,2,2,1628.34,-0.10,9329.56,2227.76,-0.09,16519.62,1998.85,-0.09,5568.10,1829.27,-0.09,4696.85,1611.21,-0.07,5141.66
191400,468.77,612.25,1.00,3,3,3,3410.91,-0.08,119686.85,2296.29,-0.07,5520.41,1936.91,-0.06,5553.51,2076.03,-0.08,16628.51,1765.05,-0.07,10331.85
220800,519.59,609.37,1.00,1,1,1,1731.55,-0.06,57142.44,1688.72,-0.03,20822.29,2165.08,-0.06,7761.10,2080.42,-0.06,1546.79,2007.94,-0.06,8267.86
243000,555.87,609.81,1.00,1,1,1,1634.27,0.01,6813.47,2007.75,-0.05,14469.86,1998.10,-0.06,7528.80,2185.70,-0.04,5062.00,2063.16,-0.06,2510.86
257700,593.59,605.79,1.00,1,1,1,2580.65,-0.11,66475.84,2543.46,-0.09,36919.30,2199.95,-0.03,14228.11,2366.04,-0.04,12271.17,2200.75,-0.06,9362.99
272400,630.37,603.33,1.00,1,1,1,2507.26,-0.07,8481.54,2439.69,-0.01,14927.02,2589.56,-0.02,26514.89,2267.46,-0.02,7373.90,2491.99,-0.06,19812.95
287400,666.05,605.12,1.00,1,1,1,2381.72,0.05,20791.16,2644.56,0.03,15553.46,2641.66,-0.02,3490.30,2559.92,-0.01,19540.63,2540.70,-0.06,3276.64
302200,709.13,606.07,1.00,1,1,1,2911.49,0.02,36145.01,2844.04,-0.03,18525.59,2598.62,0.01,6268.27,2535.65,-0.02,2181.99,2560.86,-0.06,1363.40
317100,750.47,602.26,1.00,1,1,1,2786.22,-0.09,23303.33,2562.53,-0.01,19273.92,2923.61,-0.00,21916.93,2672.75,-0.03,9215.13,2581.05,-0.06,1469.22
338800,802.91,604.87,1.00,2,2,2,2419.61,0.05,23899.64,2990.72,0.02,20213.45,2496.25,-0.02,19823.44,2973.90,-0.04,13989.22,2249.51,-0.07,15284.50
353400,859.00,604.60,1.00,2,2,2,3842.31,-0.00,98103.59,2441.74,-0.03,38695.30,2695.62,-0.03,13703.10,3048.14,-0.06,6852.32,1975.58,-0.07,18771.20
383200,911.28,601.85,1.00,1,1,1,1756.60,-0.05,70114.66,2460.68,-0.08,3991.70,3315.64,-0.07,21292.56,2957.33,-0.07,3343.35,1598.43,-0.08,12663.89
397900,968.19,596.32,1.00,1,1,1,3889.84,-0.10,145332.91,4637.47,-0.11,148263.34,3156.19,-0.10,12995.05,2787.90,-0.08,11629.67,1206.35,-0.07,26676.02
412700,1047.29,587.14,1.00,1,1,1,5380.43,-0.12,100879.38,3997.15,-0.13,43611.30,3531.50,-0.12,25631.27,2236.93,-0.11,37570.34,870.72,-0.07,22684.62
434800,1114.50,577.69,1.00,1,1,1,3071.28,-0.14,104580.55,2638.49,-0.14,61514.36,2911.48,-0.15,28268.63,1506.28,-0.15,33227.46,526.10,-0.07,15593.54
449200,1142.64,573.61,1.00,1,1,1,1974.28,-0.14,76184.45,1543.30,-0.21,76610.94,1258.74,-0.21,115093.03,799.36,-0.24,49514.54,229.30,-0.04,20623.50
464000,1158.61,568.44,1.00,1,1,1,1134.12,-0.31,59272.33,196.30,-1.08,96256.98,214.94,-2.51,95351.47,129.63,-2.14,57458.62,62.34,2.75,19505.11
493500,1146.77,565.95,1.00,1,1,1,410.26,-2.93,50984.38,1126.69,-3.12,41670.43,1105.05,-3.12,31765.13,954.70,-3.13,30190.15,298.53,3.00,8088.86
515600,1100.48,567.45,1.00,1,1,1,2095.40,3.11,76905.81,2139.96,3.09,46091.23,2110.45,3.09,45756.46,1578.97,3.08,28480.61,506.62,3.05,9444.80
544900,1036.91,571.45,1.00,2,2,2,2174.00,3.08,3488.61,3265.75,3.06,38504.45,3144.62,3.06,35378.45,2037.96,3.06,15741.68,771.56,3.05,9043.19
559700,956.90,578.64,1.00,2,2,2,5427.96,3.05,219949.65,4891.76,3.04,110018.03,2773.02,3.04,25434.49,2425.54,3.04,26280.10,974.94,3.04,13759.36
574500,892.83,585.80,1.00,3,3,3,4356.12,3.03,72766.35,2354.00,3.02,171553.80,3147.13,3.02,25811.41,2718.10,3.02,20108.16,1186.37,3.04,14286.12
611400,836.11,593.53,1.00,1,1,1,1551.22,3.01,76032.62,2148.39,2.98,5963.46,2802.38,3.00,9404.71,2614.72,3.01,2932.90,1375.82,3.04,5134.84
626100,783.34,603.18,1.00,1,1,1,3649.35,2.96,142919.89,3591.89,2.99,98198.09,2298.06,2.97,34831.66,2582.06,3.00,3101.63,1350.36,3.03,1830.44
640800,731.78,609.88,1.00,1,1,1,3536.84,3.01,14782.36,2560.93,2.95,70609.91,2364.28,2.95,5307.58,1987.16,2.98,40626.25,1285.62,3.02,4532.54
655600,709.23,617.84,1.00,1,1,1,1615.96,2.80,134125.44,1153.90,2.84,95827.31,1801.43,2.96,38037.13,1427.71,2.97,37812.80,1162.93,3.00,8418.06
670400,699.14,619.94,1.00,1,1,1,696.20,2.94,62880.21,1031.92,2.98,13095.48,991.27,2.88,55166.69,1124.62,2.96,20504.06,956.15,2.97,14108.14
684700,679.58,622.64,1.00,1,1,1,1380.47,3.00,48076.87,860.40,2.92,12619.89,551.96,2.96,31018.30,485.84,2.89,44817.19,627.49,2.94,23082.17
706800,668.58,626.78,1.00,1,1,1,532.11,2.78,39338.73,281.04,2.93,26215.79,216.23,2.99,15199.21,172.64,0.33,28805.54,204.11,2.80,19286.48
736200,665.44,625.73,1.00,1,1,1,112.38,-2.82,15324.58,317.81,-0.31,20345.93,470.56,-0.06,23340.63,552.65,-0.02,13455.35,192.31,0.11,13144.58
750900,681.92,622.49,1.00,1,1,1,1142.32,-0.19,84438.64,1773.97,-0.10,99625.88,1171.77,-0.10,47754.37,795.02,-0.04,16502.08,593.90,-0.05,27567.54
765800,717.68,620.37,1.00,1,1,1,2404.06,-0.06,85987.58,2451.69,-0.06,45786.26,1884.32,-0.08,47890.32,1230.01,-0.08,29311.75,877.58,-0.08,19093.84
780600,754.59,617.79,1.00,1,1,1,2499.70,-0.07,6694.23,1973.29,-0.06,32327.61,2017.82,-0.05,9614.60,1500.42,-0.12,18626.37,1133.72,-0.09,17306.45
802800,790.55,615.88,1.00,1,1,1,1622.46,-0.05,39544.93,1667.95,-0.04,13868.71,2157.72,-0.08,6930.98,1963.01,-0.12,20837.51,1143.98,-0.09,598.73
817400,815.92,615.35,1.00,2,2,2,1737.63,-0.02,8705.45,2391.10,-0.11,50384.92,1800.77,-0.13,25119.71,2221.10,-0.12,17677.77,1111.51,-0.08,2374.27
832200,860.45,608.35,1.00,2,2,2,3045.71,-0.16,90831.65,1920.94,-0.19,33938.78,2030.31,-0.15,15720.27,2052.79,-0.12,11375.58,1057.00,-0.07,3802.27
861400,898.92,599.40,1.00,3,3,3,1352.76,-0.23,58197.74,1823.78,-0.18,3438.32,2395.09,-0.16,12550.00,1981.63,-0.12,2449.16,955.63,-0.06,3474.74
883100,951.84,592.07,1.00,1,1,1,2461.92,-0.14,51681.83,2969.78,-0.14,52945.87,1981.14,-0.15,19140.76,1640.52,-0.11,15722.83,814.40,-0.03,6623.47
897800,1005.95,584.21,1.00,1,1,1,3719.51,-0.14,85561.86,2164.58,-0.12,54919.35,2163.80,-0.11,13613.63,1376.91,-0.10,17959.06,551.36,0.00,17974.85
927200,1046.63,580.83,1.00,1,1,1,1388.62,-0.08,79425.32,1499.24,-0.05,22992.29,1315.09,-0.07,28957.91,912.12,-0.06,15899.92,262.88,0.09,9878.30
941700,1071.68,580.80,1.00,1,1,1,1727.07,-0.00,24911.92,596.07,0.09,62974.92,537.03,0.12,54788.86,442.87,0.11,33181.51,38.13,1.31,17410.22
978600,1077.15,583.61,1.00,1,1,1,166.60,0.47,42839.64,343.88,2.56,24155.62,391.02,2.53,23510.55,311.81,2.59,19386.49,260.28,2.99,7235.52
993300,1056.84,590.54,1.00,2,2,2,1459.45,2.81,107463.52,1976.50,2.87,112439.81,1293.48,2.89,63762.18,1049.94,2.90,51618.84,481.99,3.06,15185.31
1008200,1020.71,599.03,1.00,2,2,2,2491.01,2.91,70359.98,2986.78,2.95,68958.02,2877.15,2.94,106521.75,1711.74,2.95,44680.77,733.05,3.09,16875.71
1022900,970.02,607.20,1.00,2,2,2,3492.98,2.98,69629.29,3790.78,2.98,55005.97,3566.44,2.99,47916.03,1951.75,2.99,16813.15,911.52,3.08,12141.36
1037600,910.76,617.23,1.00,3,3,3,4088.65,2.97,40570.98,4149.34,3.01,26201.37,3368.56,3.01,14754.50,2636.60,3.02,46878.37,1117.50,3.10,14056.97
1052500,848.21,622.96,1.00,3,3,3,4215.23,3.05,22920.77,3037.74,3.05,75074.86,2616.28,3.04,50692.30,2804.08,3.05,12327.92,1244.09,3.09,8509.60
1074700,798.55,627.74,1.00,1,1,1,2247.45,3.05,88641.21,1745.07,3.07,58260.08,2474.47,3.09,8644.88,2792.43,3.09,4694.64,1371.01,3.09,5722.04
1104500,757.72,629.74,1.00,1,1,1,1371.66,3.09,29520.81,2009.12,3.14,9846.58,2261.32,3.12,7579.58,2382.12,3.12,14053.20,1425.62,3.08,1951.66
1119200,709.14,628.32,1.00,1,1,1,3305.96,-3.11,132068.71,3176.21,-3.12,79593.16,2293.76,-3.10,9957.56,2004.24,-3.10,27289.13,1483.70,3.07,3954.68
1134100,663.74,627.26,1.00,1,1,1,3048.23,-3.12,17344.32,2728.36,-3.05,32584.05,2122.36,-3.04,14643.18,1482.34,-3.05,35655.39,1445.44,3.08,2685.47
1148800,628.71,621.05,1.00,1,1,1,2419.83,-2.97,51142.34,1300.00,-2.90,99197.14,1469.10,-2.91,47090.97,1058.06,-2.96,29751.60,1242.23,3.10,13954.74
1171100,617.09,615.55,1.00,1,1,1,576.89,-2.70,83839.22,573.32,-2.35,38662.79,638.67,-2.51,41155.29,784.24,-2.92,12423.15,1056.24,3.12,8385.00
1185900,613.74,605.94,1.00,1,1,1,687.04,-1.91,33699.87,622.04,-0.83,55778.10,465.63,-0.70,58948.23,303.85,-2.69,33269.45,831.32,-3.13,15346.93
1200700,629.53,601.98,1.00,1,1,1,1099.95,-0.25,91055.88,1326.48,-0.13,63646.73,781.43,-0.17,30190.74,100.91,-1.65,18063.85,580.51,-3.10,16986.22
1215200,652.30,601.07,1.00,1,1,1,1571.62,-0.04,37505.81,1144.85,0.17,28276.67,901.59,0.08,16924.29,241.70,-0.24,17057.10,441.43,-3.05,9773.68
1229600,662.12,607.69,1.00,1,1,1,822.51,0.59,71590.17,623.94,0.44,39492.54,535.02,0.35,28442.85,350.33,-0.04,8542.36,330.05,-3.01,7825.75
1251700,672.86,610.86,1.00,1,1,1,506.80,0.29,16847.66,169.94,1.49,25252.23,198.66,0.81,16683.22,417.61,0.14,4361.65,184.23,-2.97,6612.38
1266500,662.64,613.94,1.00,1,1,1,721.48,2.85,79640.33,218.83,2.95,17665.04,88.60,1.00,7623.95,256.88,0.35,11795.93,59.16,-2.68,8688.86
1296100,663.33,612.76,1.00,1,1,1,46.46,-1.04,25546.43,75.85,-0.06,9936.71,50.65,1.96,2452.25,122.48,0.83,5346.65,23.22,-0.01,2720.87
1310800,665.99,613.76,1.00,1,1,1,193.37,0.36,12998.97,280.69,0.19,14145.77,65.89,0.38,5671.87,57.76,1.39,5439.97,32.15,0.84,1647.10
1325500,671.44,614.32,1.00,1,1,1,372.20,0.10,13031.42,69.37,0.80,15455.20,46.32,0.89,2296.54,115.56,2.66,7665.56,84.74,0.80,3580.38
1362300,668.49,616.31,1.00,1,1,1,96.70,2.55,12244.51,114.72,2.91,4399.07,47.74,2.18,1543.73,98.36,2.76,541.55,90.95,1.97,2643.06
1376900,665.70,615.66,1.00,1,1,1,196.59,-2.91,10202.67,161.41,3.01,3337.02,187.70,2.82,10406.07,196.27,2.85,6770.18,240.52,2.70,12539.08
1391800,663.77,616.92,1.00,1,1,1,154.47,2.56,9611.91,314.95,2.76,10987.87,342.19,2.97,10697.38,295.00,2.94,6776.83,380.11,2.87,10000.54
1406700,656.98,619.14,1.00,1,1,1,479.40,2.82,22320.32,521.93,2.96,14921.56,458.15,2.97,7784.79,252.34,2.90,2978.81,544.42,2.96,11355.02
1421500,648.52,619.68,1.00,1,1,1,573.09,3.08,10940.49,581.10,3.06,5300.83,611.92,3.01,10487.44,361.67,2.92,7407.60,557.78,2.99,1316.38
1443700,635.56,620.99,1.00,2,2,2,586.59,3.04,1121.46,684.63,3.03,4705.66,317.70,2.94,13315.01,574.96,2.94,9610.87,563.83,2.98,318.88
1458600,623.26,622.42,1.00,3,3,3,830.76,3.03,16404.98,115.24,2.45,39745.70,376.38,2.89,4119.72,793.85,2.95,14707.99,461.06,2.99,6903.94
1488100,631.63,624.27,1.00,1,1,1,290.49,0.22,37604.79,148.43,2.30,1290.38,681.17,2.92,10341.59,1000.81,3.00,7145.00,262.91,2.99,6716.82
1502800,618.88,627.30,1.00,1,1,1,891.78,2.91,78924.58,1559.75,2.97,98350.28,945.08,2.92,17955.12,1043.89,3.01,3059.16,28.12,0.53,19402.29
1517400,586.63,632.22,1.00,1,1,1,2234.46,2.99,92308.28,1937.72,2.97,25906.21,1841.45,3.01,61883.24,953.33,3.01,6204.01,331.70,-0.05,21134.65
1539600,548.56,639.15,1.00,1,1,1,1742.90,2.96,22289.45,2066.76,3.03,7739.70,1868.94,3.04,2833.64,637.11,3.01,14244.88,622.13,-0.07,13088.84
1554300,510.83,640.60,1.00,1,1,1,2568.86,3.10,59756.72,1793.92,3.12,22107.08,1260.83,3.06,41438.33,279.51,3.09,24434.45,926.59,-0.09,20730.64
1568900,496.01,640.12,1.00,1,1,1,1015.54,-3.11,106684.55,261.70,-2.93,105509.46,246.97,-2.78,71405.49,428.37,-0.13,48453.07,1121.09,-0.07,13359.60
1583700,503.31,638.97,1.00,1,1,1,499.31,-0.16,101953.02,1336.21,-0.15,106971.85,1484.88,-0.17,115070.76,1290.57,-0.12,58256.60,1385.85,-0.08,17890.96
1598400,534.96,634.06,1.00,1,1,1,2178.81,-0.15,114251.42,3220.02,-0.14,128172.02,2722.08,-0.11,84522.60,2117.55,-0.12,56261.20,1539.73,-0.08,10480.91
1613000,596.77,626.05,1.00,1,1,1,4268.81,-0.13,143245.88,3837.36,-0.10,43298.65,3852.80,-0.11,77447.21,2961.79,-0.11,57848.12,1691.84,-0.09,10469.15
1635100,675.11,620.20,1.00,2,2,2,3554.63,-0.07,33699.18,4359.59,-0.09,23655.01,3819.25,-0.10,2786.92,3087.32,-0.09,6123.09,1789.52,-0.10,4453.45
1649700,756.08,611.22,1.00,2,2,2,5579.81,-0.11,139137.75,3804.20,-0.09,38041.19,4034.54,-0.09,14787.78,3403.77,-0.09,21675.86,1913.62,-0.11,8675.15
1679200,842.14,604.52,1.00,3,3,3,2926.18,-0.08,90064.46,3765.26,-0.09,1369.65,3339.75,-0.08,23598.14,3407.30,-0.09,172.68,2057.53,-0.12,4897.11
1694000,922.19,596.12,1.00,3,3,3,5438.76,-0.10,169924.34,2945.73,-0.06,55675.85,3096.62,-0.07,16488.99,3205.04,-0.09,13669.77,2196.38,-0.12,9382.12
1731100,994.70,594.60,1.00,1,1,1,1954.82,-0.02,94194.96,2526.98,-0.05,11331.17,3002.09,-0.08,2606.95,2950.00,-0.09,6892.30,2312.91,-0.11,3163.22
1745900,1053.17,589.38,1.00,1,1,1,3966.35,-0.09,136518.19,3100.46,-0.10,40046.15,2382.75,-0.08,41847.28,2444.87,-0.11,34194.98,2363.48,-0.09,4471.93
1761300,1087.82,584.80,1.00,1,1,1,2269.58,-0.13,110488.19,2137.18,-0.14,62824.78,2319.63,-0.13,7967.70,2000.88,-0.12,28879.81,2382.24,-0.09,1223.49
1775700,1116.23,580.50,1.00,1,1,1,1995.79,-0.15,19218.53,1508.56,-0.17,43798.42,1393.90,-0.22,65366.69,1473.26,-0.13,36697.07,2210.01,-0.10,11966.47
1790300,1130.95,577.47,1.00,1,1,1,1028.93,-0.20,66423.71,665.50,-0.48,61656.97,766.56,-0.30,43312.23,1315.90,-0.17,11308.43,2092.30,-0.11,8453.05
1804900,1133.43,571.45,1.00,1,1,1,446.37,-1.18,59093.33,244.77,-0.97,31713.16,386.93,-0.55,27700.88,1160.01,-0.10,12189.02,1891.39,-0.13,14031.05
1827100,1136.05,570.05,1.00,1,1,1,133.87,-0.49,15933.90,171.63,-0.77,3783.22,433.05,-0.38,3738.62,1185.39,-0.11,1198.22,1779.50,-0.13,5054.34
1841800,1137.99,567.05,1.00,2,2,2,242.83,-1.00,9643.40,736.81,-0.16,41112.51,1004.60,0.02,42867.28,1110.68,-0.12,5194.55,1482.73,-0.09,20630.00
1856700,1157.60,566.68,1.00,2,2,2,1316.34,-0.02,80384.02,1743.39,0.08,69843.87,1576.89,-0.03,38600.27,1190.67,-0.16,6272.50,1316.03,-0.06,11591.41
1886100,1214.98,573.10,1.00,3,3,3,1964.06,0.11,23158.01,2145.89,0.00,14521.74,1734.68,-0.04,5476.60,1311.94,-0.19,4253.01,1050.75,0.06,10236.85
1900800,1252.23,567.13,1.00,1,1,1,2566.22,-0.16,58079.03,1758.95,-0.19,36912.19,1822.89,-0.12,10917.62,1546.46,-0.14,16500.97,937.45,0.24,13931.29
1922900,1278.53,560.79,1.00,1,1,1,1224.13,-0.24,61045.39,1490.51,-0.34,16125.91,1733.40,-0.33,17655.15,1494.43,-0.05,6975.85,791.51,0.46,10811.17
1937600,1304.01,549.03,1.00,1,1,1,1908.94,-0.43,50830.39,1751.81,-0.51,26319.19,1538.94,-0.28,14606.06,1327.50,0.03,13544.12,754.98,0.68,11807.63
1952400,1323.56,535.43,1.00,1,1,1,1609.18,-0.61,29022.04,1605.38,-0.21,35416.89,1230.09,-0.05,29470.48,983.43,0.23,27970.02,771.25,0.87,9846.66
1967400,1350.78,538.98,1.00,1,1,1,1830.39,0.13,83821.97,1128.86,0.42,64389.59,895.45,0.33,35016.60,855.16,0.65,26714.73,804.26,1.01,8009.35
1996600,1369.06,555.90,1.00,1,1,1,853.06,0.75,42384.48,785.48,1.00,21720.44,913.74,1.01,20503.87,851.63,1.12,13685.36,785.76,1.15,3680.59
2018800,1372.70,572.89,1.00,1,1,1,782.35,1.36,22417.82,1038.18,1.55,24891.10,1175.97,1.46,24117.19,1030.24,1.47,16796.20,731.15,1.32,6585.31
2048300,1370.27,609.56,1.00,4,4,4,1246.03,1.64,18236.39,1773.95,1.70,25844.73,1435.19,1.77,16178.79,1289.58,1.69,12329.68,686.78,1.72,9536.39
2063100,1362.92,650.86,1.00,4,4,4,2834.26,1.75,108219.32,1947.59,1.91,29474.36,1726.22,1.88,22800.78,1469.42,1.88,21333.91,662.92,2.03,14296.41
2092600,1341.47,690.89,1.00,4,4,4,1539.57,2.06,49217.98,1734.20,2.04,10954.27,2091.18,2.03,15481.90,1666.11,2.06,11757.28,638.08,2.31,6058.85
2114800,1322.11,730.69,1.00,4,4,4,1993.62,2.02,20688.72,2294.44,2.14,26753.47,2015.88,2.17,13378.87,1743.07,2.20,10824.70,641.94,2.50,5732.87
2129500,1295.67,762.10,1.00,4,4,4,2792.92,2.27,67244.29,2559.27,2.31,33128.76,2172.03,2.34,27459.68,1790.72,2.40,24876.89,645.96,2.67,7259.47
2144300,1271.19,786.43,1.00,4,4,4,2332.22,2.36,34704.21,2155.03,2.61,55081.82,2102.50,2.63,41271.98,1526.84,2.68,35615.12,656.03,2.83,7062.69
2159000,1240.75,794.13,1.00,4,4,4,2135.40,2.89,81284.74,1945.55,3.05,62238.56,1903.84,2.99,51310.20,1352.14,3.04,36902.20,674.70,2.94,5328.51
2173800,1214.02,791.56,1.00,4,4,4,1814.53,-3.05,50365.09,1974.96,-2.87,47060.65,1739.27,-2.83,56596.43,1366.38,-2.82,38474.94,670.13,3.05,4837.75
2188700,1184.18,778.62,1.00,4,4,4,2182.61,-2.73,48430.36,1798.16,-2.49,49144.86,1579.74,-2.44,44943.37,1458.19,-2.43,37377.67,705.05,-3.07,8021.92
2211000,1160.64,751.25,1.00,4,4,4,1619.20,-2.28,45424.98,1535.27,-2.12,30109.42,1746.53,-2.12,24941.61,1494.28,-2.16,17634.34,687.20,-2.86,6382.10
2240300,1142.78,711.09,1.00,4,4,4,1500.12,-1.99,15983.90,1893.78,-1.82,21380.05,1928.87,-1.85,17768.27,1438.05,-1.94,11270.95,701.04,-2.64,5293.17
2255100,1140.18,670.28,1.00,4,4,4,2763.05,-1.63,98185.22,2810.08,-1.59,71140.18,1836.65,-1.65,25871.27,1391.19,-1.78,15433.99,686.75,-2.45,8854.05
2269700,1140.94,628.49,1.00,4,4,4,2862.49,-1.55,17168.15,1837.65,-1.45,70394.59,1764.91,-1.39,33311.78,1258.51,-1.66,14523.23,723.25,-2.30,7502.06
2291400,1148.45,604.08,1.00,4,4,4,1176.75,-1.27,81195.85,1077.79,-0.94,47863.24,1285.44,-1.20,25576.10,1022.05,-1.55,12173.81,796.03,-2.18,5558.87
2306200,1164.21,596.77,1.00,1,1,1,1173.95,-0.43,64612.52,872.81,-0.52,30539.66,662.38,-0.90,46028.80,822.54,-1.42,15661.97,744.92,-2.11,5038.11
2321100,1170.95,591.21,1.00,1,1,1,586.32,-0.69,41900.03,159.26,-0.58,47911.31,246.40,-0.61,28998.27,462.96,-1.28,24912.09,720.84,-2.06,2974.13
2335800,1168.15,594.19,1.00,1,1,1,277.86,2.32,58682.85,181.00,2.83,22943.98,80.79,-2.20,17723.41,184.29,-1.29,18958.59,675.80,-2.10,3795.15
2365200,1163.35,593.67,1.00,1,1,1,164.26,-3.03,7555.31,160.22,-2.80,3768.10,120.27,2.46,5062.90,133.46,-2.34,5606.88,602.68,-2.14,2580.84
2387300,1160.37,591.46,1.00,1,1,1,168.04,-2.50,3931.73,97.06,1.84,8729.11,205.50,2.85,4766.30,271.81,-2.92,8007.90,484.21,-2.14,5360.84
2417100,1162.01,598.52,1.00,1,1,1,243.44,1.34,12988.69,313.01,2.50,8168.02,365.45,-2.99,6711.96,375.15,-3.04,3697.33,330.53,-2.21,5254.95
2431700,1149.27,599.82,1.00,1,1,1,877.51,3.04,64382.37,1016.24,-2.82,60122.53,452.12,-3.02,6010.74,538.46,-3.10,11303.51,193.19,-2.47,10378.26
2446000,1134.17,589.19,1.00,1,1,1,1291.36,-2.53,59574.11,671.60,-2.74,24481.47,724.62,-2.90,19643.90,646.55,-3.11,7577.62,146.25,-3.00,7061.77
2483600,1117.13,586.31,1.00,1,1,1,459.40,-2.97,23910.13,567.88,-2.99,4867.53,947.59,-3.01,6386.05,620.45,-3.10,700.27,211.19,3.05,2032.51
2498400,1104.76,584.65,1.00,1,1,1,843.73,-3.01,26006.84,1508.01,3.06,65148.30,929.51,3.13,9195.82,586.36,-3.04,3395.95,275.66,2.88,5168.03
2513100,1072.79,589.81,1.00,1,1,1,2203.14,2.98,96372.30,1608.62,3.02,8136.58,902.38,3.11,2040.26,377.70,-2.98,14313.28,363.02,2.89,5946.59
2527300,1058.60,590.23,1.00,1,1,1,999.09,3.11,85882.19,296.75,-2.90,94014.94,426.49,2.91,34683.45,201.93,2.88,14810.09,507.57,2.91,10207.63
2542000,1064.46,587.77,1.00,1,1,1,431.60,-0.40,95944.39,746.89,0.01,70604.54,327.32,0.06,50739.88,184.13,2.44,5870.92,691.48,2.94,12567.83
2556700,1080.56,590.38,1.00,1,1,1,1110.02,0.16,52932.61,812.11,0.11,7093.63,551.08,0.17,15542.27,247.05,2.12,6226.42,878.46,2.99,12921.09
2579000,1094.32,591.12,1.00,1,1,1,617.65,0.05,22434.09,450.21,0.32,17208.53,450.72,0.43,7335.12,262.85,2.07,927.18,1046.65,3.00,7583.21
2608200,1102.55,597.74,1.00,1,1,1,361.88,0.68,13249.64,279.75,1.30,12807.36,301.03,1.31,11958.53,420.76,2.46,6990.89,1157.79,2.98,3894.16
2622900,1097.61,602.95,1.00,1,1,1,488.22,2.33,42920.43,771.93,2.35,46023.85,638.75,2.46,39647.91,798.99,2.75,28121.38,1362.08,2.99,13927.42
2637500,1086.73,613.91,1.00,1,1,1,1057.67,2.35,39018.77,1303.80,2.70,43610.34,1468.04,2.81,61414.95,1153.60,2.88,25629.19,1385.13,3.00,1787.50
2659700,1054.32,623.63,1.00,2,2,2,1524.42,2.85,35160.08,2103.11,2.94,40476.13,2184.31,2.94,33745.53,1703.10,2.94,25119.35,1334.83,3.02,2568.62
2674500,1010.42,629.14,1.00,2,2,2,2989.05,3.02,101820.74,3347.58,3.05,86223.01,2318.02,3.00,13868.38,2210.98,2.99,34938.75,1177.71,3.02,10621.47
2689300,955.63,632.59,1.00,2,2,2,3709.31,3.08,50632.34,2503.39,3.05,57044.07,2965.07,3.05,44540.50,2503.34,3.03,20609.59,1168.77,3.02,620.72
2718700,900.26,639.55,1.00,1,1,1,1898.14,3.02,61857.84,2708.92,3.05,7020.09,2845.90,3.07,4346.26,2442.05,3.07,3880.19,1096.16,3.04,2676.34
2733500,836.35,642.99,1.00,1,1,1,4324.61,3.09,164527.22,3257.49,3.09,37685.58,2777.98,3.09,6230.16,2462.07,3.10,6006.05,1049.46,3.06,3437.96
2755600,780.23,645.91,1.00,1,1,1,2542.85,3.09,80623.07,2865.53,3.13,18739.18,2575.15,3.13,10150.63,1868.71,3.12,26877.99,1117.25,3.08,3245.34
2770300,730.91,643.96,1.00,1,1,1,3358.14,-3.10,58372.56,2011.47,-3.10,58586.76,2012.71,-3.11,38934.75,1509.55,3.13,24492.19,1182.44,3.10,4521.51
2799900,691.18,642.62,1.00,1,1,1,1342.70,-3.11,68090.60,1309.94,-3.04,24005.66,1052.44,-3.06,32552.15,1072.44,-3.06,15277.21,1169.16,3.13,1493.35
2814600,673.20,637.79,1.00,1,1,1,1266.50,-2.88,20900.85,247.89,-2.70,73366.15,453.86,-2.94,41096.34,479.63,-2.81,42136.35,1109.45,-3.11,5006.32
2851600,679.57,637.20,1.00,1,1,1,172.90,-0.09,38644.52,292.69,-0.18,13928.54,482.83,-0.46,23948.43,208.85,-2.06,9635.20,877.58,-3.09,6303.02
2866500,688.15,635.10,1.00,1,1,1,592.82,-0.24,28357.68,1628.85,-0.25,89733.67,1127.12,-0.22,44753.89,167.98,-1.21,10746.96,619.42,-3.05,17424.87
2881300,726.47,625.31,1.00,1,1,1,2671.90,-0.25,140481.13,2595.78,-0.23,65374.95,1482.29,-0.23,24003.95,280.52,-0.64,11148.48,357.69,-2.91,18279.82
2896000,762.69,617.53,1.00,1,1,1,2520.11,-0.21,12379.66,1335.43,-0.21,85802.73,920.28,-0.29,38532.75,346.93,-0.47,5806.00,102.26,-1.34,25254.59
2910800,765.04,617.28,1.00,1,1,1,159.59,-0.11,159558.81,765.76,3.05,141761.09,118.18,-1.85,62608.83,411.29,-0.40,4677.06,405.54,-0.23,25099.13
2925500,740.19,619.60,1.00,1,1,1,1697.40,3.05,126324.99,1109.71,3.13,23921.70,664.03,-3.07,43106.78,534.13,-0.27,9344.57,743.27,-0.11,23434.38
2947500,724.31,617.79,1.00,1,1,1,726.50,-3.03,45346.77,598.18,-2.91,24949.18,403.77,-3.06,11835.47,497.65,-0.16,3142.00,1105.25,-0.08,16493.34
2962200,718.83,614.54,1.00,1,1,1,433.35,-2.61,25519.93,199.95,-0.37,52450.44,252.52,-0.23,44136.42,550.19,-0.07,4843.86,1276.03,-0.06,11740.69
2991600,732.52,614.57,1.00,1,1,1,465.79,0.00,29508.94,935.20,0.01,25631.13,964.46,-0.05,24400.44,913.64,0.00,12471.14,1491.88,-0.06,7341.78
3006300,760.07,615.00,1.00,1,1,1,1874.07,0.02,95805.44,2129.00,-0.00,81223.46,1539.36,-0.02,39185.17,1454.57,-0.00,36798.46,1424.68,-0.06,4577.44
3021000,795.12,614.33,1.00,2,2,2,2384.55,-0.02,35080.22,2262.17,-0.03,10135.07,2515.45,0.02,66581.89,2026.82,-0.00,38930.34,1407.59,-0.05,1276.64
3043200,843.49,612.13,1.00,2,2,2,2181.46,-0.05,9537.25,2823.13,0.03,26311.06,2925.92,0.02,18497.74,2191.47,-0.00,7423.36,1351.05,-0.06,2582.66
3058000,899.52,617.47,1.00,3,3,3,3802.95,0.10,112909.46,3763.97,0.06,64005.55,3204.16,0.01,18961.43,2542.70,-0.01,23779.02,1276.79,-0.08,5406.17
3072700,954.30,619.23,1.00,3,3,3,3728.46,0.03,16911.15,3685.12,-0.01,19414.95,2904.73,0.01,20370.22,2203.78,-0.02,23069.23,1331.15,-0.10,3965.17
3087400,1007.86,616.42,1.00,1,1,1,3648.35,-0.05,21863.60,2344.21,-0.05,91569.47,2566.47,-0.03,24323.77,2192.14,-0.03,2846.82,1349.78,-0.10,1304.22
3117300,1058.73,614.03,1.00,1,1,1,1703.06,-0.05,65061.38,1932.81,-0.06,13776.87,1707.44,-0.06,28791.71,2112.11,-0.06,3259.85,1256.44,-0.10,3124.06
3139200,1107.80,610.46,1.00,1,1,1,2246.85,-0.07,24934.53,1155.25,-0.08,35531.26,1498.93,-0.10,9930.13,1583.59,-0.13,24737.16,1229.78,-0.11,1290.79
3168700,1117.92,609.31,1.00,1,1,1,345.12,-0.11,64477.43,998.51,-0.19,6634.81,1403.54,-0.19,5551.37,1239.98,-0.20,12128.69,1028.70,-0.12,6830.46
3183600,1151.35,602.14,1.00,1,1,1,2294.64,-0.21,130969.25,1863.74,-0.31,59149.00,782.02,-0.38,43838.83,836.10,-0.29,27917.16,736.68,-0.13,19601.95
3198100,1170.07,592.50,1.00,1,1,1,1452.36,-0.48,66916.49,632.58,-0.65,88604.61,754.92,-0.57,9986.11,420.82,-0.62,31598.33,405.89,-0.15,22835.67
3234600,1177.00,582.58,1.00,1,1,1,331.58,-0.96,32037.54,312.22,-1.62,14314.25,356.01,-1.65,18253.12,236.77,-1.74,10451.66,36.89,-1.66,11103.00
3249500,1169.32,576.47,1.00,1,1,1,658.48,-2.47,48225.51,999.94,-2.83,62940.34,738.98,-2.83,46233.25,362.89,-2.49,16734.82,368.72,-3.08,24499.95
3263900,1149.10,573.65,1.00,1,1,1,1418.17,-3.00,63514.25,1945.04,-3.11,70844.80,1283.10,-3.03,40112.90,896.67,-3.02,42432.63,656.06,3.13,20092.05
3278100,1113.73,574.61,1.00,1,1,1,2491.86,3.11,78727.92,1594.73,3.13,25427.44,1423.52,3.14,14652.50,1402.69,3.14,37083.68,957.98,3.11,21284.62
3293600,1101.74,574.41,1.00,2,2,2,773.39,-3.13,110936.42,1025.37,3.08,36932.37,1943.30,3.05,34848.78,2237.78,3.06,54659.22,1215.49,3.11,16613.90
3315300,1075.66,576.99,1.00,2,2,2,1207.85,3.04,20662.89,2233.13,3.00,55912.26,2259.36,3.02,14881.93,2391.26,3.03,7469.76,1287.37,3.12,3331.45
3330100,1021.02,585.72,1.00,2,2,2,3738.56,2.98,171208.41,3824.17,2.99,107513.74,3121.74,2.99,58524.91,2417.77,3.02,3465.03,1406.34,3.11,8052.30
3344700,964.44,593.46,1.00,3,3,3,3911.44,3.01,13205.51,4225.59,2.97,28053.86,3265.67,2.99,10029.85,2395.21,3.01,2092.87,1415.78,3.10,1208.89
3359500,898.52,606.40,1.00,3,3,3,4538.99,2.95,45479.58,2894.18,2.99,90072.01,2805.39,3.00,31107.94,2472.06,3.01,5279.77,1514.29,3.09,6781.53
3388900,837.92,612.36,1.00,1,1,1,2071.16,3.04,84530.96,2002.27,3.02,30446.40,2507.05,3.00,10150.99,2251.14,3.02,7559.69,1378.10,3.08,4654.40
3411400,795.31,618.51,1.00,1,1,1,1913.39,3.00,8075.55,2042.28,3.01,2125.52,1945.02,3.05,25420.91,1904.01,3.05,15566.44,1277.13,3.07,4512.35
3425700,763.39,622.08,1.00,1,1,1,2245.73,3.03,23692.62,1845.49,3.09,17704.44,1331.09,3.09,43164.79,1428.97,3.07,33372.83,1062.10,3.07,15047.38
3440400,741.85,621.06,1.00,1,1,1,1467.23,-3.09,56475.81,752.53,-3.02,75553.87,918.82,-3.07,29494.83,960.26,-3.13,32475.17,1040.25,3.06,1673.19
3469700,730.52,618.12,1.00,1,1,1,399.49,-2.89,36837.79,348.15,-2.66,15157.21,404.86,-2.74,18831.72,519.76,-3.02,15296.53,1032.00,3.05,444.09
3484600,728.21,613.94,1.00,1,1,1,320.30,-2.08,19656.32,245.74,-1.29,25781.98,197.54,-1.52,25863.15,233.07,-2.61,21444.07,961.85,3.05,4707.96
3507000,733.06,609.31,1.00,1,1,1,299.56,-0.76,16926.32,457.26,-0.55,14328.14,352.55,-0.61,12492.29,125.42,-1.29,10499.67,1428.97,3.07,20902.41
3521800,742.68,605.00,1.00,1,1,1,712.01,-0.42,29813.14,506.39,-0.34,7579.96,475.36,-0.36,10631.55,168.91,-0.63,7048.35,960.26,-3.13,32255.74
3551300,754.18,601.75,1.00,1,1,1,405.26,-0.28,10731.99,502.78,-0.22,2127.76,389.95,-0.23,3479.94,134.04,-0.46,1450.56,519.76,-3.02,15192.82
3565900,764.32,600.17,1.00,1,1,1,702.60,-0.15,20839.44,297.02,-0.07,14646.89,244.86,-0.06,10547.67,66.08,3.06,13490.18,233.07,-2.61,21884.71
3603100,769.53,600.70,1.00,1,1,1,140.85,0.10,15251.98,72.53,1.09,7414.30,96.66,2.13,8371.11,389.95,-0.23,12242.24,125.42,-1.29,6322.38
3617500,766.06,603.48,1.00,1,1,1,309.19,2.46,29261.49,718.05,2.77,50661.09,604.13,2.84,37108.65,244.86,-0.06,10694.17,168.91,-0.63,7244.14
3632300,750.02,608.38,1.00,1,1,1,1132.97,2.85,57679.38,1684.60,2.91,66196.98,718.05,2.77,8333.70,96.66,2.13,21040.90,134.04,-0.46,2891.31
3647100,717.51,614.84,1.00,1,1,1,2240.03,2.95,75578.07,2240.03,2.95,37789.04,1684.60,2.91,66196.98,604.13,2.84,36105.71,66.08,3.06,13307.88
