@RELATION gaze_labels

%@METADATA width_px 1920
%@METADATA height_px 1080
%@METADATA width_mm 540.00
%@METADATA height_mm 254.00
%@METADATA distance_mm 620.00


@ATTRIBUTE time INTEGER
@ATTRIBUTE x NUMERIC
@ATTRIBUTE y NUMERIC
@ATTRIBUTE confidence NUMERIC
@ATTRIBUTE handlabeller1 INTEGER
@ATTRIBUTE handlabeller2 INTEGER
@ATTRIBUTE handlabeller_final INTEGER
@ATTRIBUTE speed_1 numeric
@ATTRIBUTE direction_1 numeric
@ATTRIBUTE acceleration_1 numeric
@ATTRIBUTE speed_2 numeric
@ATTRIBUTE direction_2 numeric
@ATTRIBUTE acceleration_2 numeric
@ATTRIBUTE speed_4 numeric
@ATTRIBUTE direction_4 numeric
@ATTRIBUTE acceleration_4 numeric
@ATTRIBUTE speed_8 numeric
@ATTRIBUTE direction_8 numeric
@ATTRIBUTE acceleration_8 numeric
@ATTRIBUTE speed_16 numeric
@ATTRIBUTE direction_16 numeric
@ATTRIBUTE acceleration_16 numeric

%The number after speed, direction denotes the step size that was used for the calculation.
%Acceleration was calculated between two adjacent samples of the already low pass filtered velocity

@DATA
0,778.06,994.88,1.00,1,1,1,0.00,0.00,0.00,3013.00,-0.88,0.00,739.43,-2.11,0.00,640.11,-0.31,0.00,330.13,-0.78,0.00
14300,805.36,961.55,1.00,1,1,1,3013.00,-0.88,210699.38,739.43,-2.11,199346.82,418.40,-3.07,42445.84,354.51,0.61,35677.64,24.56,1.54,24289.35
35500,764.53,972.38,1.00,1,1,1,1992.69,2.88,225165.56,418.40,-3.07,28630.92,640.11,-0.31,49094.47,1006.67,0.27,32248.76,233.76,0.14,10888.07
49600,790.63,960.57,1.00,1,1,1,2031.60,-0.43,284430.74,1873.28,0.19,162349.34,354.51,0.61,36183.70,1268.39,0.12,22160.18,498.55,0.49,20545.96
64100,817.16,982.43,1.00,1,1,1,2370.88,0.69,161784.30,1243.59,0.40,48722.21,1006.67,0.27,47149.92,330.13,-0.78,75307.32,251.40,-2.42,51420.24
78800,824.09,974.68,1.00,1,1,1,707.78,-0.84,166466.15,342.61,0.61,61994.84,1268.39,0.12,21255.68,24.56,1.54,23628.42,735.97,0.03,64228.25
100100,827.27,989.49,1.00,1,1,1,711.42,1.36,59390.91,1360.28,-0.10,52671.77,302.08,-2.04,68443.57,233.76,0.14,10836.96,869.45,-0.62,25012.98
114300,872.15,969.99,1.00,1,1,1,3446.02,-0.41,257280.53,1087.78,-2.23,151315.01,329.73,-2.65,13414.28,498.55,0.49,20401.27,562.34,-0.39,24516.28
128500,808.29,965.12,1.00,1,1,1,4510.34,-3.07,544140.06,2339.44,-3.06,126403.20,541.95,-2.77,15369.09,251.40,-2.42,52506.58,683.95,-0.33,8909.56
142900,805.45,964.71,1.00,1,1,1,199.13,-3.00,299422.18,494.57,2.44,140125.08,499.14,2.43,37193.37,735.97,0.03,65566.33,832.45,-0.09,16314.13
165000,794.49,976.75,1.00,2,2,2,737.01,2.31,29267.34,1371.56,0.56,72150.17,248.45,-2.89,18606.94,869.45,-0.62,24107.54,621.20,-0.26,11094.55
179100,847.56,991.01,1.00,2,2,2,3897.78,0.26,303966.89,561.52,-1.68,125884.53,1767.38,0.12,142817.83,562.34,-0.39,24690.15,577.83,-0.14,6039.54
193100,792.76,961.07,1.00,2,2,2,4460.70,-2.64,592844.97,2555.05,-0.18,184010.51,2108.28,-0.40,74609.34,1076.81,-0.20,38201.72,664.37,-0.17,6284.12
207400,918.68,977.92,1.00,1,1,1,8884.13,0.13,919278.31,3669.74,-0.29,81016.42,1619.24,-0.49,35898.66,1657.62,-0.10,41581.07,267.57,-0.63,30860.30
228700,918.13,924.32,1.00,1,1,1,2516.47,-1.58,449448.81,1143.53,-1.04,138339.10,2375.35,-0.15,46767.11,1054.47,-0.36,32312.17,482.72,-0.47,10456.14
243100,939.22,942.64,1.00,1,1,1,1939.80,0.72,282704.78,1021.94,0.46,102855.53,1636.14,-0.34,57203.75,779.45,-0.48,20723.06,603.69,-0.29,10702.68
257900,944.87,937.56,1.00,1,1,1,513.98,-0.73,131390.40,2703.55,-0.00,124742.58,130.74,1.86,115982.65,1404.18,-0.04,52300.99,797.77,-0.20,13730.93
272900,1019.78,942.39,1.00,1,1,1,5004.23,0.06,310626.19,988.71,-2.94,245169.07,118.41,-0.46,15229.78,365.08,-2.16,108218.79,793.77,-0.19,598.82
287800,915.89,931.72,1.00,1,1,1,7009.06,-3.04,806120.24,1398.64,-3.09,29744.89,671.71,0.28,39523.99,209.87,0.07,34941.39,1163.15,-0.17,24847.30
324400,947.86,938.41,1.00,2,2,2,892.36,0.21,215769.13,1644.06,0.25,82748.34,1424.82,-3.04,57083.33,640.63,-0.22,12129.95,822.04,-0.31,10102.68
338800,997.16,952.35,1.00,2,2,2,3557.98,0.28,185312.15,1459.74,-3.00,215256.94,357.63,-0.14,123232.35,571.13,-0.21,4852.15,853.25,-0.15,9574.06
366900,886.48,929.40,1.00,3,3,3,4022.65,-2.94,269602.83,1049.54,-2.63,21695.44,1184.47,-0.20,29456.80,152.91,-1.11,17457.66,621.71,-0.31,9180.34
388600,951.60,926.75,1.00,1,1,1,3003.35,-0.04,321398.91,4236.80,-0.06,237341.13,636.02,-0.74,33225.18,1270.62,-0.05,55451.72,599.00,-0.03,7943.69
403000,1039.15,920.11,1.00,1,1,1,6097.12,-0.08,215094.91,2890.28,-0.10,93962.39,2218.79,-0.06,123021.34,886.49,-0.16,27996.17,660.66,-0.09,5105.94
417200,1033.86,918.59,1.00,1,1,1,387.41,-2.86,455056.05,293.27,3.08,224180.45,2857.73,-0.03,45381.24,342.53,-0.63,42258.44,492.91,-0.16,12148.78
432000,1030.66,920.62,1.00,1,1,1,256.19,2.58,19575.51,2840.31,0.04,211632.13,529.47,-0.07,157350.05,1563.54,-0.03,87452.66,338.88,-0.22,10523.85
446700,1117.57,922.17,1.00,1,1,1,5913.41,0.02,416927.74,1192.22,-0.07,112938.03,88.81,0.97,33366.56,1105.35,-0.05,31230.66,365.29,0.03,6145.36
468000,1073.48,917.79,1.00,1,1,1,2080.01,-3.04,375039.62,2221.94,3.13,160242.61,914.62,0.04,40590.52,701.99,0.06,19525.59,74.89,1.42,16895.07
482900,1037.14,923.41,1.00,1,1,1,2467.78,2.99,46305.16,603.41,0.30,188028.53,459.97,-3.05,92231.06,399.58,-0.08,20910.90,275.48,2.98,19102.35
497400,1090.42,923.06,1.00,1,1,1,3674.43,-0.01,422503.52,1748.29,-0.08,83325.54,903.21,0.15,93975.87,651.97,0.01,17662.61,199.95,0.83,28951.43
511900,1087.70,919.53,1.00,1,1,1,307.56,-2.23,266798.19,1221.39,0.07,39184.20,764.06,-0.18,21077.12,747.71,3.01,96314.91,254.53,2.68,25115.02
526100,1125.39,925.47,1.00,2,2,2,2687.53,0.16,205550.28,151.20,-1.92,90873.20,388.00,-0.08,26780.51,1054.18,2.82,24608.11,472.47,2.93,16531.38
547700,1085.84,914.45,1.00,2,2,2,1901.15,-2.87,212095.10,303.59,-2.73,10510.51,1053.69,2.92,66607.74,940.78,2.80,5387.90,700.33,2.95,10563.06
562000,1115.41,921.10,1.00,2,2,2,2119.80,0.22,281095.50,2346.98,2.84,148754.07,2758.00,2.96,119269.20,1359.33,2.88,30044.63,497.03,2.89,14456.01
576500,1021.31,934.58,1.00,3,3,3,6555.80,3.00,591049.93,5919.94,2.92,247295.03,2654.40,2.84,22118.98,1530.06,2.96,13936.12,747.71,3.01,18071.29
590500,950.80,958.12,1.00,1,1,1,5309.53,2.82,116844.71,2904.55,2.85,216446.93,3117.51,2.91,35407.62,1580.55,3.05,10334.66,1054.18,2.82,24959.65
611900,922.89,964.33,1.00,1,1,1,1336.33,2.92,186106.28,870.86,2.83,95044.89,2012.19,2.98,52362.89,1703.76,2.98,7895.56,940.78,2.80,5438.25
626000,921.40,967.67,1.00,1,1,1,259.58,1.99,85117.34,1050.35,-2.84,43148.16,481.05,-2.70,116170.06,1526.47,2.99,12652.28,1359.33,2.88,30470.79
640500,894.22,955.36,1.00,1,1,1,2058.09,-2.72,143188.81,787.17,-1.51,79345.30,987.09,-3.02,37939.77,2012.19,2.98,33511.94,1530.06,2.96,13936.12
654900,922.75,944.96,1.00,1,1,1,2108.89,-0.35,267937.36,966.49,-3.13,88512.17,324.91,-2.61,48608.36,481.05,-2.70,113749.85,1580.55,3.05,10047.58
690500,845.90,954.73,1.00,1,1,1,2176.21,3.02,119621.45,506.29,2.75,15133.24,966.49,-3.13,19721.04,987.09,-3.02,15453.00,1703.76,2.98,4746.20
705400,899.11,954.69,1.00,1,1,1,3571.09,-0.00,385008.28,3571.09,-0.00,271411.78,506.29,2.75,36157.27,324.91,-2.61,46977.20,1526.47,2.99,11972.96
