@RELATION gaze_labels

%@METADATA width_px 1920
%@METADATA height_px 1080
%@METADATA width_mm 540.00
%@METADATA height_mm 254.00
%@METADATA distance_mm 620.00


@ATTRIBUTE time INTEGER
@ATTRIBUTE x NUMERIC
@ATTRIBUTE y NUMERIC
@ATTRIBUTE confidence NUMERIC
@ATTRIBUTE handlabeller1 INTEGER
@ATTRIBUTE handlabeller2 INTEGER
@ATTRIBUTE handlabeller_final INTEGER
@ATTRIBUTE speed_1 numeric
@ATTRIBUTE direction_1 numeric
@ATTRIBUTE acceleration_1 numeric
@ATTRIBUTE speed_2 numeric
@ATTRIBUTE direction_2 numeric
@ATTRIBUTE acceleration_2 numeric
@ATTRIBUTE speed_4 numeric
@ATTRIBUTE direction_4 numeric
@ATTRIBUTE acceleration_4 numeric
@ATTRIBUTE speed_8 numeric
@ATTRIBUTE direction_8 numeric
@ATTRIBUTE acceleration_8 numeric
@ATTRIBUTE speed_16 numeric
@ATTRIBUTE direction_16 numeric
@ATTRIBUTE acceleration_16 numeric

%The number after speed, direction denotes the step size that was used for the calculation.
%Acceleration was calculated between two adjacent samples of the already low pass filtered velocity

@DATA
0,782.89,959.18,1.00,1,1,1,0.00,0.00,0.00,4725.12,-0.05,0.00,490.90,-1.73,0.00,856.19,-2.49,0.00,257.61,-1.07,0.00
14000,848.95,955.74,1.00,1,1,1,4725.12,-0.05,337508.33,490.90,-1.73,342946.04,1519.12,0.12,122894.60,524.01,0.41,97904.60,112.02,-2.27,17178.99
28500,780.71,945.36,1.00,1,1,1,4760.61,-2.99,650822.68,1519.12,0.12,118656.85,856.19,-2.49,158606.55,739.03,0.12,19246.30,431.22,0.21,36114.74
43000,892.67,961.15,1.00,1,1,1,7798.13,0.14,866107.81,1283.20,-2.70,190883.36,524.01,0.41,94528.58,1209.17,-2.83,133766.22,468.70,-2.50,60623.73
64400,739.00,925.81,1.00,1,1,1,7368.60,-2.92,708071.88,416.56,2.57,52260.88,739.03,0.12,13040.72,257.61,-1.07,59931.33,1250.67,-0.15,75497.73
78800,880.13,969.21,1.00,1,1,1,10253.49,0.30,1222978.87,3193.15,0.28,241876.14,1209.17,-2.83,134695.16,112.02,-2.27,16701.80,539.08,-1.51,87033.21
93500,828.40,951.15,1.00,1,1,1,3727.27,-2.81,950941.34,2426.44,-2.66,380309.95,1026.54,0.10,151202.33,431.22,0.21,35623.38,556.01,-0.88,22969.11
107400,818.62,937.07,1.00,1,1,1,1233.33,-2.18,203168.16,1257.98,-2.57,84835.24,737.78,-2.60,123839.70,468.70,-2.50,63240.58,635.09,-0.44,19619.66
122200,798.05,931.59,1.00,2,2,2,1438.41,-2.88,63579.58,631.27,0.35,126919.69,135.19,0.70,58890.63,1250.67,-0.15,109165.63,472.76,-0.50,11219.31
142900,839.71,944.65,1.00,2,2,2,2109.13,0.30,171339.49,1282.48,0.60,33304.45,439.71,-0.43,19404.92,539.08,-1.51,60544.84,234.62,-1.07,14574.57
157000,834.95,956.69,1.00,3,3,3,918.45,1.95,167422.75,694.41,-1.34,117958.41,1499.24,-0.30,75509.32,556.01,-0.88,23946.52,519.31,-0.29,27566.74
171600,844.26,925.25,1.00,1,1,1,2246.30,-1.28,216588.78,2629.93,-0.78,142192.96,984.84,-0.78,52873.57,635.09,-0.44,18678.99,258.50,-2.18,44419.19
186100,889.48,903.00,1.00,1,1,1,3476.02,-0.46,176405.90,1341.95,-0.56,93352.78,1109.83,-1.00,18088.73,727.91,-0.32,8450.81,638.34,-0.16,54232.26
206800,884.39,900.34,1.00,1,1,1,277.76,-2.66,176178.40,481.67,-2.72,80250.12,830.79,-0.44,28889.49,440.98,-0.83,19495.10,379.62,-0.81,19678.60
221900,873.73,896.00,1.00,1,1,1,762.37,-2.76,32225.70,283.89,0.25,50530.89,47.88,-2.82,57350.77,689.90,-0.59,18623.17,530.21,-0.39,15896.51
235700,892.34,902.36,1.00,1,1,1,1425.46,0.33,158479.68,497.67,0.44,16333.84,103.26,2.77,5288.22,162.57,-1.20,40924.41,723.05,-0.24,15366.74
250400,886.56,902.03,1.00,1,1,1,393.78,-3.09,122976.68,393.77,3.11,59012.62,575.20,0.31,44817.61,141.04,-0.20,10014.68,806.51,-0.17,6886.35
271800,878.13,902.76,1.00,1,1,1,395.39,3.06,2621.17,643.03,0.23,48078.64,505.44,3.11,49777.30,452.90,-0.13,14595.24,639.12,-0.32,9229.00
285900,908.81,907.16,1.00,1,1,1,2197.75,0.14,183291.92,600.07,3.11,87428.37,278.92,-0.14,55556.95,604.09,-0.02,11493.95,682.58,-0.34,3242.24
314400,852.58,903.58,1.00,2,2,2,1976.78,-3.08,146361.34,169.72,-1.41,22967.11,842.27,-0.15,19768.21,806.91,-0.13,7565.15,651.43,-0.22,2941.33
335900,910.19,898.79,1.00,3,3,3,2688.59,-0.08,216424.68,2073.27,-0.12,94506.28,657.96,-0.22,8856.74,878.92,-0.07,3964.46,456.95,-0.10,9565.95
364200,955.06,890.95,1.00,1,1,1,1609.45,-0.17,38702.46,1368.83,-0.08,25013.69,2011.87,-0.10,48062.11,867.19,-0.11,1247.49,367.24,-0.10,3170.03
378500,968.31,894.07,1.00,1,1,1,952.02,0.23,57608.24,1927.79,-0.07,39094.65,1534.86,-0.06,33818.70,708.93,-0.14,11165.26,505.68,-0.02,10005.47
400000,1023.88,885.80,1.00,1,1,1,2613.06,-0.15,82039.15,1733.81,-0.04,9591.46,905.64,-0.05,29268.07,1190.27,-0.11,22410.37,489.77,-0.13,2767.06
414200,1030.16,891.81,1.00,1,1,1,612.55,0.76,161208.77,381.80,2.94,148696.78,788.45,-0.04,8281.08,787.64,-0.08,28448.32,724.62,-0.10,16599.62
428500,1013.21,887.95,1.00,1,1,1,1215.94,-2.92,123761.31,371.39,3.12,4786.12,112.72,-0.33,47636.80,263.55,-0.04,36674.50,936.02,-0.05,15088.47
443300,1019.36,892.02,1.00,1,1,1,498.06,0.58,114266.88,496.77,-0.25,58270.78,115.70,-2.89,14777.33,386.03,-0.01,8293.35,791.70,-0.08,9899.41
465100,1030.82,883.42,1.00,1,1,1,657.16,-0.64,31107.69,113.33,-0.54,17867.04,374.72,3.07,12283.76,85.89,-0.22,13876.71,1032.58,-0.02,11246.34
479400,1022.87,889.91,1.00,2,2,2,717.83,2.46,96133.60,1503.89,2.99,112532.59,31.32,2.30,24679.12,530.15,-0.16,31081.76,768.66,-0.02,18457.68
493200,989.03,889.71,1.00,2,2,2,2451.79,-3.14,141478.80,216.29,2.50,95440.48,60.58,-0.01,6145.94,1023.95,0.02,36981.73,735.64,-0.00,2628.13
507300,1018.03,893.51,1.00,1,1,1,2073.94,0.13,320355.54,1290.98,-0.14,105261.32,1180.24,-0.12,79435.83,895.90,-0.02,9398.03,673.63,-0.04,4733.75
528900,1034.68,883.39,1.00,1,1,1,902.37,-0.55,68609.65,2241.64,-0.15,44030.11,2432.17,0.00,58730.54,852.39,0.13,6166.05,529.92,0.06,7153.32
543300,1097.77,881.16,1.00,1,1,1,4383.92,-0.04,251631.47,3884.75,0.06,122462.66,1800.45,-0.03,44147.03,750.66,0.05,8398.19,178.86,2.84,48622.08
557400,1145.18,890.44,1.00,1,1,1,3425.71,0.19,92504.55,1318.76,0.24,184080.67,1730.05,0.13,20858.92,1204.66,0.01,32307.58,381.00,2.45,16021.36
572200,1134.83,890.08,1.00,1,1,1,699.76,-3.11,278252.39,454.38,2.66,114020.19,391.60,0.54,93232.11,958.75,-0.05,17051.63,708.54,2.89,26915.63
586500,1133.46,896.57,1.00,1,1,1,463.60,1.78,53848.62,436.62,2.87,6655.92,6.45,0.65,26935.98,1001.69,0.08,9388.14,639.25,2.77,7414.54
608400,1119.60,894.33,1.00,1,1,1,641.14,-2.98,35314.92,366.36,-0.45,36515.64,123.80,-0.30,5485.97,814.20,2.92,81996.07,622.34,2.65,3511.49
623100,1145.51,890.70,1.00,2,2,2,1780.05,-0.14,163270.70,825.72,-0.28,31909.84,363.12,-0.13,16465.72,1538.20,2.85,49581.74,608.05,2.83,7376.60
637300,1142.53,887.72,1.00,2,2,2,296.93,-2.36,138965.93,413.51,0.25,36226.40,1739.34,3.05,148044.15,2139.02,2.98,45394.31,629.67,2.76,3197.04
651200,1156.77,893.60,1.00,2,2,2,1108.06,0.39,99786.04,3226.28,3.03,260078.78,2832.07,2.85,84981.18,1686.26,2.95,32806.23,621.08,2.68,3844.28
686900,983.59,906.29,1.00,3,3,3,4863.94,3.07,164579.53,4617.14,2.88,42111.25,4024.27,2.98,35385.74,1691.82,2.84,5237.42,1074.02,2.90,13632.94
701400,933.04,954.15,1.00,1,1,1,4800.89,2.38,223843.31,5427.36,2.92,58104.44,3005.17,2.96,70448.65,2081.96,2.98,32419.36,1008.39,2.94,5505.35
715400,832.57,939.77,1.00,1,1,1,7248.89,-3.00,406201.58,1455.10,-3.08,289221.65,1724.12,2.62,106059.93,1919.14,2.90,16365.29,1251.05,3.01,18256.93
751700,859.99,949.61,1.00,1,1,1,802.26,0.34,221388.37,938.34,0.80,61739.87,1404.51,-3.05,27376.99,1761.55,2.90,4342.27,1686.26,2.95,12248.46
765700,865.54,973.55,1.00,1,1,1,1755.49,1.34,105926.10,1319.12,-2.98,153453.92,341.40,0.86,119091.51,1333.79,2.88,30627.75,1691.82,2.84,13355.41
780000,823.15,943.52,1.00,1,1,1,3632.60,-2.53,355283.95,713.18,-2.43,56014.85,315.54,0.72,3795.36,502.62,-3.06,61352.17,2081.96,2.98,32872.78
794300,850.08,960.24,1.00,1,1,1,2216.67,0.56,408862.68,1551.98,0.36,156267.10,1070.71,-2.88,95153.42,376.27,-3.08,8855.24,1919.14,2.90,16021.96
815800,875.22,962.91,1.00,1,1,1,1175.81,0.11,58872.71,1428.26,-3.06,137350.69,593.29,0.12,77226.15,315.54,0.72,30490.00,1761.55,2.90,7331.37
830800,798.14,955.77,1.00,2,2,2,5160.52,-3.05,422416.05,703.92,-2.33,67839.94,1159.51,-2.82,116313.24,1070.71,-2.88,90712.93,1333.79,2.88,28585.90
844700,861.26,948.11,1.00,2,2,2,4574.39,-0.12,696394.06,967.62,-2.36,19071.60,703.92,-2.33,45548.70,593.29,0.12,119450.53,502.62,-3.06,63117.70
859400,778.50,936.28,1.00,1,1,1,5687.15,-3.00,692114.17,5687.15,-3.00,336377.17,967.62,-2.36,18033.69,1159.51,-2.82,118686.98,376.27,-3.08,8614.28
