@RELATION gaze_labels

%@METADATA width_px 1920
%@METADATA height_px 1080
%@METADATA width_mm 540.00
%@METADATA height_mm 254.00
%@METADATA distance_mm 620.00


@ATTRIBUTE time INTEGER
@ATTRIBUTE x NUMERIC
@ATTRIBUTE y NUMERIC
@ATTRIBUTE confidence NUMERIC
@ATTRIBUTE handlabeller1 INTEGER
@ATTRIBUTE handlabeller2 INTEGER
@ATTRIBUTE handlabeller_final INTEGER
@ATTRIBUTE speed_1 numeric
@ATTRIBUTE direction_1 numeric
@ATTRIBUTE acceleration_1 numeric
@ATTRIBUTE speed_2 numeric
@ATTRIBUTE direction_2 numeric
@ATTRIBUTE acceleration_2 numeric
@ATTRIBUTE speed_4 numeric
@ATTRIBUTE direction_4 numeric
@ATTRIBUTE acceleration_4 numeric
@ATTRIBUTE speed_8 numeric
@ATTRIBUTE direction_8 numeric
@ATTRIBUTE acceleration_8 numeric
@ATTRIBUTE speed_16 numeric
@ATTRIBUTE direction_16 numeric
@ATTRIBUTE acceleration_16 numeric

%The number after speed, direction denotes the step size that was used for the calculation.
%Acceleration was calculated between two adjacent samples of the already low pass filtered velocity

@DATA
0,125.01,905.78,1.00,1,1,1,0.00,0.00,0.00,6868.63,-3.02,0.00,1117.09,-3.10,0.00,112.38,-2.02,0.00,239.09,-3.08,0.00
15900,16.61,892.49,1.00,1,1,1,6868.63,-3.02,431989.00,1117.09,-3.10,362003.02,494.76,0.44,99701.67,137.75,2.49,12217.67,341.06,0.19,36419.04
29800,91.75,904.40,1.00,1,1,1,5473.14,0.16,887760.84,494.76,0.44,114047.23,112.38,-2.02,42185.93,306.49,-3.01,16580.05,136.13,-2.84,34282.47
57900,35.44,901.27,1.00,1,1,1,2006.85,-3.09,265921.43,467.29,-0.27,11945.30,137.75,2.49,6913.20,200.21,0.11,18031.21,1070.08,0.01,42737.74
93500,120.40,896.34,1.00,1,1,1,2390.53,-0.06,123324.72,579.29,-3.10,29045.63,306.49,-3.01,6473.67,239.09,-3.08,12336.17,2000.47,0.05,26201.30
107800,6.56,900.18,1.00,1,1,1,7965.79,3.11,724180.73,1266.05,3.09,48349.23,200.21,0.11,35431.96,341.06,0.19,40493.90,2514.65,0.01,36590.69
143500,57.20,899.86,1.00,1,1,1,1418.55,-0.01,262854.13,979.04,0.07,62769.13,470.00,2.96,18601.37,136.13,-2.84,13348.08,2392.71,0.01,3416.01
157700,55.30,903.52,1.00,1,1,1,290.36,2.05,110925.14,918.04,0.12,5614.87,849.73,0.05,92366.23,1070.08,0.01,84572.57,2407.61,-0.01,4604.75
172700,83.81,903.13,1.00,2,2,2,1900.63,-0.01,136929.99,632.91,-0.00,20055.08,215.17,-0.20,42896.18,2000.47,0.05,62184.42,930.48,0.02,98533.81
187300,74.03,903.45,1.00,2,2,2,669.73,3.11,176045.65,535.48,-2.76,78552.11,2383.28,-0.00,148815.58,2514.65,0.01,35838.83,1122.78,0.03,13184.41
201600,69.45,897.36,1.00,3,3,3,533.33,-2.22,39710.08,3798.88,-0.00,300673.84,4973.39,0.03,181286.74,2392.71,0.01,8528.09,976.47,-0.02,10885.76
223900,213.07,902.92,1.00,1,1,1,6445.30,0.04,304696.74,9298.14,0.04,246928.20,4171.92,0.00,36265.21,2407.61,-0.01,2932.17,1142.82,-0.03,7466.39
238200,409.44,912.22,1.00,1,1,1,13747.21,0.05,510654.04,4487.41,0.01,336760.78,3979.82,0.02,14232.44,2329.02,0.03,8551.97,2083.05,0.01,65912.04
267200,407.37,904.85,1.00,1,1,1,263.99,-1.84,476992.42,544.37,-2.78,172496.36,2428.22,-0.02,53706.02,2058.17,-0.00,9583.87,2530.13,0.01,15420.72
281500,387.37,903.93,1.00,1,1,1,1399.91,-3.10,93752.62,192.78,-1.98,30237.95,134.17,-0.05,160426.81,2294.87,0.00,16561.00,2742.57,-0.00,14996.06
302800,404.61,898.56,1.00,1,1,1,847.73,-0.30,104029.04,942.26,0.23,50211.82,569.50,-3.08,33002.99,1229.22,-0.07,50321.34,2634.76,-0.01,5143.65
317100,420.01,911.67,1.00,1,1,1,1414.32,0.71,83858.53,1185.38,3.02,146545.07,222.81,-0.47,53846.47,2161.98,-0.02,65442.90,2286.27,-0.01,24387.39
331500,370.82,902.54,1.00,2,2,2,3474.24,-2.96,330071.32,853.48,-2.52,55347.47,282.90,-2.71,31675.04,2547.50,0.01,27150.16,2448.94,0.01,11913.51
345700,400.14,897.49,1.00,2,2,2,2095.13,-0.17,386459.41,592.86,-0.59,84513.71,4205.40,-0.02,314185.35,3065.69,-0.01,36676.07,2024.70,0.01,29876.83
366700,388.20,890.98,1.00,1,1,1,647.75,-2.64,125423.67,7025.32,0.02,311784.49,5116.33,0.01,43949.42,2845.01,-0.01,10553.36,2207.99,0.10,13148.71
395400,749.22,904.86,1.00,1,1,1,12588.53,0.04,458951.11,8925.46,0.04,66459.36,5220.39,0.00,4027.80,2250.31,-0.05,21136.53,1990.20,0.15,8363.15
409500,769.87,907.05,1.00,1,1,1,1472.58,0.11,788631.33,2716.24,-0.07,442069.76,4978.79,0.01,17468.49,2765.32,0.02,38459.26,1985.07,0.14,1544.95
431100,845.96,898.19,1.00,1,1,1,3546.58,-0.12,98825.67,1628.24,-0.14,50782.59,335.60,-0.47,216816.28,1806.30,0.01,44399.22,1931.57,0.04,9447.24
459600,850.70,896.06,1.00,1,1,1,182.35,-0.42,118359.07,1705.41,-3.07,116349.24,935.35,0.03,23166.40,3042.80,0.16,45077.06,1822.91,0.06,3927.07
474100,772.81,892.99,1.00,4,4,4,5375.61,-3.10,382026.73,378.61,0.83,137782.97,1336.44,3.11,156603.74,1891.57,0.34,84853.44,1545.07,0.02,19705.27
509700,863.54,910.02,1.00,4,4,4,2593.09,0.19,223315.69,1035.92,2.97,35977.01,1211.00,0.98,62584.92,1547.03,0.34,9683.20,1650.85,0.01,2988.31
523900,721.99,901.87,1.00,4,4,4,9984.80,-3.08,884580.16,2679.32,1.02,225852.66,3425.20,0.41,175874.28,870.23,0.22,48553.03,1618.14,0.02,2614.27
538300,903.47,975.42,1.00,4,4,4,13598.16,0.39,1616304.29,9427.06,0.32,525875.06,2611.53,0.51,60031.82,732.74,0.32,10949.02,1464.61,0.03,10719.34
559700,1041.83,1009.57,1.00,4,4,4,6659.77,0.24,330397.33,3034.84,0.15,302026.50,4022.59,0.10,89614.07,826.27,0.21,5823.72,457.72,-0.02,47091.29
573600,1009.46,990.98,1.00,4,4,4,2685.71,-2.62,666979.80,3593.07,-2.23,442380.80,1024.48,-0.78,249414.10,102.25,-0.23,52892.97,294.50,-0.14,12160.01
588200,979.27,928.51,1.00,4,4,4,4752.72,-2.02,202287.41,2969.55,-2.33,48936.07,2717.55,-2.59,214007.36,1383.94,0.03,88037.71,698.63,0.02,28110.23
602500,950.08,929.02,1.00,1,1,1,2041.41,3.12,301779.08,2436.56,-3.03,134169.34,2455.82,-2.58,18515.35,557.39,-2.14,123010.18,850.46,0.03,10647.62
623600,893.51,919.27,1.00,1,1,1,2720.63,-2.97,38443.16,2187.41,-2.85,23140.42,797.72,-2.80,79985.32,1304.86,-2.53,38677.43,1399.40,0.02,26022.70
637700,876.29,907.04,1.00,1,1,1,1497.82,-2.52,107418.12,664.76,-0.41,193555.31,1106.39,-2.89,22552.88,1247.98,-2.57,5666.80,1100.37,-0.05,21989.66
667000,919.95,907.71,1.00,1,1,1,1490.24,0.02,97398.44,354.55,-3.03,33722.82,225.12,-1.78,34967.02,565.36,-0.34,56531.98,1406.86,-0.02,10530.56
688000,858.56,905.09,1.00,2,2,2,2925.79,-3.10,210269.51,866.11,-2.95,24452.20,267.49,-2.50,8406.28,1019.79,-0.17,22434.57,933.07,-0.27,26524.42
702500,889.75,901.91,1.00,2,2,2,2162.37,-0.10,350013.23,376.20,-1.49,62438.45,2119.23,-0.04,160831.81,2020.28,-0.06,69883.83,594.70,-0.65,30284.91
716600,859.41,894.37,1.00,2,2,2,2217.21,-2.90,305989.78,5813.84,-0.00,411056.11,4089.76,-0.01,139984.20,1913.51,-0.04,8285.89,556.89,-0.53,5716.86
731000,1055.45,901.77,1.00,1,1,1,13623.21,0.04,1097231.35,8114.08,0.04,160941.01,4545.27,-0.00,31652.79,1429.23,-0.06,33697.62,600.63,-0.19,13726.03
745500,1093.72,903.83,1.00,1,1,1,2643.23,0.05,757268.67,3538.18,-0.00,315976.71,4049.08,0.00,34265.04,2039.48,-0.02,42279.64,912.45,-0.07,22357.88
766900,1182.47,901.45,1.00,1,1,1,4148.62,-0.03,71437.68,1692.17,-0.10,86924.13,988.74,-0.07,143187.34,1869.23,-0.00,8161.68,984.60,-0.07,3387.35
795100,1177.26,895.77,1.00,1,1,1,273.32,-2.31,153640.48,451.51,-2.90,75311.82,859.38,-0.07,4591.67,1708.41,0.02,5888.65,1080.58,-0.01,3919.29
831200,1154.26,894.59,1.00,1,1,1,638.07,-3.09,13383.98,62.24,0.86,13943.24,14.16,-0.04,23413.46,636.92,-0.09,29854.64,238.07,-3.01,36470.13
845300,1179.30,898.14,1.00,1,1,1,1793.49,0.14,172316.44,1059.44,0.23,71632.32,141.22,2.77,10969.16,834.72,0.03,15254.88,411.51,-3.05,12341.61
859800,1183.78,901.40,1.00,1,1,1,382.62,0.63,101143.96,310.32,2.96,93102.39,188.73,-0.21,22677.62,117.38,-0.12,49570.97,536.99,3.14,9163.62
895000,1164.13,900.91,1.00,1,1,1,558.66,-3.12,25574.83,360.82,-2.56,7192.81,814.38,0.15,18205.41,286.99,0.15,5017.34,651.19,-3.13,3250.26
909600,1168.75,891.57,1.00,1,1,1,713.56,-1.11,73663.24,2712.06,0.09,207861.61,240.05,-0.12,40201.00,2154.93,3.13,167029.62,1233.55,-3.12,39895.99
924100,1242.75,907.72,1.00,2,2,2,5224.08,0.21,351626.65,1214.49,0.22,104607.06,928.43,0.03,47746.79,2858.94,-3.13,48686.39,1308.90,-3.13,5216.54
938000,1202.41,899.07,1.00,2,2,2,2968.22,-2.93,589373.72,552.19,-2.89,127082.48,5026.24,3.12,428317.65,2846.32,3.14,2760.46,1734.36,3.14,30701.91
959400,1223.89,902.82,1.00,2,2,2,1018.70,0.17,186278.47,9993.81,-3.14,442053.62,6539.30,-3.11,71836.95,3590.73,-3.13,34893.94,1573.38,3.11,7802.00
973500,847.63,897.99,1.00,3,3,3,26686.86,-3.13,1964043.45,11443.55,-3.12,103492.18,5661.03,3.13,64077.42,3565.89,3.14,5251.29,1831.14,3.11,18281.43
1002600,729.61,893.63,1.00,1,1,1,4058.52,-3.10,777653.80,2598.44,3.11,304126.38,7283.97,-3.12,56038.89,3976.82,-3.12,14410.77,1418.14,3.04,14669.04
1023700,717.27,902.65,1.00,1,1,1,724.31,2.51,166767.79,2236.45,-3.13,17938.90,2387.61,-3.12,232058.32,3935.26,3.13,5749.22,1080.06,2.94,17154.05
1038200,650.00,892.82,1.00,1,1,1,4689.07,-3.00,289870.97,2047.10,-2.99,25089.34,885.33,3.08,103963.01,3698.37,3.12,16429.72,1322.84,3.04,18737.75
1052600,658.83,893.49,1.00,1,1,1,614.92,0.08,368241.48,768.93,0.19,195526.79,1394.31,3.11,35442.57,1510.89,3.08,152110.33,2029.92,3.10,49598.47
1067600,672.17,897.20,1.00,4,4,4,923.65,0.27,22798.18,866.79,2.67,103136.88,730.25,0.41,138524.54,376.94,1.06,113748.26,2207.76,-3.11,15491.30
1081900,636.16,904.94,1.00,4,4,4,2576.20,2.93,239247.47,726.86,0.61,95860.15,513.03,2.55,76430.07,1089.76,0.44,57005.09,2020.00,3.12,15373.36
1102900,693.25,911.84,1.00,4,4,4,2738.28,0.12,249595.20,240.83,2.15,36128.65,1209.29,0.48,72434.59,1017.62,0.33,6475.70,2289.46,-3.14,13120.10
1116800,631.58,911.99,1.00,4,4,4,4436.78,3.14,515275.42,1615.67,0.43,119941.49,2718.97,0.28,111716.71,644.74,2.91,115191.77,978.14,3.12,94365.26
1145500,755.71,940.75,1.00,4,4,4,4439.82,0.23,307245.90,4657.14,0.25,107483.89,1258.69,0.29,50882.94,656.44,-3.05,7210.94,504.52,3.08,16532.09
1167100,858.82,968.88,1.00,4,4,4,4947.92,0.27,24979.86,897.81,-0.03,176015.24,769.84,3.08,92546.94,472.43,3.02,10080.95,617.05,3.12,5310.15
1181100,787.65,939.69,1.00,4,4,4,5494.02,-2.75,744448.39,7130.94,-2.97,572272.43,2309.37,-2.87,114503.34,1108.58,-3.09,46345.23,189.89,2.92,30904.00
1209600,560.29,916.65,1.00,1,1,1,8018.71,-3.04,111017.61,4567.50,-2.91,90646.36,3355.59,-2.97,37922.52,553.66,-3.06,19485.99,234.35,0.16,14627.01
1231100,565.26,887.76,1.00,1,1,1,1363.72,-1.40,382642.50,153.01,-2.94,205327.79,3086.87,-3.01,13832.26,1124.61,-2.93,26941.00,467.28,0.09,10878.38
1259700,552.78,915.11,1.00,1,1,1,1051.38,2.00,83756.06,1467.88,2.92,46493.48,350.43,-2.70,96340.75,2121.88,-2.95,34882.43,815.12,0.02,12261.36
1273800,504.08,901.36,1.00,1,1,1,3588.61,-2.87,254061.39,639.99,-2.61,77196.54,226.23,1.00,39411.98,1249.48,-2.97,61891.62,524.96,-0.06,20946.95
1294900,533.31,903.77,1.00,1,1,1,1390.02,0.08,235071.32,1967.28,0.02,120641.53,351.33,-2.73,26239.04,1133.04,-0.07,112056.80,664.88,-0.07,6636.07
1309800,574.89,902.73,1.00,2,2,2,2791.37,-0.02,95109.55,93.13,2.05,134914.89,1403.86,0.04,116552.64,1754.79,0.09,44413.40,370.45,-0.32,21349.94
1323900,532.07,906.17,1.00,2,2,2,3046.66,3.06,413887.73,692.90,0.13,51773.72,3034.26,0.00,115771.15,2409.38,-0.01,48873.22,304.04,-0.88,14050.21
1338200,594.40,905.26,1.00,3,3,3,4359.60,-0.01,517650.99,5526.99,-0.01,338564.34,3748.23,0.03,50337.06,2379.35,-0.00,3080.82,181.57,-0.74,8859.79
1359700,729.93,904.62,1.00,1,1,1,6303.54,-0.00,90447.32,6188.48,0.02,31874.26,4629.30,0.01,41179.40,2175.62,-0.02,9786.57,979.45,-0.07,39310.70
1373800,814.66,910.28,1.00,1,1,1,6022.50,0.07,37046.33,3887.06,0.03,163254.24,3112.92,-0.02,107786.79,2023.22,0.01,11875.52,1129.89,0.03,12784.96
1402900,897.76,910.03,1.00,1,1,1,2855.88,-0.00,109271.26,950.77,-0.20,102033.95,1467.82,-0.07,56688.68,2691.13,-0.02,23065.29,930.36,-0.07,7574.21
1424000,861.46,900.91,1.00,1,1,1,1774.05,-2.90,217821.82,1566.57,-2.89,116453.44,626.83,-0.10,39878.61,1562.30,-0.01,53502.09,1191.15,0.01,12951.08
1438000,844.55,896.18,1.00,1,1,1,1254.18,-2.87,37243.27,172.03,1.08,120603.73,347.52,-0.54,24674.59,818.12,-0.07,53324.10,992.09,-0.01,14290.83
1452600,863.79,905.24,1.00,1,1,1,1456.96,0.44,185049.65,2502.30,0.03,165769.04,510.11,3.11,56920.37,523.17,-0.19,20973.37,812.43,-0.02,12346.21
1466900,916.83,898.57,1.00,1,1,1,3737.75,-0.13,183635.39,989.31,-3.05,244079.67,33.11,0.32,37854.18,564.43,-2.99,74911.87,892.33,-0.01,5626.93
1488200,828.73,901.98,1.00,1,1,1,4139.21,3.10,369465.55,1968.26,-3.12,46177.95,405.37,-0.36,17851.94,63.21,0.49,29316.28,41.87,-2.60,43578.98
1502600,846.58,896.85,1.00,1,1,1,1289.91,-0.28,375044.87,2075.38,-0.10,280257.46,1253.41,-3.13,113716.33,91.17,2.74,9713.63,654.98,-3.13,42994.17
1517000,888.19,895.96,1.00,1,1,1,2890.50,-0.02,116387.30,660.51,3.12,189893.72,447.83,0.09,118073.18,291.06,-2.96,15300.16,743.69,-3.12,6174.06
1545600,818.19,897.58,1.00,1,1,1,2448.42,3.12,186675.58,317.80,2.65,14090.04,172.77,2.83,21357.46,553.79,3.10,9696.54,564.43,-2.99,6942.82
1581200,870.22,905.61,1.00,1,1,1,1478.77,0.15,109912.64,277.26,0.31,15406.26,747.18,3.13,16403.07,1432.96,-3.13,24737.32,63.21,0.49,17540.36
1595300,831.33,901.73,1.00,2,2,2,2771.77,-3.04,301357.87,1812.59,-2.98,148045.05,52.08,1.53,53209.20,1879.56,3.13,31858.27,91.17,2.74,9920.30
1610000,818.72,897.07,1.00,2,2,2,914.56,-2.79,129297.96,262.02,3.06,106086.74,3657.14,-3.12,249042.09,1750.90,3.11,8904.31,291.06,-2.96,14987.91
1644800,818.40,902.74,1.00,1,1,1,163.09,1.63,28014.78,4736.18,3.14,128588.87,3891.54,-3.14,7252.19,52.08,1.53,50353.91,553.79,3.10,7969.00
1659800,582.86,898.34,1.00,1,1,1,15705.34,-3.12,1046669.48,9983.17,-3.14,349825.01,2838.92,3.11,70527.94,3657.14,-3.12,244061.25,1432.96,-3.13,58709.91
1674300,523.89,901.58,1.00,1,1,1,4072.50,3.09,803290.22,275.31,2.44,674091.70,9983.17,-3.14,492876.78,3891.54,-3.14,17405.26,1879.56,3.13,30979.42
1695800,575.26,904.70,1.00,1,1,1,2393.28,0.06,300265.87,2393.28,0.06,120940.42,275.31,2.44,454619.98,2838.92,3.11,49205.54,1750.90,3.11,6088.06
