@RELATION gaze_labels

%@METADATA width_px 1920
%@METADATA height_px 1080
%@METADATA width_mm 540.00
%@METADATA height_mm 254.00
%@METADATA distance_mm 620.00


@ATTRIBUTE time INTEGER
@ATTRIBUTE x NUMERIC
@ATTRIBUTE y NUMERIC
@ATTRIBUTE confidence NUMERIC
@ATTRIBUTE handlabeller1 INTEGER
@ATTRIBUTE handlabeller2 INTEGER
@ATTRIBUTE handlabeller_final INTEGER
@ATTRIBUTE speed_1 numeric
@ATTRIBUTE direction_1 numeric
@ATTRIBUTE acceleration_1 numeric
@ATTRIBUTE speed_2 numeric
@ATTRIBUTE direction_2 numeric
@ATTRIBUTE acceleration_2 numeric
@ATTRIBUTE speed_4 numeric
@ATTRIBUTE direction_4 numeric
@ATTRIBUTE acceleration_4 numeric
@ATTRIBUTE speed_8 numeric
@ATTRIBUTE direction_8 numeric
@ATTRIBUTE acceleration_8 numeric
@ATTRIBUTE speed_16 numeric
@ATTRIBUTE direction_16 numeric
@ATTRIBUTE acceleration_16 numeric

%The number after speed, direction denotes the step size that was used for the calculation.
%Acceleration was calculated between two adjacent samples of the already low pass filtered velocity

@DATA
0,282.67,874.76,1.00,1,1,1,0.00,0.00,0.00,1138.57,-3.10,0.00,2110.77,-3.11,0.00,1330.82,3.11,0.00,60.46,0.34,0.00
21800,257.87,873.62,1.00,1,1,1,1138.57,-3.10,52227.90,2110.77,-3.11,44601.86,1991.43,0.08,188130.72,1113.17,0.00,112094.51,487.32,0.10,19669.24
36000,206.73,872.00,1.00,1,1,1,3603.43,-3.11,173594.23,1991.43,0.08,288820.41,1330.82,3.11,233627.28,199.11,-3.10,92406.20,643.29,0.10,10984.64
64900,343.43,880.43,1.00,1,1,1,4739.19,0.06,288640.57,785.42,2.99,95546.34,1113.17,0.00,84555.72,488.74,-3.08,10025.07,825.82,0.11,6329.74
86600,167.47,878.17,1.00,1,1,1,8109.60,-3.13,591946.67,195.10,-1.18,41607.59,199.11,-3.10,60468.57,60.46,0.34,25215.06,3368.75,0.01,117456.24
101100,346.15,873.90,1.00,1,1,1,12326.11,-0.02,1409132.29,848.17,-0.28,51161.61,488.74,-3.08,19981.01,487.32,0.10,29571.68,2283.57,0.01,74848.99
115400,190.93,871.38,1.00,1,1,1,10855.57,-3.13,1620770.80,1207.75,3.01,143371.35,2157.33,-0.00,184975.64,643.29,0.10,10907.83,3361.10,0.02,75391.15
129800,311.78,878.41,1.00,1,1,1,8406.24,0.06,1337337.75,3525.75,0.06,327553.55,314.57,2.80,170568.84,825.82,0.11,12703.43,2910.56,0.02,31301.91
143800,290.87,877.65,1.00,1,1,1,1494.62,-3.11,707182.78,445.48,0.14,220142.44,1493.96,0.09,127448.21,3368.75,0.01,182057.17,1372.69,-0.01,109920.52
164900,327.25,880.67,1.00,2,2,2,1730.25,0.08,152796.12,349.65,0.25,4940.83,1916.38,0.10,20049.68,2283.57,0.01,51436.51,1600.15,0.02,10956.91
194000,307.88,881.97,1.00,2,2,2,667.21,3.07,82200.42,3114.59,0.10,95166.42,4176.58,0.02,78135.41,3361.10,0.02,37047.88,1602.77,0.02,222.12
208000,460.83,893.97,1.00,1,1,1,10958.55,0.08,829936.09,9586.93,0.00,463783.14,4027.37,-0.01,13708.99,2910.56,0.02,32196.25,1476.57,0.01,9051.90
229600,649.17,883.53,1.00,1,1,1,8732.86,-0.06,119474.89,4819.65,-0.07,222082.88,5223.85,-0.00,55431.90,2425.09,-0.01,22878.39,1899.98,0.01,19604.09
259300,707.40,875.72,1.00,1,1,1,1978.26,-0.13,227689.33,1646.27,-0.04,106895.87,3686.55,-0.01,51774.11,2521.06,0.01,3713.50,1687.56,0.02,7159.97
273000,720.56,880.67,1.00,1,1,1,1026.25,0.36,86075.81,2548.22,0.11,69616.45,835.50,-0.15,208829.98,2561.18,-0.00,3575.24,1824.94,0.03,10138.69
309100,833.52,889.83,1.00,1,1,1,3139.24,0.08,60143.43,211.15,-0.94,67875.48,725.63,0.16,7199.21,2039.04,-0.03,14541.14,1444.48,0.01,10572.02
323600,726.86,872.04,1.00,2,2,2,7457.13,-2.98,730242.39,2407.90,-3.07,174192.39,81.65,3.06,55533.48,583.24,0.03,100483.13,1512.34,0.01,4690.16
338100,763.88,884.65,1.00,2,2,2,2696.98,0.33,698471.39,541.89,2.52,139439.58,490.92,-3.00,28390.15,1034.60,0.05,31158.98,1521.50,0.02,1708.30
352600,714.08,881.19,1.00,1,1,1,3442.65,-3.07,419934.00,1015.28,0.02,102497.45,318.28,0.75,53389.33,304.13,0.18,50615.00,1792.45,0.03,18686.83
375100,801.44,885.25,1.00,1,1,1,3886.81,0.05,325732.47,781.40,0.18,12185.72,1414.25,-0.01,53445.82,382.30,-3.04,30483.32,1670.82,0.01,5533.53
389100,742.16,886.21,1.00,1,1,1,4235.04,3.13,579848.84,1934.70,-0.03,84265.35,689.41,0.15,52975.99,376.54,0.19,54145.62,1495.68,0.11,16828.13
403500,856.37,883.87,1.00,1,1,1,7932.98,-0.02,844999.46,611.25,0.12,92577.21,291.26,-3.10,68016.23,323.98,0.17,3681.96,1736.74,0.09,16873.00
431800,768.07,889.39,1.00,1,1,1,3126.41,3.08,390721.44,1565.09,3.14,76775.23,486.21,-0.10,27407.36,949.07,0.11,22121.39,1692.48,0.09,1571.51
453100,778.74,884.32,1.00,2,2,2,554.84,-0.44,171239.77,389.53,-0.53,89752.79,601.26,2.95,51008.15,1243.40,0.08,13898.54,1086.54,0.03,28737.27
467200,779.94,882.38,1.00,2,2,2,162.12,-1.02,30374.79,1107.49,0.26,62399.71,1268.56,0.08,131557.06,2517.58,0.13,90590.58,1579.83,0.07,35199.85
482200,809.88,892.66,1.00,2,2,2,2110.23,0.33,138731.73,2436.66,0.20,88903.28,3101.90,0.08,122225.42,2448.78,0.11,6087.56,1360.55,0.02,15322.58
496400,849.73,896.21,1.00,2,2,2,2817.82,0.09,64798.67,4764.54,0.04,168065.16,4987.34,0.16,134723.39,3408.64,0.08,67845.26,1529.11,0.02,11879.97
517500,977.92,899.60,1.00,1,1,1,6077.50,0.03,154974.50,7087.12,0.15,113962.70,6188.83,0.07,61294.97,2727.71,0.04,32837.32,1455.60,0.04,3632.85
531900,1098.55,933.44,1.00,1,1,1,8700.68,0.27,220627.04,7964.26,0.10,66762.32,5568.80,0.08,43110.92,2917.88,0.05,13418.38,1546.68,0.06,6675.52
545900,1203.06,921.30,1.00,1,1,1,7515.01,-0.12,238836.63,3751.42,-0.09,309412.94,2359.13,-0.01,230521.28,2407.18,-0.00,37668.12,936.63,0.19,45070.01
560400,1205.05,923.98,1.00,1,1,1,229.92,0.93,510535.39,2140.48,-2.83,398659.30,1036.80,-0.51,105145.50,2115.00,-0.01,20255.51,1462.45,0.23,36398.09
581900,1129.83,897.32,1.00,1,1,1,3711.76,-2.80,181616.97,1459.48,-2.69,33523.78,705.89,-2.60,70686.43,1667.17,0.01,20919.20,1053.40,0.30,19414.45
596700,1157.35,900.93,1.00,1,1,1,1875.18,0.13,375637.46,583.86,-0.19,132348.11,762.73,-2.59,3915.47,694.61,-0.18,67093.74,1330.38,0.33,18854.09
625500,1154.82,892.49,1.00,1,1,1,305.92,-1.86,70123.93,224.41,-1.99,23289.52,1109.48,0.05,63016.58,451.79,2.90,39788.40,1172.89,0.36,5605.01
640000,1153.41,892.04,1.00,1,1,1,101.89,-2.84,18113.32,1772.42,0.14,131116.16,546.44,0.26,40443.20,404.10,1.84,30108.71,858.35,0.39,21809.29
661600,1218.15,901.63,1.00,4,4,4,3029.76,0.15,144926.73,1152.55,0.39,33051.19,637.37,2.01,42171.89,617.41,2.25,13645.58,1108.23,0.29,12460.83
689900,1206.57,914.01,1.00,4,4,4,598.94,2.32,120366.29,2139.07,2.73,108009.64,1185.19,1.23,30275.44,667.13,1.70,12326.35,1178.45,0.17,5144.31
704800,1133.29,938.22,1.00,4,4,4,5179.21,2.82,312900.88,2112.56,1.82,125576.62,2099.59,2.69,153933.19,840.54,1.81,12795.54,930.66,0.19,16657.94
726400,1187.31,988.67,1.00,4,4,4,3421.99,0.75,345021.93,2057.19,2.64,76804.79,1697.80,2.17,48634.82,854.06,2.22,16148.81,639.83,0.12,13655.93
740800,1068.31,973.75,1.00,4,4,4,8328.22,-3.02,783339.37,1615.77,2.77,34446.21,1114.53,1.67,62461.56,765.55,0.92,68228.22,819.40,0.09,12568.43
755700,1143.28,1006.07,1.00,4,4,4,5478.70,0.41,917819.69,2351.88,0.57,238369.54,1876.80,3.13,139170.31,1839.15,0.33,85688.36,723.12,0.07,6626.22
769900,1126.10,1010.41,1.00,4,4,4,1247.66,2.89,458633.90,2326.88,-2.90,325225.48,3319.95,0.07,365649.17,2421.38,0.10,53357.33,844.05,0.08,8549.65
784400,1078.46,989.98,1.00,4,4,4,3575.08,-2.74,185741.23,4408.69,-0.13,457312.37,4488.32,-0.05,86812.39,1515.60,-0.18,73046.19,789.01,0.05,4233.71
806200,1284.83,990.00,1.00,4,4,4,9466.43,0.00,588519.16,9858.47,0.01,253307.09,4513.10,-0.10,11567.81,2170.10,-0.17,30045.26,551.32,-0.03,11110.84
820400,1433.36,992.57,1.00,4,4,4,10461.24,0.02,71085.39,4604.53,-0.08,372373.44,3790.96,-0.13,51365.77,1732.64,-0.37,41269.53,1839.15,0.33,94151.75
848700,1479.88,974.11,1.00,1,1,1,1768.46,-0.38,312903.29,1080.79,-2.19,185288.50,1462.47,-0.64,92616.05,2000.37,-0.35,9587.97,2421.38,0.10,26772.94
870400,1401.85,948.66,1.00,1,1,1,3781.87,-2.83,242627.08,3160.35,-2.66,103624.20,1208.20,-2.21,87095.33,2184.39,-0.28,10616.59,1515.60,-0.18,48809.66
885300,1377.35,920.56,1.00,1,1,1,2502.35,-2.29,139399.63,1423.82,-2.23,131761.31,1564.43,-2.49,35363.64,907.16,-0.79,97786.10,2170.10,-0.17,43958.84
900000,1376.21,915.22,1.00,1,1,1,371.54,-1.78,148628.54,769.15,-0.40,120933.88,874.39,-2.00,60896.93,1208.20,-2.21,95176.73,1732.64,-0.37,39865.80
914500,1398.00,911.72,1.00,1,1,1,1522.04,-0.16,109332.07,477.15,-1.23,38954.90,353.07,-1.58,39361.13,1564.43,-2.49,36339.19,2000.37,-0.35,18713.07
928500,1380.81,902.42,1.00,1,1,1,1395.81,-2.65,197359.80,703.10,-2.55,53262.44,477.15,-1.23,13546.70,874.39,-2.00,63941.78,2184.39,-0.28,16455.71
950200,1377.21,897.64,1.00,1,1,1,275.53,-2.22,53044.94,275.53,-2.22,20801.94,703.10,-2.55,34362.86,353.07,-1.58,26301.22,907.16,-0.79,67143.45
