@RELATION gaze_labels

%@METADATA width_px 1920
%@METADATA height_px 1080
%@METADATA width_mm 540.00
%@METADATA height_mm 254.00
%@METADATA distance_mm 620.00


@ATTRIBUTE time INTEGER
@ATTRIBUTE x NUMERIC
@ATTRIBUTE y NUMERIC
@ATTRIBUTE confidence NUMERIC
@ATTRIBUTE handlabeller1 INTEGER
@ATTRIBUTE handlabeller2 INTEGER
@ATTRIBUTE handlabeller_final INTEGER
@ATTRIBUTE speed_1 numeric
@ATTRIBUTE direction_1 numeric
@ATTRIBUTE acceleration_1 numeric
@ATTRIBUTE speed_2 numeric
@ATTRIBUTE direction_2 numeric
@ATTRIBUTE acceleration_2 numeric
@ATTRIBUTE speed_4 numeric
@ATTRIBUTE direction_4 numeric
@ATTRIBUTE acceleration_4 numeric
@ATTRIBUTE speed_8 numeric
@ATTRIBUTE direction_8 numeric
@ATTRIBUTE acceleration_8 numeric
@ATTRIBUTE speed_16 numeric
@ATTRIBUTE direction_16 numeric
@ATTRIBUTE acceleration_16 numeric

%The number after speed, direction denotes the step size that was used for the calculation.
%Acceleration was calculated between two adjacent samples of the already low pass filtered velocity

@DATA
0,197.47,531.08,1.00,1,1,1,0.00,0.00,0.00,375.78,0.40,0.00,604.37,0.65,0.00,934.54,1.18,0.00,284.00,1.20,0.00
14500,202.50,533.18,1.00,1,1,1,375.78,0.40,25915.97,604.37,0.65,17855.83,275.98,-0.84,44448.38,174.48,1.42,52853.65,303.40,1.62,8542.63
36500,215.02,544.45,1.00,1,1,1,765.66,0.73,19525.20,275.98,-0.84,29295.53,934.54,1.18,49234.12,421.79,2.04,13511.06,353.84,-2.89,23221.85
51000,209.21,525.66,1.00,1,1,1,1355.83,-1.87,141462.28,1508.91,1.44,117327.88,174.48,1.42,52853.65,231.97,0.49,32941.64,93.67,0.49,30719.87
65200,220.80,587.37,1.00,1,1,1,4421.10,1.39,406351.21,674.94,1.83,65024.17,421.79,2.04,20932.63,284.00,1.20,13158.32,535.56,-1.75,42120.00
79800,204.19,544.44,1.00,1,1,1,3152.34,-1.94,516606.99,947.88,-2.23,99823.22,231.97,0.49,32716.01,303.40,1.62,8484.12,164.71,-1.45,26084.67
93800,204.10,566.01,1.00,1,1,1,1540.59,1.58,330075.94,618.23,-0.58,83876.35,373.98,-2.00,41107.56,353.84,-2.89,36491.47,313.61,-0.83,14565.59
114800,222.29,532.59,1.00,1,1,1,1812.04,-1.07,154830.68,186.80,-0.09,22004.38,439.87,1.70,37262.23,93.67,0.49,21211.34,700.98,0.41,31826.54
129700,210.78,565.42,1.00,1,1,1,2335.20,1.91,277448.13,1563.14,2.07,112352.45,695.29,-2.33,69188.61,535.56,-1.75,40141.21,338.49,0.03,27284.69
143800,200.53,572.36,1.00,1,1,1,877.48,2.55,121464.67,1734.46,-2.44,181586.38,43.36,-2.68,46433.42,164.71,-1.45,27009.66,831.87,0.06,35010.36
158000,173.42,533.59,1.00,1,1,1,3331.50,-2.18,241679.40,1280.07,-1.13,131315.75,683.99,-1.63,46710.77,313.61,-0.83,14360.44,535.43,0.14,21247.87
179200,219.80,531.34,1.00,1,1,1,2190.18,-0.05,229492.20,812.61,-0.56,35080.63,656.97,-1.45,6012.76,700.98,0.41,31526.29,665.74,0.05,6658.35
207400,207.50,512.38,1.00,2,2,2,801.36,-2.15,95178.03,380.27,-2.47,35681.07,727.28,-0.04,31849.41,569.75,-0.36,17453.72,297.12,-0.41,14909.67
222400,206.94,521.12,1.00,2,2,2,583.70,1.64,87772.71,933.08,0.59,87492.36,1214.71,0.41,42773.56,1502.96,-0.10,64247.94,491.81,0.17,19416.17
243900,235.85,531.26,1.00,3,3,3,1424.99,0.34,64498.59,2580.27,0.44,77317.62,1129.78,0.24,9964.26,1191.38,0.17,22064.25,497.49,-0.24,9450.43
272500,323.73,576.54,1.00,1,1,1,3456.58,0.48,71842.20,1371.22,0.04,49654.00,2807.96,0.11,59245.71,1139.99,0.02,6127.35,505.88,-0.00,4253.89
286700,294.48,533.86,1.00,1,1,1,3643.45,-2.17,484826.61,3529.49,-0.23,157822.42,1723.68,0.26,79900.71,700.48,0.43,39912.11,745.93,-0.16,18205.18
308200,446.39,547.72,1.00,1,1,1,7094.86,0.09,457116.87,2214.03,0.42,103625.81,1339.48,-0.50,55389.10,979.64,0.33,13528.79,607.91,-0.05,7331.50
322400,366.52,566.39,1.00,1,1,1,5776.30,2.91,894922.29,1735.30,-2.89,277059.88,321.49,1.37,103150.64,767.66,-0.01,25204.91,848.23,0.06,17753.17
336400,398.95,535.71,1.00,1,1,1,3189.00,-0.76,620066.48,2464.29,-2.96,52980.48,1593.12,2.94,116088.16,481.93,-0.79,39125.03,323.92,0.18,37731.56
350400,298.66,553.91,1.00,1,1,1,7280.99,2.96,721655.15,1724.41,2.58,118718.21,644.63,-2.10,108168.06,984.88,-0.02,51776.93,418.61,0.51,10983.87
372500,346.10,568.61,1.00,1,1,1,2247.55,0.30,422286.96,1439.70,-0.46,143008.18,490.14,-3.03,23843.08,608.24,2.91,71708.38,928.12,0.09,25905.77
386700,345.47,530.68,1.00,1,1,1,2671.12,-1.59,281067.73,1455.96,-1.04,58593.42,1916.15,-0.18,168322.67,448.77,-0.31,74370.18,575.28,0.01,25245.23
401400,367.28,532.25,1.00,1,1,1,1487.48,0.07,215640.44,2639.49,0.01,156785.72,496.20,-0.15,96618.04,693.70,3.00,77442.02,2149.18,-0.13,107567.93
415400,421.22,531.74,1.00,1,1,1,3852.75,-0.01,169513.70,1155.66,1.36,187940.74,1216.03,0.23,55507.10,127.93,1.06,53505.29,2376.79,-0.05,21198.08
429900,374.28,564.43,1.00,1,1,1,3944.81,2.53,513829.63,476.44,1.56,48026.22,926.31,2.87,143111.05,939.36,-0.20,62678.41,2044.62,-0.11,24539.00
450800,421.33,548.61,1.00,1,1,1,2375.15,-0.32,299537.39,1878.47,-2.89,98177.89,1878.99,2.83,45633.81,360.48,0.03,28416.54,2171.51,-0.15,7368.33
464800,310.76,548.20,1.00,1,1,1,7897.80,-3.14,726790.93,4068.15,2.97,176804.23,1299.35,-0.22,226782.11,3940.53,-0.06,255822.09,1924.91,0.01,29183.95
479400,306.67,568.34,1.00,2,2,2,1407.79,1.77,530578.57,4273.72,-0.02,569794.71,535.40,-2.63,119001.85,3773.64,-0.06,11431.15,2263.93,-0.17,34530.23
500700,464.15,544.78,1.00,2,2,2,7475.86,-0.15,378711.85,2629.42,-0.40,97620.02,8690.17,-0.08,429153.23,4437.85,-0.12,33579.00,1838.40,-0.16,20004.45
514500,391.52,532.04,1.00,3,3,3,5343.42,-2.97,917241.64,14207.16,-0.10,849622.53,9351.93,-0.11,51096.63,3735.48,-0.13,50955.11,1757.67,-0.03,17257.79
529500,871.26,503.85,1.00,1,1,1,32038.05,-0.06,2483878.31,17596.84,-0.05,231355.41,7922.85,-0.10,95282.49,4284.78,-0.01,48473.41,2036.49,-0.07,19221.04
543700,904.62,504.73,1.00,1,1,1,2350.02,0.03,2091355.02,2766.82,-0.12,1044842.98,7129.47,-0.09,56165.75,4020.81,-0.19,55832.51,1681.63,-0.04,25248.45
564600,967.71,492.48,1.00,1,1,1,3075.03,-0.19,44602.22,1001.73,-0.52,90197.87,797.45,0.67,314674.61,2578.17,-0.14,69411.45,1932.03,-0.16,15823.42
592800,947.36,480.40,1.00,1,1,1,839.17,-2.61,132747.51,1636.12,2.34,92650.92,770.40,-0.92,39634.71,2898.50,-0.04,15287.67,1637.08,-0.09,11374.96
606900,919.60,542.23,1.00,1,1,1,4807.14,1.99,352686.44,728.39,-1.47,159844.30,1146.27,-3.10,121128.65,540.19,-0.15,167541.76,2215.62,-0.11,41108.84
642600,951.03,444.31,1.00,1,1,1,2880.75,-1.26,215034.01,1590.84,-2.38,35874.85,1379.41,2.81,14649.03,53.73,0.81,14322.30,1949.69,-0.13,7516.36
656700,862.25,487.57,1.00,1,1,1,7004.18,2.69,654929.67,4471.83,2.55,312602.64,752.16,-0.93,145077.10,272.15,-2.68,22912.82,1582.42,-0.11,26162.03
671100,845.11,515.18,1.00,1,1,1,2257.16,2.13,363474.30,2698.22,0.03,475340.08,1217.67,2.11,136627.17,474.13,2.75,24911.20,1983.20,-0.06,28511.25
692300,958.25,490.93,1.00,1,1,1,5458.08,-0.21,340081.44,1844.25,-0.06,41560.32,1066.53,-0.20,98799.17,461.82,-1.28,39856.91,209.88,0.05,83713.51
706700,910.64,511.10,1.00,1,1,1,3590.86,2.74,625699.91,1164.48,-2.60,199985.18,637.52,-0.22,29807.47,743.82,2.57,78838.06,150.19,-1.97,21328.42
721100,929.51,473.64,1.00,1,1,1,2912.48,-1.10,424291.48,916.32,-2.95,30567.42,402.88,-2.60,67328.20,392.32,0.18,73926.64,376.85,-0.25,29630.64
735200,884.98,506.22,1.00,1,1,1,3913.20,2.51,470945.19,361.36,0.54,89480.49,660.06,-2.79,19458.47,872.18,-0.14,36450.01,1079.52,0.12,52470.17
749800,938.41,478.97,1.00,1,1,1,4107.78,-0.47,547626.22,482.71,-2.53,57775.58,449.26,2.23,46571.51,259.52,2.61,76461.67,1386.81,-0.14,29845.98
771100,870.80,496.26,1.00,1,1,1,3275.98,2.89,344562.19,894.77,2.56,39780.95,1108.80,-0.09,68169.15,403.74,-2.03,23238.21,1416.95,0.14,18471.03
785300,911.91,496.49,1.00,1,1,1,2894.85,0.01,431024.89,2988.54,0.04,264150.25,449.13,1.83,93787.12,1102.79,-0.05,92690.68,1802.29,0.02,30694.54
799700,956.20,499.74,1.00,2,2,2,3084.32,0.07,19227.71,749.47,0.50,162616.21,554.21,-1.09,69262.28,2729.74,0.02,113365.68,1699.91,-0.05,10691.93
814300,930.95,506.97,1.00,2,2,2,1799.01,2.86,329669.24,2131.46,-2.67,197309.70,2495.26,-0.19,150395.29,2740.07,0.03,1888.90,1056.71,-0.00,44270.68
836000,887.40,464.35,1.00,2,2,2,2808.05,-2.37,114033.87,4040.97,-0.28,266293.45,4339.82,0.05,92472.03,3517.60,-0.00,36171.63,1398.48,0.00,15750.71
850700,1072.23,466.01,1.00,3,3,3,12573.82,0.01,1001873.80,12254.61,0.14,594007.14,5550.25,-0.04,88494.60,3208.10,-0.00,21055.78,1230.94,0.11,14673.52
865000,1239.20,514.69,1.00,1,1,1,12162.54,0.28,238555.47,7665.88,0.11,321580.03,7175.17,0.08,125241.67,2524.61,-0.02,47897.97,1411.79,-0.04,18286.48
879900,1294.69,490.83,1.00,1,1,1,4054.17,-0.41,630650.86,2306.90,-0.29,376528.80,4006.64,0.12,213138.12,2147.58,-0.05,25885.27,1281.11,-0.04,8772.04
894200,1303.82,495.67,1.00,1,1,1,722.51,0.49,254923.26,945.43,0.14,104827.41,764.19,-0.44,236369.49,2839.83,0.12,56570.86,1430.97,-0.07,10801.93
914800,1327.36,495.49,1.00,1,1,1,1142.64,-0.01,29731.73,568.27,-3.05,73459.97,715.12,-3.14,70072.68,1368.21,0.22,72127.44,1311.35,-0.01,6787.93
929500,1283.85,493.81,1.00,1,1,1,2962.14,-3.10,279177.05,2055.16,-3.09,101187.48,233.40,2.20,41440.57,362.26,-0.43,74974.71,1057.84,-0.03,17293.65
957900,1238.91,490.63,1.00,1,1,1,1586.10,-3.07,48514.24,396.21,1.14,79852.34,815.74,2.93,23279.64,205.50,-0.92,7221.04,1209.37,0.02,5662.92
979500,1292.14,511.80,1.00,1,1,1,2652.15,0.38,194043.14,853.35,0.63,25068.69,85.68,-0.39,41677.59,219.10,-2.29,12424.42,1448.23,0.25,18132.19
994300,1263.94,509.03,1.00,1,1,1,1915.10,-3.04,305641.27,481.10,-1.61,81998.11,936.76,-0.34,57512.53,248.08,-3.03,11561.16,645.77,1.78,105237.24
1023200,1291.29,490.79,1.00,4,4,4,1137.51,-0.59,99885.71,1369.42,-0.72,39110.84,571.24,-1.84,36801.05,154.55,-3.00,3240.73,3007.01,2.35,86142.70
1044100,1315.14,463.99,1.00,4,4,4,1716.83,-0.84,32531.26,713.55,-2.03,65619.64,389.47,-0.63,27034.67,348.46,0.44,23831.36,3634.07,2.21,37468.67
1057900,1280.27,468.61,1.00,4,4,4,2548.67,3.01,290493.50,1336.46,2.35,123743.54,495.58,-3.13,60887.64,392.45,1.62,29896.35,3095.54,2.38,57899.62
1072500,1288.49,491.01,1.00,4,4,4,1634.15,1.22,226970.54,1036.53,2.32,20637.04,889.65,2.10,52935.61,1873.45,2.60,115554.38,2807.91,2.52,34441.86
1086800,1259.77,490.45,1.00,4,4,4,2008.90,-3.12,210805.57,621.74,1.67,46153.98,1539.28,1.48,67810.32,7137.53,2.37,372678.16,1249.98,2.27,113818.12
1108100,1286.21,513.03,1.00,4,4,4,1632.52,0.71,161078.31,2311.52,1.20,83536.56,4606.79,2.59,195322.77,8814.47,2.21,99538.00,751.31,2.27,23412.58
1122700,1289.48,567.93,1.00,4,4,4,3767.17,1.51,197666.52,9798.18,2.65,670264.07,13822.23,2.35,644988.79,7040.85,2.34,141978.67,468.34,1.74,28747.19
1137200,1034.61,647.16,1.00,4,4,4,18407.18,2.84,1233281.47,30025.81,2.43,1418398.55,17610.23,2.21,297850.90,6025.94,2.49,95801.27,401.29,1.81,5071.93
1151400,634.32,1127.72,1.00,4,4,4,44044.60,2.27,2133619.03,26835.43,2.06,785902.58,13193.95,2.43,390398.39,2686.27,2.21,247955.37,640.38,0.89,35738.79
1165800,676.98,1326.24,1.00,4,4,4,14100.62,1.36,2572879.53,413.95,-0.68,1890005.18,7498.46,2.43,395543.48,1777.07,2.49,75977.04,695.65,1.10,10227.60
1186900,645.76,1118.49,1.00,4,4,4,9956.45,-1.72,1139605.74,10308.51,-1.58,476697.58,8686.76,-0.71,767071.39,558.35,1.83,65329.68,500.65,1.38,12133.11
1201200,671.86,961.35,1.00,4,4,4,11139.15,-1.41,244535.04,19101.39,-0.71,1032793.22,11302.91,-1.01,273915.64,1607.64,-0.16,133191.66,606.61,0.81,22798.96
1215100,1053.65,766.67,1.00,4,4,4,30831.88,-0.47,1857461.35,15083.14,-0.62,309182.03,12210.44,-0.66,301608.67,7122.47,-0.59,410274.21,532.88,1.20,16750.09
1236500,1104.61,651.17,1.00,4,4,4,5899.19,-1.16,1239337.47,6944.03,-0.54,382498.34,10327.48,-0.55,104337.44,7851.63,-0.78,74049.98,627.25,0.43,20887.16
1251500,1270.85,637.39,1.00,4,4,4,11120.89,-0.08,652447.87,4778.11,-0.27,177871.10,5738.04,-0.41,314228.10,6537.20,-0.67,101518.14,402.33,0.30,15638.39
1265500,1238.31,614.80,1.00,4,4,4,2829.29,-2.53,958923.01,4408.03,-0.15,46462.99,5059.10,-0.11,124266.26,5688.81,-0.45,114255.15,1192.79,-0.34,64478.54
1279800,1394.21,618.88,1.00,4,4,4,10905.98,0.03,934397.35,5452.99,0.03,94524.13,842.00,-0.89,314811.03,2059.07,-0.50,254146.54,2866.19,-0.75,127936.43
1294100,1394.21,618.88,1.00,4,4,4,0.00,0.00,762656.20,2587.27,-2.88,558982.52,2091.48,-0.03,117150.98,2224.93,-0.18,48995.92,2753.54,-1.14,77956.14
1315600,1304.64,595.31,1.00,4,4,4,4308.11,-2.88,200377.11,223.34,-0.86,125214.34,1062.46,3.06,146651.34,850.15,-0.27,64199.04,2251.41,-1.13,23406.06
1343500,1401.39,610.50,1.00,1,1,1,3510.28,0.16,279871.33,728.18,1.35,31532.10,632.92,-0.52,59414.74,909.70,-0.61,10898.38,1856.88,-1.04,15718.03
1357900,1311.49,625.34,1.00,1,1,1,6327.72,2.98,675221.46,1049.29,-0.44,97333.72,1022.58,0.07,41917.49,1037.03,-2.84,121453.77,933.46,-1.90,100170.10
1394000,1449.24,587.74,1.00,2,2,2,3955.50,-0.27,284496.82,1800.25,-0.26,21901.93,1141.15,-2.10,53023.64,2301.13,-3.06,36254.21,730.60,-2.51,14645.56
1408500,1399.43,601.59,1.00,2,2,2,3565.62,2.87,518696.52,3779.57,-2.61,358700.02,1150.33,-2.50,31418.24,2446.67,-2.98,16509.04,1208.34,-2.72,35774.58
1422800,1355.41,532.56,1.00,2,2,2,5725.11,-2.14,405133.18,5606.58,-2.95,168348.65,6586.79,3.14,398974.20,3251.31,-2.91,58010.31,1033.44,-2.78,13207.56
1437900,1237.54,570.55,1.00,1,1,1,8201.45,2.83,578400.17,9272.07,2.98,294694.13,7354.62,-3.00,83228.39,2505.96,-2.83,51838.88,1644.48,-2.91,41808.07
1460200,1013.20,588.61,1.00,1,1,1,10092.92,3.06,126803.21,8782.38,-3.03,114407.60,6316.02,-3.07,51122.97,3973.39,-3.02,71368.81,1976.13,-3.03,17939.87
1474100,921.76,533.75,1.00,1,1,1,7671.27,-2.60,424068.05,3949.72,-2.25,471872.04,4265.82,-2.93,156163.05,3524.80,-2.91,44585.49,1201.34,-2.86,58727.38
1488200,943.42,502.81,1.00,1,1,1,2678.70,-0.96,588745.72,1673.93,-0.45,328617.65,1556.00,-2.46,209996.48,3046.60,-3.09,53636.78,1701.85,-2.93,36156.67
1503100,965.50,512.69,1.00,1,1,1,1623.57,0.42,191838.45,685.88,1.89,148169.77,783.66,-0.86,118670.47,2390.60,-2.94,51461.32,1538.20,-2.82,16068.24
1524200,935.58,526.22,1.00,0,0,0,1556.31,2.72,137442.48,571.59,-2.14,53801.51,290.24,0.45,36123.96,1540.64,-2.97,40350.05,2097.64,-2.95,28761.06
1538200,954.67,495.80,1.00,0,0,0,2565.45,-1.01,282647.43,1016.99,-0.55,83947.89,487.49,-3.01,54882.66,456.56,-0.60,135194.72,1650.37,-2.86,34527.93
1552700,960.25,511.01,1.00,0,0,0,1117.03,1.22,232218.97,821.29,2.58,126775.46,1915.26,2.88,101897.68,73.56,1.70,35069.80,1469.46,-3.08,27317.05
1567300,934.47,508.58,1.00,0,0,0,1773.22,-3.05,169154.34,4659.93,2.82,264886.70,250.89,0.25,146386.12,460.75,-2.80,33010.62,2390.60,-2.94,65680.07
1582800,827.24,555.52,1.00,0,0,0,7552.53,2.73,391194.33,1001.42,-0.23,365035.69,271.13,3.07,33231.77,312.93,-1.79,25457.96,1540.64,-2.97,54928.13
1604600,970.81,499.93,1.00,0,0,0,7062.55,-0.37,670260.01,3355.37,-0.36,108492.03,455.94,-2.58,13170.39,280.00,-0.43,17153.36,456.56,-0.60,86822.30
1619400,942.22,512.39,1.00,0,0,0,2107.46,2.73,619501.63,2157.72,-3.02,362448.59,1859.67,-0.59,141069.51,108.66,-0.08,12302.77,73.56,1.70,34358.93
1633500,908.89,492.56,1.00,0,0,0,2750.12,-2.60,162314.87,1007.08,-2.14,121025.32,404.00,-0.85,104489.95,455.94,-2.58,38799.85,460.75,-2.80,34181.21
1647400,927.02,488.63,1.00,0,0,0,1334.74,-0.21,275980.01,2280.29,-0.15,204425.73,509.49,-0.08,25847.23,1859.67,-0.59,150203.51,312.93,-1.79,28388.37
1668500,987.78,480.48,1.00,0,0,0,2905.35,-0.13,74809.96,1473.31,0.42,62343.88,2280.29,-0.15,84011.32,404.00,-0.85,69825.04,280.00,-0.43,17722.43
1682600,974.32,509.90,1.00,0,0,0,2295.00,2.00,323604.98,2295.00,2.00,193979.12,1473.31,0.42,93294.75,509.49,-0.08,25480.60,108.66,-0.08,12913.54
