@RELATION gaze_labels

%@METADATA width_px 1920
%@METADATA height_px 1080
%@METADATA width_mm 540.00
%@METADATA height_mm 254.00
%@METADATA distance_mm 620.00


@ATTRIBUTE time INTEGER
@ATTRIBUTE x NUMERIC
@ATTRIBUTE y NUMERIC
@ATTRIBUTE confidence NUMERIC
@ATTRIBUTE handlabeller1 INTEGER
@ATTRIBUTE handlabeller2 INTEGER
@ATTRIBUTE handlabeller_final INTEGER
@ATTRIBUTE speed_1 numeric
@ATTRIBUTE direction_1 numeric
@ATTRIBUTE acceleration_1 numeric
@ATTRIBUTE speed_2 numeric
@ATTRIBUTE direction_2 numeric
@ATTRIBUTE acceleration_2 numeric
@ATTRIBUTE speed_4 numeric
@ATTRIBUTE direction_4 numeric
@ATTRIBUTE acceleration_4 numeric
@ATTRIBUTE speed_8 numeric
@ATTRIBUTE direction_8 numeric
@ATTRIBUTE acceleration_8 numeric
@ATTRIBUTE speed_16 numeric
@ATTRIBUTE direction_16 numeric
@ATTRIBUTE acceleration_16 numeric

%The number after speed, direction denotes the step size that was used for the calculation.
%Acceleration was calculated between two adjacent samples of the already low pass filtered velocity

@DATA
0,235.90,583.49,1.00,1,1,1,0.00,0.00,0.00,3828.40,-1.85,0.00,2013.10,-1.73,0.00,1006.35,-1.56,0.00,550.25,-1.63,0.00
15300,219.55,527.24,1.00,1,1,1,3828.40,-1.85,250222.38,2013.10,-1.73,120692.76,715.59,0.66,168775.36,453.18,0.39,81380.76,284.54,1.28,54227.25
29600,226.35,524.67,1.00,1,1,1,508.75,-0.36,267295.90,715.59,0.66,180577.83,1006.35,-1.56,108047.66,486.68,1.21,26363.57,154.35,-0.27,22455.08
44900,236.31,540.19,1.00,1,1,1,1205.17,1.00,78879.98,358.58,-0.03,32359.31,453.18,0.39,81380.76,162.29,-2.44,41398.87,37.51,-1.46,9464.38
58800,236.82,524.32,1.00,1,1,1,1142.02,-1.54,161265.34,286.36,-0.38,9440.74,486.68,1.21,27122.24,550.25,-1.63,32678.15,288.56,1.41,23371.66
73300,243.88,537.19,1.00,1,1,1,1012.44,1.07,143352.53,833.84,1.55,66945.06,162.29,-2.44,43682.94,284.54,1.28,57219.10,261.91,-2.03,37550.98
94900,237.55,554.41,1.00,1,1,1,849.37,1.92,36342.09,445.72,-2.90,48237.41,152.45,-2.06,2747.20,154.35,-0.27,14866.09,177.62,-1.88,4165.86
109100,228.36,533.45,1.00,1,1,1,1611.52,-1.98,162016.90,1368.97,-1.71,89790.29,426.73,2.12,36642.06,37.51,-1.46,10197.53,120.35,-1.24,7630.40
123500,232.14,515.64,1.00,1,1,1,1264.85,-1.36,65274.36,948.52,1.53,160752.26,556.82,-1.34,67432.92,288.56,1.41,22560.14,303.71,-1.83,14873.01
137800,229.48,560.65,1.00,1,1,1,3153.56,1.63,308270.74,388.96,0.27,63645.55,134.42,0.22,40021.10,261.91,-2.03,38076.16,96.81,-1.15,16521.40
159600,245.69,519.32,1.00,1,1,1,2036.64,-1.20,235277.87,733.06,-1.29,37789.47,647.00,1.34,27557.73,177.62,-1.88,4127.64,55.73,1.84,6979.20
173700,236.83,535.38,1.00,1,1,1,1301.12,2.07,236241.90,1082.62,1.62,127910.03,686.18,-1.62,94190.26,120.35,-1.24,7684.51,162.84,-2.50,13486.52
201900,243.54,565.06,1.00,1,1,1,1079.05,1.35,30875.71,703.44,-1.87,62422.72,203.30,2.67,28058.26,148.35,-2.46,5513.98,188.66,-2.49,922.26
223500,226.45,501.93,1.00,1,1,1,3028.25,-1.84,190120.12,797.51,-1.94,5029.18,215.51,-1.69,15909.22,356.59,-1.55,13468.08,40.60,-1.38,8072.61
252000,228.96,527.86,1.00,1,1,1,914.32,1.47,137989.28,365.74,1.04,40704.08,889.67,-2.00,24136.59,199.01,2.42,17998.74,797.95,-0.10,27623.96
266600,234.46,515.50,1.00,1,1,1,926.36,-1.15,121918.10,1052.71,-2.08,97148.80,55.48,-0.03,62524.96,281.21,-2.60,19987.15,1348.26,0.01,38437.73
281300,213.93,500.93,1.00,1,1,1,1712.57,-2.52,120994.54,390.44,-1.83,46365.87,214.02,2.08,16811.69,617.44,-2.16,25934.90,1217.13,-0.02,9271.00
302900,230.85,501.80,1.00,1,1,1,784.47,0.05,111649.03,1097.69,1.37,68876.78,548.88,-3.05,23182.03,212.43,0.87,38379.54,1297.66,-0.04,3852.98
317800,222.09,540.15,1.00,2,2,2,2640.66,1.80,193388.73,1165.58,2.82,101205.01,344.31,-2.69,17245.08,1819.34,0.02,113267.32,991.96,-0.07,20685.14
331900,198.75,512.38,1.00,2,2,2,2572.88,-2.27,331042.12,2007.22,-2.09,149322.23,432.86,1.00,53078.82,2936.81,0.06,79494.28,1295.18,-0.08,21506.73
345900,193.87,491.32,1.00,2,2,2,1544.36,-1.80,99077.26,1362.45,0.27,223397.42,3789.54,-0.03,256128.08,2844.66,0.02,9779.05,1670.72,-0.12,27316.76
368000,246.17,525.45,1.00,3,3,3,2825.75,0.58,184728.32,7590.67,0.15,282362.11,6443.73,0.06,121825.83,3053.87,0.12,16335.54,1724.63,-0.01,9340.30
382100,465.62,532.02,1.00,1,1,1,15571.15,0.03,939137.08,12855.78,0.03,382509.08,6004.47,0.04,31763.28,2410.41,-0.13,66729.72,1398.24,-0.08,24330.57
396800,616.24,536.65,1.00,1,1,1,10251.24,0.03,361899.33,4160.22,-0.20,602607.43,6209.07,0.06,15329.92,3176.62,-0.01,56905.88,1278.31,-0.13,9782.10
410500,581.38,508.39,1.00,1,1,1,3275.67,-2.46,949637.79,591.19,2.51,343347.24,1118.33,-0.48,385402.05,3888.68,0.03,53297.73,1095.31,-0.06,14890.73
425500,602.56,546.68,1.00,1,1,1,2916.88,1.07,405259.67,1464.04,-2.96,76148.41,480.17,-1.87,75699.65,3621.63,-0.06,29635.60,1721.82,0.01,42295.76
446500,529.55,498.85,1.00,1,1,1,4156.11,-2.56,327232.11,1129.56,-1.45,85314.72,1780.77,-0.00,94099.61,994.51,-0.25,126226.72,2171.04,-0.09,23370.06
460500,607.23,507.42,1.00,1,1,1,5582.58,0.11,676910.74,5815.93,0.06,418263.32,1492.99,-0.53,64015.71,664.94,-2.27,101124.70,1795.62,-0.11,27084.92
475300,696.78,508.35,1.00,1,1,1,6050.62,0.01,50246.55,2708.37,-0.11,214759.05,936.20,0.03,57915.81,689.42,-2.87,27206.68,1658.09,0.04,20131.01
489400,685.02,498.70,1.00,1,1,1,1078.84,-2.45,491116.81,3045.85,-3.07,406409.16,903.36,-2.47,123857.47,696.55,-0.37,93215.46,1904.51,-0.07,21911.89
510600,589.53,500.74,1.00,1,1,1,4505.23,3.12,176994.15,3559.71,-2.92,33404.61,3165.20,-3.02,115226.13,1959.98,-0.04,62389.05,1259.01,-0.21,32253.02
524900,561.66,471.26,1.00,2,2,2,2837.10,-2.33,233928.19,3321.51,-2.97,20140.49,206.32,0.60,234239.22,736.80,-0.48,93202.61,547.58,-0.50,52429.09
539200,495.93,484.50,1.00,2,2,2,4689.00,2.94,279212.07,2842.31,0.26,430574.99,2797.16,-0.06,184352.73,164.80,3.09,62202.56,362.84,-0.21,15790.70
575200,699.65,508.66,1.00,1,1,1,5698.56,0.12,284963.79,6262.87,0.01,99464.19,1596.88,-0.12,33549.74,645.13,-0.09,22496.18,455.89,-0.70,6078.31
589200,809.05,488.59,1.00,1,1,1,7944.42,-0.18,215162.42,1288.63,-1.37,439861.85,1868.78,0.14,37699.18,1473.94,-0.19,59646.17,882.64,0.04,44727.56
618900,710.71,453.44,1.00,1,1,1,3516.22,-2.80,374677.30,3144.96,2.99,127449.23,1176.18,-0.21,29136.81,1216.22,-0.05,10812.86,1997.64,0.01,37567.59
633700,670.71,509.78,1.00,1,1,1,4668.62,2.19,339680.23,2451.96,0.42,363140.40,426.52,-1.27,70155.14,1181.82,0.01,5634.74,1688.19,0.01,20908.76
654900,791.37,489.30,1.00,1,1,1,5772.97,-0.17,455487.96,4434.44,-0.35,149227.12,685.56,0.19,36155.86,335.39,-1.46,56404.00,2000.87,-0.00,14807.20
669300,819.11,455.94,1.00,1,1,1,3012.55,-0.88,277749.64,1633.08,-2.51,382532.63,405.33,-1.06,46973.94,234.22,2.48,36591.20,2552.36,0.04,38851.00
683300,754.08,461.73,1.00,1,1,1,4663.78,3.05,508288.06,4866.35,2.92,285776.83,1414.93,-2.82,110320.14,3680.46,0.13,274907.88,2389.09,0.05,12031.58
697900,683.47,487.10,1.00,2,2,2,5139.09,2.80,91710.21,1367.01,-3.12,243586.23,1012.56,2.17,102352.17,3973.72,0.01,37234.15,2721.28,0.04,22860.16
719100,705.15,460.71,1.00,2,2,2,1611.12,-0.88,310122.57,2866.66,0.22,198822.66,6676.78,0.12,339653.94,3751.91,0.01,10535.61,2238.76,-0.01,23547.29
733300,782.47,509.39,1.00,2,2,2,6434.56,0.56,453111.38,16737.88,0.11,978338.62,7759.48,0.05,83614.16,3949.62,0.14,37365.79,1532.57,0.16,54595.76
747700,1180.92,513.58,1.00,3,3,3,27671.89,0.01,1558719.08,13835.94,0.01,227610.41,8863.32,0.06,76836.77,3840.37,0.09,15029.32,1930.11,0.11,28401.74
762100,1180.92,513.58,1.00,1,1,1,0.00,0.00,1921658.94,2634.22,-0.19,782272.78,8334.85,0.03,40255.30,4623.27,0.05,55884.96,2080.07,-0.01,18851.59
783300,1273.07,496.16,1.00,1,1,1,4423.50,-0.19,208655.48,3958.33,0.10,76303.78,1030.45,-0.08,344902.13,4704.29,0.07,5575.01,1997.73,0.02,4441.98
798200,1323.08,528.11,1.00,1,1,1,3983.13,0.57,209903.45,983.59,2.70,323955.27,1492.16,0.03,32369.72,3425.72,0.11,86410.28,1695.90,0.12,23947.20
812300,1247.29,508.36,1.00,1,1,1,5555.06,-2.89,668394.57,1688.62,-2.90,78915.77,586.46,0.16,64786.96,197.10,-0.29,230118.65,2042.57,0.03,27500.29
826400,1276.81,516.84,1.00,1,1,1,2178.92,0.28,548475.71,1776.14,-0.10,242287.38,1630.94,2.87,154402.54,197.56,-0.29,32.61,2259.53,0.00,15764.88
848100,1310.58,502.26,1.00,1,1,1,1694.74,-0.41,63700.07,1870.87,2.52,162201.99,654.02,-3.09,47509.49,247.72,0.04,4076.85,1920.03,0.19,23449.66
862400,1222.24,556.30,1.00,1,1,1,7241.97,2.59,623985.11,3697.48,3.10,166283.50,1124.41,-3.00,33412.82,351.39,-2.79,41404.50,1284.23,1.45,137481.78
876600,1205.28,506.35,1.00,1,1,1,3714.89,-1.90,622273.02,1864.01,-1.90,256097.77,115.63,-2.44,72382.86,484.99,-0.48,53941.91,3347.91,2.14,175536.45
890700,1205.28,506.35,1.00,1,1,1,0.00,0.00,263467.40,2825.82,-0.09,264901.89,900.69,-0.70,65766.66,246.44,-0.89,19574.86,3034.46,2.07,28047.37
912000,1304.92,497.50,1.00,4,4,4,4696.44,-0.09,220489.92,1419.23,0.06,67543.39,1374.54,-0.28,31028.50,556.71,2.39,37634.27,3230.23,2.32,38147.14
940700,1276.10,510.78,1.00,4,4,4,1105.57,2.71,200334.57,505.14,-1.41,50785.41,1197.55,-0.18,7744.51,3222.98,2.46,92970.52,3062.98,2.44,14648.16
954800,1308.45,476.17,1.00,4,4,4,3359.37,-0.82,312257.36,1061.93,-0.75,51808.29,929.23,2.30,142857.24,6196.47,2.16,231905.21,1509.53,2.30,112171.49
970400,1299.19,489.29,1.00,4,4,4,1029.11,2.19,280839.91,2074.35,2.19,200155.59,7274.00,2.46,407565.17,5604.29,2.09,46777.27,843.50,2.30,42694.72
1006000,1246.53,562.46,1.00,4,4,4,2532.39,2.19,42229.02,12224.11,2.46,287530.88,13301.49,2.22,181550.31,5982.00,2.34,43156.51,630.88,1.93,9540.53
1020400,825.52,875.57,1.00,4,4,4,36435.58,2.50,2363237.60,33193.64,2.23,1491433.27,12051.19,2.16,101785.97,5927.99,2.39,19442.16,654.37,0.77,49131.12
1034900,661.54,1322.75,1.00,4,4,4,32847.99,1.92,1386358.36,14040.26,1.72,1520541.61,13324.20,2.35,183898.56,3456.08,2.35,170913.04,810.14,0.69,11401.70
1049600,766.52,1281.28,1.00,4,4,4,7678.94,-0.38,2611300.08,4107.94,-1.70,1226239.75,4332.17,2.24,614145.41,1893.81,2.29,106741.76,750.99,0.92,12601.23
1070700,641.94,1177.00,1.00,4,4,4,7700.02,-2.44,626438.09,6236.03,-2.12,141261.62,8984.08,-1.03,629945.02,846.62,1.57,65268.84,487.56,0.82,12775.39
1084800,651.99,1094.03,1.00,4,4,4,5927.43,-1.45,474015.74,16642.94,-0.83,1139181.82,9614.64,-1.03,44827.51,4408.24,-0.34,337609.40,605.28,0.65,10780.68
1098900,958.16,830.19,1.00,4,4,4,28664.50,-0.71,1745353.74,17278.66,-0.71,156910.63,12455.23,-0.70,328764.42,7716.42,-0.75,287602.45,481.27,0.92,13530.70
1119800,1112.00,701.46,1.00,4,4,4,9597.97,-0.70,912346.90,9383.93,-0.51,397113.15,12819.99,-0.52,105735.00,6483.99,-0.81,63237.37,478.40,0.60,7333.34
1134000,1246.42,670.83,1.00,4,4,4,9708.60,-0.22,318488.71,8600.69,-0.06,283778.64,7247.11,-0.39,402566.47,7429.94,-0.65,104165.43,597.82,-0.21,30745.62
1148300,1356.66,686.42,1.00,4,4,4,7785.81,0.14,258154.84,4858.43,-0.12,263046.17,3898.25,-0.11,257047.46,6988.78,-0.57,51164.29,2776.50,-0.43,153633.22
1162400,1383.40,654.28,1.00,1,1,1,2965.44,-0.88,476498.37,765.26,-2.74,392469.49,2603.98,-0.43,117385.54,3859.75,-0.53,222494.60,4189.18,-0.81,135686.69
1177600,1336.05,677.58,1.00,1,1,1,3472.03,2.68,414296.10,1550.11,-1.27,108731.23,1413.92,-0.98,104007.81,2673.75,-0.44,80025.96,3549.35,-0.83,42479.35
1198900,1399.94,600.17,1.00,1,1,1,4712.23,-0.88,375855.75,2763.77,-0.75,75753.54,1132.12,-1.50,33395.08,1589.80,-0.75,58976.74,3612.48,-0.74,16011.15
1213200,1407.73,610.18,1.00,1,1,1,887.03,0.91,348337.29,791.08,-2.10,188645.99,2111.56,-1.02,85669.39,1246.48,-0.75,24010.84,3304.72,-0.64,33184.89
1227800,1388.44,580.41,1.00,1,1,1,2429.67,-2.15,227005.04,1687.60,-1.59,73009.84,1081.68,-1.61,92620.78,885.07,-1.40,52496.14,1882.23,-0.63,97446.50
1241700,1406.64,562.09,1.00,1,1,1,1857.51,-0.79,196236.47,1421.38,-1.40,28882.27,1164.00,-0.46,87858.91,1053.70,-0.94,34121.53,1128.39,-0.56,54653.17
1263700,1397.15,530.13,1.00,1,1,1,1515.48,-1.86,79346.42,1930.81,0.21,110815.65,649.48,-1.22,37550.92,638.73,-1.97,41264.11,727.34,-0.79,20517.18
1278000,1475.22,576.51,1.00,1,1,1,6350.45,0.54,526833.48,435.60,1.11,118677.56,300.23,-0.49,32954.16,489.12,-1.53,19962.68,578.68,-1.39,28751.57
1292000,1402.60,541.19,1.00,1,1,1,5768.68,-2.69,864901.72,1066.19,-2.62,103504.51,454.46,-2.73,48770.51,422.50,-1.47,5136.78,380.40,-1.76,18774.40
1327700,1429.40,549.91,1.00,1,1,1,789.44,0.31,183515.22,915.50,-2.56,4524.82,839.33,-2.55,11226.17,234.40,-2.09,7516.39,978.68,-2.28,18931.87
1341800,1364.59,516.01,1.00,1,1,1,5187.16,-2.66,423193.25,582.70,-2.41,24728.02,300.33,-1.84,45547.62,57.12,-1.92,12648.36,638.73,-1.97,29784.34
1370300,1410.86,533.40,1.00,1,1,1,1734.42,0.36,242520.87,701.33,-0.06,41630.35,588.71,-2.67,15556.67,653.92,-2.59,21409.63,489.12,-1.53,10016.36
1385400,1395.11,514.16,1.00,1,1,1,1646.89,-2.26,216248.43,637.28,-2.92,87793.16,371.08,0.19,62934.22,252.22,3.02,32047.21,422.50,-1.47,4762.58
1408100,1387.34,528.20,1.00,2,2,2,706.87,2.08,88920.95,202.17,1.71,30089.56,401.11,-2.70,33748.24,2098.41,-2.84,82459.13,234.40,-2.09,11820.92
1422600,1394.04,521.60,1.00,2,2,2,648.64,-0.78,92515.64,215.09,-1.69,28536.03,689.25,2.36,46033.06,371.08,0.19,170167.67,57.12,-1.92,12299.44
1437100,1386.61,522.00,1.00,2,2,2,513.47,3.09,75033.40,1375.78,2.48,103393.40,4198.73,-2.87,268999.06,401.11,-2.70,52833.44,653.92,-2.59,42080.99
1451600,1362.66,546.24,1.00,2,2,2,2349.82,2.35,137923.28,8290.80,-2.90,518963.40,1375.78,2.48,245281.98,689.25,2.36,46033.06,252.22,3.02,33373.30
1466300,1151.70,463.46,1.00,3,3,3,15416.20,-2.77,996553.17,15416.20,-2.77,494863.73,8290.80,-2.90,511902.68,4198.73,-2.87,265339.21,2098.41,-2.84,127334.85
