@RELATION gaze_labels

%@METADATA width_px 1920
%@METADATA height_px 1080
%@METADATA width_mm 540.00
%@METADATA height_mm 254.00
%@METADATA distance_mm 620.00


@ATTRIBUTE time INTEGER
@ATTRIBUTE x NUMERIC
@ATTRIBUTE y NUMERIC
@ATTRIBUTE confidence NUMERIC
@ATTRIBUTE handlabeller1 INTEGER
@ATTRIBUTE handlabeller2 INTEGER
@ATTRIBUTE handlabeller_final INTEGER
@ATTRIBUTE speed_1 numeric
@ATTRIBUTE direction_1 numeric
@ATTRIBUTE acceleration_1 numeric
@ATTRIBUTE speed_2 numeric
@ATTRIBUTE direction_2 numeric
@ATTRIBUTE acceleration_2 numeric
@ATTRIBUTE speed_4 numeric
@ATTRIBUTE direction_4 numeric
@ATTRIBUTE acceleration_4 numeric
@ATTRIBUTE speed_8 numeric
@ATTRIBUTE direction_8 numeric
@ATTRIBUTE acceleration_8 numeric
@ATTRIBUTE speed_16 numeric
@ATTRIBUTE direction_16 numeric
@ATTRIBUTE acceleration_16 numeric

%The number after speed, direction denotes the step size that was used for the calculation.
%Acceleration was calculated between two adjacent samples of the already low pass filtered velocity

@DATA
0,255.29,525.40,1.00,1,1,1,0.00,0.00,0.00,2649.29,-2.19,0.00,600.05,-2.56,0.00,389.11,-1.75,0.00,601.00,-2.08,0.00
14200,233.39,494.81,1.00,1,1,1,2649.29,-2.19,186569.86,600.05,-2.56,147919.92,1136.28,1.64,107181.70,556.34,-1.89,12632.03,325.03,-2.08,19434.92
29300,240.60,515.74,1.00,1,1,1,1465.92,1.24,269916.07,1136.28,1.64,100793.39,389.11,-1.75,100400.19,236.05,2.53,44002.20,215.36,-1.90,7953.20
51000,230.38,536.52,1.00,1,1,1,1067.15,2.03,47967.16,509.72,-0.99,73760.49,556.34,-1.89,8266.12,546.80,-1.06,35347.33,187.27,1.17,18542.09
65300,250.68,500.41,1.00,1,1,1,2897.01,-1.06,277130.57,2696.74,-1.68,162752.94,236.05,2.53,46463.86,601.00,-2.08,39463.73,73.43,2.37,12236.02
79400,221.92,460.40,1.00,1,1,1,3495.02,-2.19,246424.69,1157.86,2.32,252553.31,546.80,-1.06,54399.79,325.03,-2.08,19572.76,360.70,1.10,24585.71
93800,228.17,524.54,1.00,1,1,1,4475.28,1.47,534745.27,1477.06,1.06,109461.39,847.78,-2.23,56421.36,215.36,-1.90,8339.81,544.88,-1.33,59103.31
114900,247.60,506.11,1.00,1,1,1,1268.73,-0.76,253524.78,1911.69,-1.73,158150.16,147.53,-2.89,34933.32,187.27,1.17,19069.35,249.70,-2.01,18149.31
129300,217.44,457.53,1.00,1,1,1,3971.15,-2.13,272012.97,2041.48,-2.20,64453.32,546.89,-1.47,37830.72,73.43,2.37,12151.05,123.53,-0.62,17864.40
144000,212.68,458.05,1.00,2,2,2,326.00,3.03,261358.55,1204.49,1.15,219686.86,819.42,1.72,92920.48,360.70,1.10,23582.21,92.07,-0.83,2629.37
158300,231.65,489.43,1.00,2,2,2,2564.54,1.03,190050.49,2912.21,1.31,121149.25,870.56,1.08,37252.38,544.88,-1.33,59516.62,230.31,-2.12,15591.06
179800,239.80,558.72,1.00,1,1,1,3244.77,1.45,65042.55,603.83,0.96,109456.10,742.44,0.97,7140.28,249.70,-2.01,17811.65,162.94,-0.72,12029.11
193700,243.90,506.95,1.00,1,1,1,3735.77,-1.49,499797.31,1227.17,-1.46,124316.25,551.17,-1.22,83019.94,519.88,0.62,53747.30,30.77,2.88,13741.58
222700,245.51,506.38,1.00,1,1,1,58.97,-0.34,128006.34,1344.42,-1.52,4878.66,957.91,-1.67,17960.98,259.02,0.41,9376.81,373.62,0.02,13905.77
237100,246.64,448.67,1.00,1,1,1,4008.67,-1.55,276966.46,779.60,-1.95,49610.36,433.74,-0.05,74257.31,249.09,-2.27,34347.62,1639.26,-0.19,88608.07
272400,231.01,470.45,1.00,1,1,1,759.49,2.19,131848.54,1368.00,0.98,60545.15,378.81,-1.38,14234.41,374.97,-1.12,10074.93,1662.15,-0.11,3509.34
286400,284.05,504.79,1.00,1,1,1,4512.89,0.57,329431.39,598.51,0.21,73440.62,498.91,2.91,52762.33,29.36,-1.95,25410.21,1936.53,-0.02,23046.84
307500,251.56,474.84,1.00,1,1,1,2094.35,-2.40,312157.61,2561.36,-2.61,148557.94,770.14,0.80,52742.16,658.82,-0.48,31106.74,2079.99,-0.09,9752.03
322100,205.33,458.26,1.00,2,2,2,3363.58,-2.80,113076.96,1173.72,1.15,245386.46,652.63,-3.09,90723.21,3020.69,-0.03,167525.77,1834.53,-0.13,17737.97
336400,265.33,505.84,1.00,2,2,2,5354.55,0.67,601995.82,2025.37,0.88,66482.98,1349.58,-0.16,139357.50,3789.41,-0.04,53782.34,1714.19,-0.20,11913.55
350600,242.20,502.67,1.00,3,3,3,1643.58,-3.01,480317.96,2645.33,-0.60,223588.73,7555.65,-0.05,437749.79,3792.06,-0.12,21321.61,1390.74,-0.15,23401.51
365400,328.75,462.68,1.00,3,3,3,6441.83,-0.43,532189.54,12457.43,-0.15,685415.88,7005.43,-0.12,50625.30,4541.43,-0.13,50730.56,2191.91,-0.15,54133.94
387900,701.97,435.40,1.00,1,1,1,16631.91,-0.07,481910.39,10742.58,-0.03,97997.77,8133.73,-0.10,50332.24,4319.11,-0.07,14674.73,1721.33,-0.13,21037.74
402000,721.80,452.69,1.00,1,1,1,1865.85,0.72,1090493.04,2545.91,0.17,585939.64,7372.17,-0.12,55062.48,3525.16,-0.10,56803.58,2147.61,-0.04,32338.46
416200,772.95,447.79,1.00,1,1,1,3618.39,-0.10,190137.82,3408.20,-0.52,153926.47,1034.68,-0.27,447199.34,3078.66,-0.14,32890.66,1992.48,-0.16,19808.95
430700,806.54,403.84,1.00,1,1,1,3815.32,-0.92,205362.64,853.06,-1.79,224638.02,122.20,1.67,74824.34,3929.88,-0.09,59729.29,2072.27,-0.06,14474.16
452300,766.22,417.74,1.00,1,1,1,1974.52,2.81,257796.21,2882.41,2.56,152081.28,2096.19,-3.13,96682.25,393.53,-1.34,176993.92,1791.46,-0.03,13356.06
466300,721.00,460.51,1.00,1,1,1,4446.08,2.38,197870.68,4654.57,2.92,158036.17,469.35,0.37,181526.09,514.36,-0.10,38330.81,1775.32,-0.03,1154.45
480500,638.17,446.57,1.00,1,1,1,5915.01,-2.97,338227.43,4314.86,-0.38,629559.46,1050.43,-2.64,106815.74,256.55,-0.82,25463.63,1550.97,-0.06,16206.81
494700,834.60,414.57,1.00,1,1,1,14015.63,-0.16,1387839.55,3185.45,-0.66,107205.34,1046.99,-0.21,138369.16,385.68,2.26,45205.55,1588.27,0.28,37499.01
510200,712.88,388.53,1.00,1,1,1,8030.71,-2.93,1399603.23,1487.64,2.55,301352.32,2414.99,-0.15,88536.17,532.25,2.78,17692.08,2288.44,1.77,172314.49
532200,788.42,445.87,1.00,1,1,1,4310.90,0.65,548786.58,2480.72,0.40,160006.24,1006.07,2.71,154162.32,300.53,0.83,31911.72,2583.22,1.76,13412.85
546500,795.87,423.47,1.00,1,1,1,1650.86,-1.25,355857.83,504.63,-2.89,208437.99,691.41,1.88,51809.95,289.42,0.84,849.65,2690.98,1.77,7656.42
560400,774.63,442.36,1.00,4,4,4,2045.44,2.41,256996.38,2105.11,2.93,119928.18,776.44,2.26,20885.61,1130.24,1.88,72919.28,2603.21,1.85,16104.36
595500,694.93,444.71,1.00,4,4,4,2271.50,3.11,42462.24,1128.61,2.03,47479.80,1813.34,2.75,33721.27,4287.10,1.77,90208.13,2042.44,1.79,16393.36
609600,750.15,492.20,1.00,4,4,4,5165.66,0.71,497351.78,1531.93,2.29,37908.52,1509.56,1.55,134105.73,4865.25,1.84,47868.17,1504.75,1.39,61907.24
624200,665.81,477.65,1.00,4,4,4,5862.36,-2.97,728148.17,2071.03,1.30,122165.08,8184.50,1.76,459946.75,5103.00,1.79,24749.94,1794.26,0.51,98131.38
659800,777.99,592.38,1.00,4,4,4,4507.24,0.80,277389.19,12127.33,1.72,288539.51,8910.96,1.81,23938.78,4460.81,1.82,18393.68,1225.61,0.89,22422.78
674300,575.08,1078.41,1.00,4,4,4,36323.66,1.97,2400817.86,21111.02,1.89,647628.08,9185.11,1.63,112962.13,3812.90,1.67,60520.55,1991.72,0.48,68790.91
689200,582.16,1181.34,1.00,4,4,4,6923.96,1.50,2032982.45,4637.94,1.22,1188763.93,9644.35,1.89,164474.31,2752.97,1.45,85652.11,1577.02,0.32,33684.84
703700,621.75,1206.53,1.00,4,4,4,3236.24,0.57,388981.59,2186.11,-1.21,445349.21,1685.20,-0.94,776646.77,3309.85,0.48,197689.01,1641.18,0.34,4764.12
717700,604.00,1122.99,1.00,4,4,4,6100.64,-1.78,620033.63,6125.47,-1.49,290562.03,5646.50,-0.94,282950.79,2397.84,0.34,71667.23,1741.09,0.33,7144.24
739200,639.15,989.78,1.00,4,4,4,6407.86,-1.31,135393.43,8454.01,-0.89,226594.48,10631.67,-0.83,235556.74,6294.10,-0.58,241962.26,2173.19,0.23,22004.60
753800,796.83,886.43,1.00,4,4,4,12913.02,-0.58,630671.51,18252.98,-0.57,721980.23,9652.46,-0.76,79522.83,6736.61,-0.75,80806.88,1988.50,0.07,26686.17
768500,1088.57,699.88,1.00,4,4,4,23557.15,-0.57,724213.95,11307.73,-0.65,478470.74,11610.32,-0.53,216929.14,6788.29,-0.79,18858.79,2225.28,0.08,16208.73
782600,1056.04,689.29,1.00,4,4,4,2426.46,-2.83,1784850.69,4880.13,-0.35,482906.03,8004.94,-0.62,263298.12,6316.89,-0.68,63752.78,2013.04,-0.18,41848.02
797000,1219.38,652.63,1.00,4,4,4,11625.59,-0.22,956125.69,5338.25,-0.56,82987.65,2984.54,-0.67,349110.80,6028.82,-0.58,43918.80,3475.03,-0.71,140469.69
818100,1216.27,588.10,1.00,4,4,4,3061.91,-1.62,545141.82,2094.09,-1.29,190768.29,3180.18,-0.41,39878.33,4710.04,-0.62,63228.79,3411.66,-0.74,5517.89
833500,1240.42,579.15,1.00,4,4,4,1672.54,-0.35,195674.37,1224.94,0.53,173608.17,1267.29,-1.07,150558.33,1950.09,-0.75,181104.59,3693.48,-0.71,20144.82
848400,1248.34,606.78,1.00,4,4,4,1929.16,1.29,177662.79,648.90,0.04,48422.60,1475.86,-0.64,41409.47,2242.37,-0.70,20937.89,3279.53,-0.69,27961.34
862500,1259.23,579.81,1.00,1,1,1,2062.69,-1.19,267722.71,2528.39,-1.04,162391.52,942.45,-1.02,49419.77,1318.11,-1.26,94214.15,2858.82,-0.57,39329.97
883600,1293.68,530.19,1.00,1,1,1,2862.74,-0.96,45778.33,1535.76,-1.34,54687.99,1712.08,-1.30,40151.61,747.06,-0.67,38740.27,2411.09,-0.69,25559.96
897400,1271.69,527.68,1.00,1,1,1,1603.18,-3.03,281686.62,1161.14,-2.12,78409.42,1395.24,-1.41,25896.88,1297.08,-0.33,46590.16,1244.93,-0.63,84816.63
911600,1276.82,502.39,1.00,1,1,1,1817.27,-1.37,177801.58,1290.27,-1.48,54422.80,247.16,-0.77,84992.33,1005.50,-0.77,40764.92,1438.77,-0.62,13667.12
941300,1276.67,471.26,1.00,2,2,2,1048.25,-1.58,27579.37,531.25,0.33,50752.20,1726.61,-0.09,51899.53,708.05,-0.51,12361.30,828.41,-0.76,21151.45
978800,1310.62,513.87,1.00,1,1,1,1452.92,0.90,63111.07,3167.21,0.25,70341.04,892.01,-0.18,22432.16,749.10,-1.00,9470.86,782.51,-0.56,4532.26
993600,1437.10,512.50,1.00,1,1,1,8546.14,-0.01,522864.56,1594.30,-0.43,146474.71,1021.38,0.45,40584.39,761.24,-0.40,30465.84,751.82,-0.59,2897.23
1022700,1374.39,485.00,1.00,1,1,1,2353.14,-2.73,368888.59,1305.82,3.08,98063.17,1358.52,-1.05,56405.83,865.48,-0.47,4166.32,609.90,-0.98,10117.38
1044100,1371.29,516.76,1.00,1,1,1,1491.11,1.67,147344.29,1842.50,-1.72,101000.56,690.86,-2.42,65170.22,784.34,0.06,20428.77,642.16,-0.59,11490.27
1058500,1364.28,419.82,1.00,1,1,1,6749.70,-1.64,571065.08,1603.37,-1.03,82422.22,990.95,-0.94,80430.72,831.99,-0.45,28001.00,473.34,-0.92,17221.67
1073700,1395.54,475.96,1.00,1,1,1,4227.47,1.06,706017.34,1711.69,0.27,132278.03,851.51,-0.88,9763.95,429.23,-1.68,52653.90,551.41,-0.55,13195.94
1087800,1412.65,433.07,1.00,1,1,1,3275.42,-1.19,481442.20,271.79,0.30,102132.70,1064.30,0.65,94858.50,301.27,-2.18,15522.13,496.72,-0.23,12513.23
1102700,1403.07,478.29,1.00,1,1,1,3102.44,1.78,426485.69,826.19,1.34,48832.84,664.11,-0.63,72571.55,553.47,-0.72,40165.88,399.04,-0.16,6908.61
1123700,1419.42,461.94,1.00,1,1,1,1101.12,-0.79,193805.26,1084.49,-0.79,79855.58,982.57,2.83,77491.72,124.89,-0.12,21743.65,287.11,-2.13,27421.85
1138500,1430.35,450.67,1.00,1,1,1,1060.97,-0.80,2947.03,2345.10,-3.01,210809.89,317.33,-0.34,87826.37,323.05,-1.08,18374.87,888.02,-2.77,45851.06
1152700,1352.03,452.85,1.00,1,1,1,5518.13,3.11,445148.84,759.64,1.93,161740.63,1014.93,-2.31,82723.65,280.18,1.22,38825.04,551.57,-2.86,24107.57
1167700,1422.52,471.42,1.00,1,1,1,4859.76,0.26,684853.52,1510.80,-0.90,149758.56,293.35,-2.48,48519.54,214.56,-2.00,32956.83,671.85,-2.40,20106.80
1182100,1379.61,418.03,1.00,1,1,1,4756.42,-2.25,634293.37,928.47,-1.79,81487.29,1135.96,0.20,97537.93,1222.38,-3.05,78618.66,387.71,-3.03,29421.47
1203500,1415.29,438.98,1.00,2,2,2,1933.36,0.53,308390.98,1855.35,0.83,126130.64,555.76,-2.60,78042.53,1713.74,-3.02,23082.11,587.36,-2.87,9985.61
1218300,1425.10,467.45,1.00,2,2,2,2034.55,1.24,93185.71,944.36,2.61,152285.31,1767.46,2.87,97425.54,889.19,-3.07,55891.64,739.48,3.03,20084.79
1232700,1391.50,452.91,1.00,1,1,1,2542.67,-2.73,291181.41,5513.06,-3.02,332982.60,3195.01,-3.07,114403.57,1467.42,-2.77,46866.59,592.14,-2.88,20121.93
1246700,1269.65,448.78,1.00,1,1,1,8708.42,-3.11,457826.15,5225.86,-2.98,25895.93,2946.31,-3.02,20222.05,876.83,-3.06,48259.20,594.15,3.08,13632.64
1267800,1210.43,423.55,1.00,1,1,1,3050.41,-2.74,282716.41,921.43,-3.02,204049.71,2399.64,-2.80,37685.79,1219.44,-3.10,16398.32,621.01,3.14,2090.17
1282700,1236.71,444.87,1.00,1,1,1,2270.87,0.68,353738.91,1432.10,-0.54,149803.16,628.79,-1.63,149725.45,1497.00,-3.09,18681.66,554.02,-3.00,7216.56
1296900,1246.10,401.99,1.00,1,1,1,3091.24,-1.36,322887.62,1680.62,-0.88,40073.23,414.87,0.28,60638.54,1019.69,-3.03,34058.81,634.65,-2.94,6186.75
1310900,1267.08,408.49,1.00,1,1,1,1568.87,0.30,255926.55,625.87,1.72,159868.49,346.25,2.72,51075.33,187.61,2.29,66117.26,557.28,3.14,10219.54
1346000,1241.65,432.40,1.00,1,1,1,994.48,2.39,63641.24,1457.09,2.43,30345.69,437.71,1.53,12686.78,317.72,0.58,11171.37,871.93,3.11,8989.58
1360800,1212.08,456.05,1.00,1,1,1,2558.12,2.47,106000.32,242.07,0.55,104537.53,660.33,1.84,18917.18,283.30,-2.80,40323.75,820.11,-3.10,5610.73
1374800,1247.58,436.06,1.00,1,1,1,2910.03,-0.51,389309.13,813.35,0.40,41088.58,268.54,1.04,36547.99,210.51,1.62,28483.64,538.64,-3.00,20672.19
1410500,1249.31,471.81,1.00,1,1,1,1002.70,1.52,97392.34,306.91,1.26,18325.38,395.70,-2.16,18598.04,314.36,2.95,9399.80,231.53,-2.21,11457.69
1425100,1252.37,450.73,1.00,1,1,1,1458.95,-1.43,167851.88,2372.84,-2.49,180232.90,39.66,-2.79,24966.56,535.89,2.94,15177.35,172.23,0.15,25622.08
1439400,1194.81,430.18,1.00,1,1,1,4273.92,-2.80,296154.59,611.20,-2.03,129078.99,977.18,-2.12,66189.51,147.14,3.07,27298.25,225.03,-2.99,27780.56
1453800,1244.64,434.99,1.00,1,1,1,3475.97,0.10,534139.25,697.15,-0.51,62731.42,1345.37,-3.11,79512.41,66.16,-2.57,7089.29,573.89,2.96,25617.90
1474900,1216.44,418.15,1.00,1,1,1,1556.62,-2.60,233557.32,2252.31,2.98,138268.07,429.00,1.71,64986.10,619.62,-1.83,27149.46,314.36,2.95,12301.04
1488900,1166.59,447.61,1.00,1,1,1,4135.84,2.61,261200.86,1617.17,2.14,119990.60,100.73,-2.47,34882.60,162.81,-1.24,35196.42,535.89,2.94,15827.81
1503900,1191.09,457.60,1.00,1,1,1,1763.30,0.39,359240.77,2609.35,-0.22,262036.14,414.86,-1.08,27240.82,172.03,2.92,19503.25,147.14,3.07,26024.33
1517600,1239.61,430.98,1.00,1,1,1,4040.09,-0.50,235991.25,2068.57,-1.03,138658.03,1435.78,-0.18,89251.15,1241.42,-3.12,78479.29,66.16,-2.57,7451.51
1539500,1229.04,394.49,1.00,2,2,2,1734.67,-1.85,184225.32,532.84,-0.01,84346.11,445.63,-2.24,77302.38,414.86,-1.08,67394.04,619.62,-1.83,26157.70
1554500,1259.27,430.83,1.00,2,2,2,3151.29,0.88,319429.42,2373.54,2.51,188287.01,2383.88,3.14,142442.11,1435.78,-0.18,81516.05,162.81,-1.24,32850.00
1568600,1173.13,435.05,1.00,2,2,2,6117.12,3.09,595626.81,6227.69,3.14,320365.89,2373.54,2.51,103440.74,445.63,-2.24,120065.40,172.03,2.92,20748.14
1582500,1084.90,431.65,1.00,1,1,1,6351.83,-3.10,42665.33,6351.83,-3.10,21485.04,6227.69,3.14,324975.47,2383.88,3.14,153714.51,1241.42,-3.12,77350.09
