@RELATION gaze_labels

%@METADATA width_px 1920
%@METADATA height_px 1080
%@METADATA width_mm 540.00
%@METADATA height_mm 254.00
%@METADATA distance_mm 620.00


@ATTRIBUTE time INTEGER
@ATTRIBUTE x NUMERIC
@ATTRIBUTE y NUMERIC
@ATTRIBUTE confidence NUMERIC
@ATTRIBUTE handlabeller1 INTEGER
@ATTRIBUTE handlabeller2 INTEGER
@ATTRIBUTE handlabeller_final INTEGER
@ATTRIBUTE speed_1 numeric
@ATTRIBUTE direction_1 numeric
@ATTRIBUTE acceleration_1 numeric
@ATTRIBUTE speed_2 numeric
@ATTRIBUTE direction_2 numeric
@ATTRIBUTE acceleration_2 numeric
@ATTRIBUTE speed_4 numeric
@ATTRIBUTE direction_4 numeric
@ATTRIBUTE acceleration_4 numeric
@ATTRIBUTE speed_8 numeric
@ATTRIBUTE direction_8 numeric
@ATTRIBUTE acceleration_8 numeric
@ATTRIBUTE speed_16 numeric
@ATTRIBUTE direction_16 numeric
@ATTRIBUTE acceleration_16 numeric

%The number after speed, direction denotes the step size that was used for the calculation.
%Acceleration was calculated between two adjacent samples of the already low pass filtered velocity

@DATA
0,319.68,460.60,1.00,1,1,1,0.00,0.00,0.00,663.48,1.38,0.00,395.15,-0.07,0.00,1331.11,0.04,0.00,1105.61,-2.92,0.00
21700,322.43,474.73,1.00,1,1,1,663.48,1.38,30575.27,395.15,-0.07,33649.30,1451.45,-0.72,53527.32,369.49,-0.94,53786.88,924.77,-3.01,9439.76
35500,333.67,459.59,1.00,2,2,2,1366.10,-0.93,136114.98,1451.45,-0.72,84169.77,1331.11,0.04,75476.03,1633.08,-2.97,132418.71,862.51,2.90,23987.82
49600,352.84,447.99,1.00,2,2,2,1589.57,-0.54,43338.36,2513.19,0.06,128100.18,369.49,-0.94,82778.38,2696.03,-3.00,75484.67,1270.35,-2.89,46184.60
63700,404.40,464.11,1.00,2,2,2,3830.65,0.30,214376.27,503.08,2.71,210285.03,1633.08,-2.97,129601.29,1105.61,-2.92,113202.36,1514.23,-2.91,17425.55
85700,336.37,455.62,1.00,3,3,3,3116.26,-3.02,314518.94,4874.37,-3.01,202563.38,2696.03,-3.00,48378.81,924.77,-3.01,9311.03,828.64,3.07,34708.83
99700,230.33,441.87,1.00,1,1,1,7637.16,-3.01,322925.63,5588.07,-2.94,58928.00,3480.23,-2.99,56063.34,862.51,2.90,23645.13,173.11,1.40,61642.64
114200,180.48,422.99,1.00,1,1,1,3676.19,-2.78,286087.79,1759.92,-2.89,264181.58,2180.00,3.10,96886.89,1270.35,-2.89,44910.54,272.53,0.22,18009.67
128700,180.89,429.23,1.00,1,1,1,430.92,1.51,267198.98,1658.60,0.89,223845.15,677.41,1.70,149862.48,1514.23,-2.91,16944.84,436.66,-2.71,48645.53
143300,210.89,460.47,1.00,1,1,1,2967.16,0.81,181667.67,1945.74,0.92,19930.02,305.85,-0.93,65459.77,828.64,3.07,52300.98,505.02,-2.39,11142.36
165600,224.64,486.15,1.00,1,1,1,1306.16,1.08,78274.04,1547.92,-1.90,154632.30,464.05,-0.35,12036.82,173.11,1.40,38699.41,375.78,-2.64,7539.55
179900,192.50,406.89,1.00,1,1,1,5981.23,-1.96,509182.80,2307.44,-1.78,55332.33,350.04,0.11,14998.18,272.53,0.22,18261.55,414.01,-2.99,10078.51
195500,210.05,418.72,1.00,1,1,1,1356.65,0.59,458141.73,2348.92,0.93,291826.30,431.10,-1.19,30526.43,302.47,-0.43,11913.42,674.36,-3.12,17251.64
209600,233.96,462.99,1.00,1,1,1,3568.78,1.08,173700.07,1797.14,1.08,44204.37,505.29,0.81,55898.16,544.30,-1.40,31865.54,487.12,-2.85,17215.61
223500,233.96,462.99,1.00,1,1,1,0.00,0.00,256746.99,1033.75,-2.09,203641.24,141.48,-0.71,37278.15,548.06,-1.33,2924.93,186.50,-2.43,23466.45
245500,215.39,430.86,1.00,1,1,1,1686.89,-2.09,76676.90,1469.13,-1.90,22638.71,1031.99,-1.69,43636.81,376.74,0.46,33158.54,399.95,0.23,25973.95
259600,216.90,412.78,1.00,1,1,1,1287.17,-1.49,68638.69,1154.47,-1.39,51795.39,631.46,-1.39,33240.27,263.76,1.58,24973.31,1123.52,0.13,51539.52
287600,224.29,383.08,1.00,1,1,1,1092.88,-1.33,9707.70,547.99,-0.10,40335.54,326.54,0.01,23542.79,348.58,-2.12,21027.17,1152.82,-0.04,6685.96
308800,243.72,410.02,1.00,1,1,1,1566.87,0.95,114198.14,1422.48,1.24,66212.28,515.58,1.72,30569.78,434.43,-2.24,4548.44,828.31,-0.18,16741.54
323300,240.79,431.11,1.00,1,1,1,1468.11,1.71,78173.26,1386.15,2.17,86695.10,484.07,2.09,12894.69,506.31,0.23,61227.97,1101.84,0.19,30787.00
352500,209.68,460.13,1.00,2,2,2,1457.05,2.39,33513.31,885.10,-2.75,50875.32,678.80,-3.08,21766.95,1850.55,0.20,46047.00,735.44,0.13,12666.66
366900,205.14,416.35,1.00,2,2,2,3056.45,-1.67,284934.22,1579.76,-1.93,81287.56,693.32,0.33,94451.82,2263.81,0.20,28706.09,835.12,-0.10,14328.89
388700,189.60,406.58,1.00,3,3,3,842.00,-2.58,120293.85,2608.98,0.35,175861.78,4559.73,0.03,178975.96,1510.05,0.15,34847.88,842.30,-0.03,2699.84
402800,292.97,448.88,1.00,1,1,1,7921.41,0.39,620715.46,11416.80,0.20,627542.05,5283.77,0.09,55598.02,1840.66,0.13,23560.03,926.83,0.08,9024.33
416600,501.80,469.73,1.00,1,1,1,15208.07,0.10,575518.00,8842.56,-0.00,237569.39,4248.67,0.13,76201.15,1616.76,-0.07,29480.35,1379.12,0.06,32809.87
431000,542.33,448.17,1.00,1,1,1,3187.71,-0.49,880586.08,1429.17,-2.58,700136.99,3273.42,0.08,69107.85,2063.58,0.08,36418.59,2632.15,-0.03,87773.25
452500,458.26,442.59,1.00,1,1,1,3918.84,-3.08,318022.76,1165.27,2.71,58130.42,1304.40,-2.86,212083.59,2363.44,0.17,16431.21,2606.67,0.02,6306.37
467400,503.75,465.81,1.00,1,1,1,3427.89,0.47,483011.16,1310.73,3.05,29314.97,1060.09,-3.01,20018.46,1445.16,0.01,64569.66,2618.98,-0.01,5357.58
482400,419.24,446.27,1.00,1,1,1,5782.75,-2.91,609754.99,1377.10,-2.43,70602.90,381.46,0.61,93971.69,890.44,-0.29,43563.17,2571.63,-0.10,15555.60
497100,472.86,439.01,1.00,2,2,2,3680.79,-0.13,633792.72,1971.79,0.16,219412.18,411.34,-2.58,53916.69,3149.69,-0.21,153987.79,2385.96,-0.04,16167.05
512000,476.85,455.61,1.00,2,2,2,1145.86,1.33,251170.67,414.40,0.99,115448.87,2977.16,-0.05,222924.65,3898.28,-0.03,64651.66,2496.77,-0.03,7515.07
532900,480.97,451.43,1.00,3,3,3,280.45,-0.79,62955.82,3860.64,-0.14,177247.77,7352.12,-0.16,210699.13,3561.00,-0.09,19016.07,2118.05,-0.09,19429.74
547800,613.68,436.09,1.00,1,1,1,8966.23,-0.12,587218.41,16046.95,-0.19,818240.49,7216.36,-0.06,47495.79,3528.28,-0.11,4821.66,1235.90,-0.26,62058.70
562500,947.58,362.60,1.00,1,1,1,23257.70,-0.22,977310.40,11422.76,-0.03,345985.62,7963.71,-0.06,51027.75,2735.85,-0.13,54033.31,1080.77,-0.25,10642.04
576500,941.35,425.75,1.00,1,1,1,4532.37,1.67,1788233.17,2242.16,1.67,851585.33,4096.50,-0.15,278971.85,2705.30,-0.19,13327.72,1500.63,-0.11,32525.05
590800,941.35,425.75,1.00,1,1,1,0.00,0.00,316948.80,2046.79,-2.73,242987.02,1970.69,2.89,423812.71,2738.64,-0.14,9915.10,1464.64,-0.24,14057.26
612200,874.48,396.30,1.00,1,1,1,3414.51,-2.73,159556.50,3353.14,-2.88,63737.07,1980.49,-2.84,50149.61,1552.88,-0.25,56345.45,2065.05,-0.11,29999.86
626800,824.85,394.14,1.00,1,1,1,3402.38,-3.10,86195.76,1937.89,-3.00,99125.92,904.40,-2.73,74371.17,653.81,3.05,150737.98,2643.09,-0.07,40205.04
641000,819.26,388.17,1.00,1,1,1,575.82,-2.32,212531.28,912.18,0.02,200363.75,606.95,-2.82,21389.67,366.95,-2.62,28955.88,2781.54,-0.07,9769.48
676500,870.18,395.07,1.00,1,1,1,1447.29,0.13,54318.17,243.30,-0.62,20627.32,323.61,-0.83,22367.26,406.20,-1.99,6821.21,2726.78,-0.04,3074.63
691000,829.14,381.07,1.00,1,1,1,2990.15,-2.81,304765.12,788.23,-2.39,59995.81,699.39,0.11,39465.01,862.24,-0.12,72895.12,2147.20,-0.09,40859.51
719900,845.08,371.82,1.00,2,2,2,637.86,-0.53,119124.17,1226.17,0.24,67572.83,672.61,-0.61,16653.94,2574.24,-0.02,59471.22,1112.01,0.06,36678.61
741200,888.94,395.66,1.00,2,2,2,2343.61,0.50,97856.32,1924.66,-0.11,41076.51,2282.49,-0.00,83140.24,2873.56,0.02,14952.05,1062.69,-0.20,13363.16
755900,913.98,364.52,1.00,3,3,3,2718.12,-0.89,221536.90,4211.55,-0.13,155623.60,5970.02,0.04,251111.68,2746.16,0.07,12290.89,992.66,-0.21,4855.17
770100,1009.68,380.31,1.00,1,1,1,6830.36,0.16,421285.61,11075.87,0.07,492803.49,6641.02,0.01,49346.80,2767.35,0.00,13067.39,1142.53,0.15,28879.21
784600,1231.01,387.74,1.00,1,1,1,15272.81,0.03,589381.36,9118.28,0.07,135011.29,5472.80,0.16,103033.26,3244.91,0.02,33219.91,1562.55,0.17,29015.55
799100,1273.44,399.18,1.00,1,1,1,3030.40,0.26,851136.23,1364.40,0.78,560635.08,3353.01,0.01,153177.30,2873.56,-0.09,34407.92,1534.18,1.22,107255.98
821200,1266.58,422.79,1.00,1,1,1,1112.81,1.85,146988.34,1295.24,-2.78,117801.46,551.15,-0.16,127218.30,2415.84,-0.00,23027.80,2962.98,1.80,85268.72
835600,1229.30,382.25,1.00,1,1,1,3824.74,-2.31,312701.88,1429.38,-1.57,107280.95,716.32,-2.34,78103.98,1545.12,0.33,74766.54,3007.21,1.56,50581.20
849800,1266.47,381.91,1.00,4,4,4,2618.29,-0.01,416065.68,714.54,-0.95,66420.20,1090.28,-2.16,28565.23,686.42,1.15,83696.95,2864.89,1.90,69795.87
864200,1241.11,365.57,1.00,4,4,4,2095.48,-2.57,313787.55,1189.96,-2.72,104144.74,1078.41,2.01,131108.58,3896.15,2.21,250974.50,1496.44,1.21,135186.20
885700,1227.56,364.29,1.00,4,4,4,632.82,-3.05,72591.26,2504.00,2.05,126156.17,1353.13,1.56,28191.24,7720.77,2.23,177960.41,1724.76,0.59,46872.48
900000,1199.66,445.06,1.00,4,4,4,5976.14,1.90,409754.93,3951.16,1.21,206753.86,7995.53,2.12,481830.59,7046.29,2.01,122472.10,1492.79,0.71,20815.16
914000,1267.36,468.78,1.00,4,4,4,5123.94,0.34,561060.89,14928.24,2.14,926524.01,16853.14,2.16,633565.46,7399.59,2.33,163939.82,777.89,1.00,55869.05
928400,971.09,802.13,1.00,4,4,4,30971.07,2.30,2309499.62,31291.86,2.27,1151992.51,12977.33,2.01,310047.31,3193.76,2.06,306094.89,796.21,0.87,7640.32
942900,687.89,1163.07,1.00,4,4,4,31639.74,2.24,140115.68,11637.72,1.89,1442261.26,13779.61,2.40,355085.09,1867.04,1.24,162791.82,688.00,0.86,7470.73
964800,838.31,1204.39,1.00,4,4,4,7122.56,0.27,1598913.70,3280.51,-2.31,619105.08,845.33,-0.54,667055.48,1613.14,1.01,21334.96,729.66,0.89,2163.83
979000,608.34,1075.34,1.00,4,4,4,18570.51,-2.63,1798667.04,11328.21,-1.16,733517.28,8272.15,-0.69,523731.69,862.93,0.91,53466.16,602.89,0.84,9230.51
1006800,1027.91,768.02,1.00,4,4,4,18708.08,-0.63,1127665.18,13205.90,-0.55,274709.21,8049.85,-0.83,43450.55,2855.53,-0.44,100550.39,680.13,0.69,4476.18
1042400,1323.85,640.55,1.00,4,4,4,9051.12,-0.41,283454.23,6555.18,-0.34,194159.39,9703.57,-0.59,75657.31,5181.88,-0.69,70579.12,691.27,0.90,4011.66
1056400,1334.07,658.57,1.00,4,4,4,1479.93,1.05,643592.16,2430.23,-1.18,374522.70,4437.04,-0.42,384382.81,4913.01,-0.89,75624.63,256.32,0.47,33549.68
1071200,1350.61,575.88,1.00,4,4,4,5697.79,-1.37,465207.79,2425.17,-0.64,87427.51,1260.04,-0.67,218311.10,5377.36,-0.62,99236.47,454.91,-0.26,21352.47
1106700,1432.00,585.83,1.00,1,1,1,2309.66,0.12,168561.08,1019.64,0.06,49904.53,1400.58,-1.27,22412.59,2801.81,-0.62,72554.09,1684.33,-0.71,36338.83
1120800,1401.09,578.97,1.00,1,1,1,2245.35,-2.92,322672.50,2532.89,-2.67,247633.93,792.81,-0.96,49098.68,831.55,-1.29,156618.37,2978.60,-0.84,94116.15
1135600,1366.79,552.58,1.00,1,1,1,2924.52,-2.49,88039.67,1640.24,-1.76,135582.17,1423.67,-1.90,77825.00,1329.41,-1.93,55698.31,3167.47,-0.94,22846.59
1157300,1390.01,520.14,1.00,1,1,1,1838.55,-0.95,156696.26,1805.57,-0.99,59943.19,1063.72,-2.27,26720.27,1016.00,-1.22,39478.57,3106.32,-0.68,36513.28
1171500,1402.44,498.44,1.00,1,1,1,1760.71,-1.05,13934.76,1194.76,2.96,195072.76,1914.75,-2.51,64560.51,1094.27,-2.09,62432.72,1742.58,-0.72,96206.50
1185500,1356.88,526.23,1.00,1,1,1,3812.08,2.59,387256.14,4827.80,-3.01,265131.24,1383.50,-1.43,125126.47,1130.57,-2.39,24065.65,712.18,-1.05,78173.41
1199600,1268.04,480.02,1.00,1,1,1,7102.27,-2.66,431249.18,2906.68,-1.12,451054.75,834.20,-2.42,82400.71,912.14,-1.28,77751.27,958.95,-1.30,22865.18
1221400,1402.37,432.32,1.00,1,1,1,6538.96,-0.34,573869.39,2655.01,-0.18,116432.12,1213.12,-2.50,17725.07,495.07,-2.32,36244.24,1016.00,-1.22,4396.37
1235600,1362.14,463.30,1.00,1,1,1,3575.35,2.49,704220.32,4161.68,2.73,476841.33,2140.24,-0.29,212925.30,524.68,-1.42,31284.20,1094.27,-2.09,62432.72
1249700,1294.50,479.60,1.00,1,1,1,4934.76,2.91,157152.77,1566.60,-0.54,405623.02,1081.16,2.50,225403.73,643.84,-0.71,30103.21,1130.57,-2.39,23894.97
1264400,1400.87,440.15,1.00,1,1,1,7717.72,-0.36,859271.26,1462.03,-0.11,44157.16,922.31,-0.56,136183.80,1191.33,-0.50,39283.59,912.14,-1.28,74577.75
1285600,1346.65,473.72,1.00,1,1,1,3007.89,2.59,503899.52,400.77,-0.63,53309.77,1938.79,-0.06,57258.42,1081.16,2.50,106919.94,495.07,-2.32,37270.02
1299900,1412.40,431.82,1.00,1,1,1,5452.12,-0.57,591597.49,2533.54,-0.02,154960.31,519.76,-1.50,135825.54,922.31,-0.56,139993.13,524.68,-1.42,31065.43
1314600,1420.11,472.29,1.00,1,1,1,2802.82,1.38,475672.81,927.00,-1.92,202020.99,2533.54,-0.02,172833.79,1938.79,-0.06,82576.77,643.84,-0.71,28874.50
1328600,1403.18,406.86,1.00,1,1,1,4827.51,-1.82,544756.74,4827.51,-1.82,279021.74,927.00,-1.92,212122.04,519.76,-1.50,138736.08,1191.33,-0.50,41247.77
