@RELATION gaze_labels

%@METADATA width_px 1920
%@METADATA height_px 1080
%@METADATA width_mm 540.00
%@METADATA height_mm 254.00
%@METADATA distance_mm 620.00


@ATTRIBUTE time INTEGER
@ATTRIBUTE x NUMERIC
@ATTRIBUTE y NUMERIC
@ATTRIBUTE confidence NUMERIC
@ATTRIBUTE handlabeller1 INTEGER
@ATTRIBUTE handlabeller2 INTEGER
@ATTRIBUTE handlabeller_final INTEGER
@ATTRIBUTE speed_1 numeric
@ATTRIBUTE direction_1 numeric
@ATTRIBUTE acceleration_1 numeric
@ATTRIBUTE speed_2 numeric
@ATTRIBUTE direction_2 numeric
@ATTRIBUTE acceleration_2 numeric
@ATTRIBUTE speed_4 numeric
@ATTRIBUTE direction_4 numeric
@ATTRIBUTE acceleration_4 numeric
@ATTRIBUTE speed_8 numeric
@ATTRIBUTE direction_8 numeric
@ATTRIBUTE acceleration_8 numeric
@ATTRIBUTE speed_16 numeric
@ATTRIBUTE direction_16 numeric
@ATTRIBUTE acceleration_16 numeric

%The number after speed, direction denotes the step size that was used for the calculation.
%Acceleration was calculated between two adjacent samples of the already low pass filtered velocity

@DATA
0,159.94,718.77,1.00,1,1,1,0.00,0.00,0.00,1710.25,0.35,0.00,1173.59,0.26,0.00,1006.50,0.34,0.00,527.12,0.74,0.00
14900,183.88,727.51,1.00,1,1,1,1710.25,0.35,114781.66,1173.59,0.26,37045.79,410.92,-0.06,53251.85,928.64,0.52,12911.43,123.15,0.90,27241.81
29800,193.75,727.72,1.00,1,1,1,662.60,0.02,74091.59,410.92,-0.06,53251.85,1006.50,0.34,43445.60,856.13,0.74,13904.01,36.25,2.04,7598.47
50900,198.64,726.65,1.00,1,1,1,237.56,-0.21,20623.48,873.39,0.43,25851.34,928.64,0.52,9117.55,891.40,0.95,8882.47,47.45,2.06,531.78
65400,222.01,740.68,1.00,1,1,1,1879.39,0.54,118213.07,1662.47,0.69,58436.90,856.13,0.74,14287.57,527.12,0.74,27000.53,304.50,-2.93,20340.34
80500,236.70,757.86,1.00,1,1,1,1496.73,0.86,43787.09,900.63,0.98,55618.93,891.40,0.95,12411.93,123.15,0.90,26880.99,248.40,3.05,6553.83
110200,244.60,774.11,1.00,1,1,1,608.53,1.12,31002.11,509.40,1.54,18358.33,376.63,1.72,22698.11,36.25,2.04,3812.03,693.59,0.39,31020.63
125500,237.29,780.77,1.00,1,1,1,646.24,2.40,49152.29,729.63,-3.04,61540.85,541.95,-2.77,47364.09,47.45,2.06,733.36,2223.98,0.22,100903.70
147700,217.38,771.33,1.00,1,1,1,992.67,-2.70,43125.67,1547.00,-2.39,47748.98,1004.82,-2.48,22982.16,304.50,-2.93,13285.36,2169.65,0.25,3481.70
162600,195.23,741.71,1.00,1,1,1,2481.62,-2.21,112041.50,1569.90,-2.16,24172.05,965.22,-2.28,13060.39,248.40,3.05,6641.80,2483.36,0.18,23521.24
177500,191.30,732.48,1.00,1,1,1,673.34,-1.97,123119.68,316.16,-1.54,88974.38,924.45,-2.33,3911.58,693.59,0.39,61833.07,2552.88,0.12,11681.02
191600,195.51,732.55,1.00,1,1,1,298.52,0.02,59583.95,391.08,-3.08,35119.63,349.02,1.24,88719.67,2223.98,0.22,109491.25,2609.77,0.10,5075.16
206600,179.94,731.78,1.00,2,2,2,1039.09,-3.09,89165.46,990.86,1.35,77509.41,2395.37,0.50,143225.56,4197.77,0.18,131907.44,2421.33,0.11,12650.06
221000,201.93,760.96,1.00,2,2,2,2537.39,0.92,229216.99,4547.51,0.48,276671.31,5221.11,0.33,200687.71,5025.85,0.17,57683.12,2375.39,0.11,3214.92
243800,330.36,809.19,1.00,2,2,2,6016.87,0.36,180117.09,8929.60,0.26,201473.96,8629.44,0.24,152170.00,5143.04,0.11,12883.05,2387.70,0.11,559.81
258500,525.66,846.60,1.00,3,3,3,13527.00,0.19,521405.31,14157.35,0.14,367553.38,8553.41,0.14,56831.56,5130.13,0.09,6477.30,2407.70,0.06,8221.76
272500,732.87,864.73,1.00,1,1,1,14856.98,0.09,140284.21,8332.79,0.03,424646.92,7608.62,0.01,99445.11,4815.20,0.12,23870.30,2716.93,-0.02,25776.06
301500,883.83,856.42,1.00,1,1,1,5213.71,-0.05,335312.01,4126.25,-0.23,154005.42,5280.73,-0.10,84173.26,4671.06,0.10,5691.07,2992.46,-0.04,9755.13
323800,939.01,816.64,1.00,1,1,1,3050.21,-0.62,139699.58,2203.10,-0.72,108396.54,2320.14,-0.20,133579.88,3827.51,0.07,38380.87,3308.09,-0.07,14998.09
338300,944.80,802.98,1.00,1,1,1,1023.46,-1.17,154411.85,245.80,0.47,146527.41,835.38,-0.32,103116.40,2603.73,-0.06,88723.43,3425.29,-0.11,11030.94
367300,948.53,821.51,1.00,1,1,1,651.87,1.37,55324.25,750.44,1.50,22700.52,405.53,1.48,34847.29,1750.30,-0.38,37699.15,3453.10,-0.10,1167.07
381300,947.02,835.17,1.00,1,1,1,981.62,1.68,29377.38,772.90,1.81,16715.88,227.47,1.68,13418.35,1598.37,-0.61,29278.57,3291.16,-0.15,16716.02
403900,941.85,849.00,1.00,2,2,2,653.25,1.93,16960.89,386.57,-1.87,49698.47,1165.49,-0.93,60454.74,1883.34,-0.57,13013.24,2981.43,-0.25,19467.67
419000,942.79,821.23,1.00,2,2,2,1840.49,-1.54,163479.57,3466.32,-1.03,213132.39,2377.24,-0.71,83875.54,2137.20,-0.57,16815.38,2436.65,-0.36,40800.33
434000,995.14,759.30,1.00,2,2,2,5406.06,-0.87,274814.88,4245.55,-0.64,113818.31,4121.97,-0.66,116675.26,2377.99,-0.59,16293.27,1831.93,-0.48,44087.84
464100,1096.81,707.47,1.00,1,1,1,3791.23,-0.47,80039.73,4801.20,-0.48,29364.40,4611.32,-0.61,17768.00,2324.41,-0.71,9366.70,1421.90,-0.61,15250.40
478600,1184.71,659.71,1.00,1,1,1,6899.03,-0.50,214532.20,5176.48,-0.58,42807.80,3437.58,-0.50,86884.74,2607.78,-0.79,23781.83,1209.89,-0.60,14693.78
493500,1223.86,623.69,1.00,1,1,1,3570.50,-0.74,237855.67,1796.20,-0.54,227018.34,2259.51,-0.71,88399.17,2525.78,-0.70,15498.48,1169.56,-0.63,4058.80
515600,1241.64,625.42,1.00,1,1,1,808.05,0.10,139845.07,505.94,-2.21,86583.95,1121.21,-1.32,67329.89,1945.78,-0.59,28703.03,1462.39,-0.69,13699.61
531500,1212.37,608.28,1.00,1,1,1,2133.11,-2.61,181546.55,1795.22,-2.35,81492.40,521.21,-1.78,43737.01,1195.07,-0.61,47279.64,1743.47,-0.70,17688.27
546000,1203.39,586.48,1.00,1,1,1,1625.68,-1.96,89229.54,657.20,-1.36,105733.16,424.56,-2.32,18342.91,392.13,-0.75,55768.82,1971.43,-0.64,17437.48
561000,1216.38,589.31,1.00,1,1,1,886.43,0.21,150081.60,988.60,0.77,96600.39,247.96,0.99,44698.09,162.93,-1.86,23369.22,2064.10,-0.54,14509.16
575500,1224.35,606.76,1.00,1,1,1,1322.82,1.14,73296.91,1062.46,1.44,46883.03,726.36,1.15,33344.77,494.46,-1.30,25237.56,1705.23,-0.47,26392.40
590600,1220.46,620.50,1.00,1,1,1,945.49,1.85,56889.69,649.72,1.75,32151.35,201.93,1.48,35681.77,1047.01,-0.67,47090.47,1410.08,-0.46,19605.07
605200,1220.92,625.75,1.00,2,2,2,361.13,1.48,42554.32,485.01,-1.73,76659.74,804.60,-0.89,65704.97,1409.68,-0.36,36038.50,1045.28,-0.40,25442.07
627700,1217.67,602.72,1.00,2,2,2,1033.64,-1.71,61973.24,1924.33,-1.02,70502.21,2014.61,-0.78,54129.93,1681.30,-0.29,12840.56,891.50,-0.29,8141.68
642200,1258.08,565.02,1.00,3,3,3,3811.56,-0.75,229544.52,4257.83,-0.66,175590.06,2468.51,-0.57,44693.31,1520.62,-0.34,12233.69,891.50,-0.33,1998.28
656700,1314.92,526.63,1.00,1,1,1,4729.99,-0.59,78184.26,3168.78,-0.35,109103.86,3248.02,-0.35,69464.48,1594.56,-0.36,5722.39,934.80,-0.25,5608.76
685900,1388.15,517.50,1.00,1,1,1,2527.37,-0.12,93438.83,2859.15,-0.04,33273.64,2119.78,-0.20,40816.00,1572.55,-0.33,1977.32,728.31,-0.18,7371.66
701200,1442.03,521.14,1.00,1,1,1,3529.74,0.07,75412.73,1333.49,0.09,101234.77,1531.07,0.01,45632.11,1660.77,-0.21,13947.42,244.19,-0.03,31899.27
738400,1457.85,524.06,1.00,1,1,1,432.39,0.18,83349.22,431.60,0.29,24561.38,965.55,0.31,18153.49,1425.64,-0.09,7959.03,328.39,3.00,15369.40
754000,1463.89,527.59,1.00,1,1,1,448.52,0.53,9815.25,627.75,1.22,32417.29,486.63,0.74,35958.58,979.26,0.10,32260.10,191.19,2.60,10859.33
769000,1464.53,542.07,1.00,1,1,1,965.87,1.53,54300.48,737.42,1.21,7325.17,504.41,0.71,1590.18,259.65,1.06,57123.79,444.64,0.18,40126.02
784200,1471.84,548.39,1.00,4,4,4,636.05,0.71,46183.30,552.71,0.12,45057.63,258.52,1.31,21380.68,1122.76,2.74,77554.88,1335.50,0.08,58817.15
799400,1481.21,544.08,1.00,4,4,4,678.80,-0.43,46922.45,238.50,-2.16,48052.04,980.35,3.01,68809.42,2670.83,2.86,102724.76,1994.62,0.09,43375.48
813800,1467.93,542.51,1.00,4,4,4,928.42,-3.02,107537.37,2540.58,3.06,168992.68,2820.09,2.93,128031.14,2476.03,2.75,23900.05,1757.20,0.23,24733.19
829000,1406.24,549.95,1.00,4,4,4,4088.23,3.02,210085.71,4990.97,2.90,165696.88,5366.95,2.93,167565.18,1236.74,2.40,90729.63,811.54,0.73,73211.17
851100,1287.19,587.09,1.00,4,4,4,5643.08,2.84,80734.89,7626.97,2.89,119291.49,4642.17,2.80,44500.80,1178.28,0.61,85352.62,651.93,2.15,43462.85
866400,1129.77,620.16,1.00,4,4,4,10513.47,2.93,321923.50,4294.65,2.65,236610.33,1695.82,2.10,229480.90,2755.70,0.21,113090.67,1428.48,2.69,61072.66
881400,1172.77,649.08,1.00,4,4,4,3454.84,0.59,877196.03,7324.84,0.13,739572.03,5225.17,0.15,404217.07,2684.94,0.29,14971.27,2097.23,2.77,45518.03
896500,1348.39,648.72,1.00,4,4,4,11630.19,-0.00,594559.50,14489.46,-0.04,488020.39,11759.66,-0.01,440163.17,1424.14,0.66,96565.19,2378.17,2.73,19648.92
910500,1594.12,633.21,1.00,4,4,4,17587.00,-0.06,430022.47,16531.16,-0.07,149952.35,9673.37,-0.01,149024.55,811.88,0.98,49928.52,2615.90,2.69,18648.27
925100,1820.05,616.03,1.00,4,4,4,15519.39,-0.08,142366.53,5900.85,0.05,732623.96,3174.80,0.09,446530.65,487.61,1.52,31850.98,3026.24,2.71,28590.37
947500,1812.17,644.34,1.00,4,4,4,1312.02,1.84,714898.54,7326.06,2.95,586294.11,3809.60,2.99,309581.21,1710.08,2.81,73439.31,2914.21,2.74,6249.54
961900,1555.25,666.65,1.00,4,4,4,17908.86,3.05,1214731.27,15947.00,3.08,606581.37,10501.80,3.05,465471.83,3570.85,2.84,129313.78,2742.34,2.74,11943.22
976900,1344.13,671.88,1.00,4,4,4,14078.44,3.12,263628.31,14614.52,3.11,92527.72,14561.18,3.05,270672.31,5417.14,2.85,123127.67,2430.24,2.73,20992.48
990800,1133.12,680.73,1.00,4,4,4,15194.15,3.10,82275.91,13147.16,3.02,139003.66,10080.12,2.96,333287.95,7621.12,2.90,160134.88,2006.21,2.62,35100.89
1005400,972.32,718.24,1.00,4,4,4,11309.50,2.91,314607.67,6903.54,2.71,473178.31,6775.62,2.79,246263.65,7330.63,2.94,30103.17,2029.56,2.68,8412.29
1028000,900.30,789.11,1.00,4,4,4,4470.91,2.36,347238.98,3883.41,2.35,156356.58,5548.08,2.67,62942.18,5751.42,2.93,69989.25,2609.16,2.82,29482.31
1058100,828.55,863.89,1.00,4,4,4,3442.99,2.34,34353.72,4427.15,2.62,41062.42,3270.16,2.64,75758.17,4538.81,2.87,41510.67,3480.20,2.90,30062.61
1072600,729.28,887.80,1.00,1,1,1,7041.71,2.91,313070.87,3044.24,3.08,150830.53,2608.61,2.85,61163.95,3426.84,2.72,86983.98,4347.30,2.93,60304.97
1103700,689.96,871.89,1.00,1,1,1,1363.96,-2.76,192449.24,1362.06,-2.65,64759.66,2248.43,-3.14,25745.81,2286.91,2.60,38063.34,4358.80,2.93,759.64
1118700,673.97,858.08,1.00,1,1,1,1408.56,-2.43,30325.04,1084.41,-2.89,26949.67,1202.92,2.97,72320.06,1807.43,2.79,40851.79,3349.71,2.86,69384.64
1133800,658.34,863.79,1.00,1,1,1,1102.20,2.79,86064.96,1902.06,2.23,117819.27,865.09,2.38,44920.25,1509.85,3.10,38935.37,2401.08,2.76,65767.84
1149100,638.67,903.87,1.00,1,1,1,2918.28,2.03,147419.54,1335.55,1.78,59109.83,749.87,2.53,10950.41,994.04,-3.08,34655.61,1617.28,2.60,54785.73
1170500,648.09,911.72,1.00,1,1,1,572.79,0.69,132620.74,496.69,-1.90,83212.04,682.58,2.94,13902.06,704.25,2.73,22788.81,1055.33,2.45,27905.19
1185500,632.89,886.74,1.00,1,1,1,1949.10,-2.12,166529.44,1728.10,-2.30,85669.31,853.26,-2.69,34402.63,621.93,1.96,33450.60,766.49,2.69,24086.45
1200500,613.73,872.89,1.00,2,2,2,1576.07,-2.52,52518.64,1544.12,-2.98,74394.24,667.59,-3.04,21430.17,606.33,1.06,35746.49,179.42,-1.02,61526.78
1214900,588.07,879.55,1.00,2,2,2,1840.97,2.89,102371.18,1188.54,1.72,135858.62,762.89,1.32,81437.99,681.00,0.20,37429.70,1612.65,-0.32,102762.10
1230200,608.43,907.79,1.00,3,3,3,2275.65,0.95,222645.43,2515.00,0.74,137293.46,1562.19,0.63,71227.25,681.51,0.04,7247.82,3120.54,-0.27,98816.68
1245100,644.12,930.80,1.00,1,1,1,2850.22,0.57,74308.96,2520.80,0.29,75980.08,2158.69,0.29,57288.82,562.61,-0.04,8625.36,4192.80,-0.24,72241.11
1267300,698.12,934.28,1.00,1,1,1,2437.25,0.06,62504.31,2247.10,-0.11,43599.92,1873.96,0.06,25056.62,1946.86,-0.21,62828.46,4688.40,-0.21,23276.35
1282500,727.70,921.96,1.00,4,4,4,2108.29,-0.39,71259.74,1361.32,-0.49,72717.22,1135.82,-0.66,83352.64,4492.45,-0.23,167521.78,4341.40,-0.21,22852.79
1297700,734.72,914.97,1.00,4,4,4,651.75,-0.78,100349.16,1510.49,-2.12,138212.17,3234.42,-0.62,138177.25,6757.43,-0.28,150446.82,4242.41,-0.19,8113.80
1312200,704.12,883.80,1.00,4,4,4,3012.46,-2.35,212236.47,5228.19,-0.66,364775.88,7616.28,-0.39,312342.31,8540.10,-0.30,123206.53,4059.21,-0.12,22326.48
1326500,853.90,822.94,1.00,4,4,4,11305.61,-0.39,892276.02,15771.60,-0.29,772564.29,11933.70,-0.34,303908.38,9468.15,-0.27,66670.86,3879.54,-0.11,13457.14
1341100,1140.61,752.54,1.00,4,4,4,20221.11,-0.24,628835.39,17482.65,-0.26,121805.57,16161.15,-0.27,295952.32,7881.24,-0.24,110708.33,3874.86,-0.16,13607.00
1363000,1470.09,657.10,1.00,4,4,4,15663.15,-0.28,210795.72,16469.39,-0.26,46392.90,15159.82,-0.21,63920.38,7490.20,-0.21,20929.68,3722.33,-0.26,19690.18
1378100,1729.73,596.76,1.00,4,4,4,17652.96,-0.23,144382.96,12474.66,-0.12,294218.29,8174.83,-0.14,465642.53,7054.37,-0.13,47042.02,3522.30,-0.37,27804.82
1393700,1850.18,610.20,1.00,4,4,4,7769.06,0.11,682466.99,2152.87,0.73,716353.02,3940.54,0.14,289679.51,5383.62,-0.08,108930.27,3295.97,-0.46,24844.84
1422700,1801.33,660.73,1.00,4,4,4,2423.60,2.34,325749.85,2819.56,2.35,125433.10,1846.75,1.51,137875.73,3412.93,-0.09,67970.52,3110.39,-0.49,7520.92
1437900,1762.30,698.57,1.00,4,4,4,3576.07,2.37,76078.28,2856.60,2.19,30876.46,1962.01,2.28,94496.65,1146.08,-0.17,149523.52,3025.04,-0.46,8509.44
1460200,1739.30,748.07,1.00,4,4,4,2447.65,2.01,69920.85,1245.89,2.13,72378.54,1401.85,2.77,43844.88,907.44,-2.93,90380.86,3030.40,-0.41,7241.17
1489400,1728.08,752.85,1.00,4,4,4,417.60,2.74,73822.10,1443.31,-2.34,72466.33,1682.58,-2.58,48223.56,1957.01,-2.83,36204.83,2445.57,-0.42,20060.99
1504200,1695.01,702.56,1.00,4,4,4,4066.66,-2.15,271165.51,5071.22,-2.14,247780.15,3192.20,-2.25,114386.37,2232.85,-2.62,35018.78,1442.98,-0.53,69095.89
1519100,1646.33,626.35,1.00,4,4,4,6069.24,-2.14,134475.34,5839.63,-2.22,58293.29,4534.67,-2.21,90656.25,2065.79,-2.54,16161.69,394.42,-1.24,78784.61
1533400,1592.06,566.63,1.00,4,4,4,5643.03,-2.31,75300.45,4114.18,-2.28,122615.64,4132.02,-2.29,36168.62,2257.46,-2.41,24282.46,838.65,-2.95,67995.09
1555300,1549.04,513.59,1.00,4,4,4,3118.56,-2.25,115774.50,2810.04,-2.40,62373.71,2542.43,-2.50,79254.55,2534.74,-2.38,12912.70,1237.88,-3.00,18429.68
1570300,1515.44,496.76,1.00,4,4,4,2505.01,-2.68,88638.23,1329.86,2.80,165200.51,1382.79,-2.80,85775.65,2007.58,-2.45,36667.79,1118.56,-2.86,14130.05
1584900,1511.93,526.73,1.00,4,4,4,2066.34,1.69,256938.71,1349.13,1.84,85161.04,933.38,2.77,62505.05,1263.87,-2.65,55462.34,1072.72,-2.72,10845.75
1600300,1504.83,535.82,1.00,4,4,4,749.34,2.23,96001.90,544.81,2.68,69479.09,801.41,1.89,48259.83,759.19,-2.97,38536.99,1145.62,-2.57,11288.67
1614900,1497.27,533.94,1.00,4,4,4,533.64,-2.90,49410.68,260.81,2.20,23041.25,428.88,1.81,25725.81,559.21,2.40,41539.70,1276.78,-2.59,9076.73
1629900,1500.28,542.06,1.00,4,4,4,576.93,1.22,65477.30,655.80,1.13,38624.90,282.75,2.32,15113.90,611.37,1.69,27476.31,1184.31,-2.68,9744.13
1645000,1505.78,551.76,1.00,1,1,1,738.30,1.06,12731.86,302.53,2.39,42055.68,410.29,1.58,18197.64,418.66,1.92,14978.43,836.67,-2.85,25620.87
1667000,1492.05,549.69,1.00,1,1,1,630.71,-2.99,55991.28,355.99,2.32,2692.87,481.71,1.38,5305.98,418.28,2.04,2239.17,462.67,-3.00,17515.74
1681800,1496.90,561.39,1.00,1,1,1,855.31,1.18,87726.12,930.02,1.03,60588.82,413.83,2.02,19596.86,521.95,2.30,10775.65,249.35,2.60,21113.48
1697400,1506.56,573.96,1.00,1,1,1,1016.48,0.92,18773.99,515.95,1.78,41830.95,585.31,1.89,11700.00,619.42,2.79,18689.34,176.35,1.73,12254.71
1712800,1493.62,577.04,1.00,1,1,1,864.03,2.91,102642.12,904.23,2.79,49854.40,812.25,2.67,37104.98,516.11,2.96,9244.35,94.86,1.62,5361.50
1727700,1480.85,583.41,1.00,1,1,1,957.79,2.68,15257.71,1392.39,2.98,35774.50,1340.58,-3.09,50745.03,185.85,-3.11,22601.36,113.94,1.29,2623.84
1742300,1453.08,583.63,1.00,1,1,1,1902.14,3.13,76919.83,1896.48,-2.89,56912.13,863.13,-2.92,34970.20,97.58,-1.96,11735.66,126.70,1.07,2031.67
1757400,1426.25,569.56,1.00,1,1,1,2006.03,-2.66,63241.89,667.46,-2.25,94112.16,461.98,-1.99,46021.54,178.35,-1.53,6514.04,65.30,0.89,4204.82
1779400,1437.56,564.33,1.00,2,2,2,566.47,-0.43,108794.70,854.94,-0.48,53698.77,633.26,-0.74,29754.47,184.87,-0.94,4760.47,34.12,-1.25,4018.82
1809400,1465.60,548.88,1.00,2,2,2,1067.22,-0.50,16790.82,1244.04,-0.29,14653.78,881.38,-0.28,14030.15,225.76,-0.45,3620.87,85.79,-1.20,1723.93
1824700,1491.64,548.47,1.00,1,1,1,1701.97,-0.02,59439.78,955.26,-0.07,24510.23,823.18,-0.15,8401.15,395.46,-0.28,11586.52,114.00,-1.02,2201.23
1853600,1507.73,546.12,1.00,1,1,1,562.85,-0.15,39658.69,442.27,0.27,19245.10,642.34,0.37,14253.43,536.13,-0.15,5273.74,139.05,-1.26,1355.24
1869000,1510.54,553.64,1.00,1,1,1,520.97,1.21,44271.09,612.74,1.29,34937.27,364.94,0.65,20040.76,482.93,-0.30,6038.86,72.81,-2.41,8341.21
1890000,1513.89,567.56,1.00,1,1,1,681.82,1.33,8393.60,370.32,1.23,11616.73,175.10,1.18,11005.35,285.69,-0.56,10485.38,375.07,2.47,17594.63
1904800,1514.92,566.15,1.00,1,1,1,118.00,-0.94,51580.26,371.98,-1.73,49957.38,174.51,-1.71,23435.35,186.12,-0.59,6739.84,796.29,2.49,28464.61
1919400,1512.15,556.76,1.00,1,1,1,670.41,-1.86,41513.68,838.51,-1.82,32130.51,652.89,-1.88,32981.26,115.44,-0.74,5065.89,1192.04,2.43,27347.49
1934000,1508.93,542.41,1.00,1,1,1,1007.46,-1.79,23376.86,884.05,-1.93,7055.82,496.47,-1.59,15409.13,234.92,2.89,23386.69,1451.31,2.52,19345.39
1955800,1500.99,526.58,1.00,1,1,1,812.38,-2.04,13502.02,284.72,-1.04,33867.55,333.42,-1.25,9748.08,1065.32,2.53,38962.36,1645.75,2.63,11764.32
1970800,1514.26,533.39,1.00,1,1,1,994.70,0.47,114573.96,689.53,0.48,48748.52,458.45,2.58,49728.15,2143.95,2.57,72008.70,1691.51,2.67,5708.71
1985200,1518.98,535.92,1.00,2,2,2,371.69,0.49,43270.40,1045.73,2.48,102293.79,2249.77,2.28,126173.19,3088.21,2.54,65757.74,1810.05,2.68,8442.59
2015800,1477.17,562.35,1.00,2,2,2,1616.67,2.58,59771.19,3844.56,2.39,91630.09,4277.48,2.48,69215.36,3427.58,2.56,11433.71,1858.33,2.70,1859.50
2030300,1391.73,653.68,1.00,3,3,3,8625.51,2.32,487786.23,9125.09,2.48,365763.90,5990.43,2.51,118604.48,3624.21,2.62,19530.05,1730.44,2.71,8871.84
2045800,1261.45,730.89,1.00,1,1,1,9769.95,2.61,183008.59,9170.42,2.58,58790.08,7009.90,2.56,69529.45,3622.16,2.66,9590.47,1729.04,2.74,3906.17
2061300,1151.43,805.59,1.00,1,1,1,8579.49,2.55,84928.49,5391.37,2.68,247819.70,5325.58,2.78,137375.82,3583.01,2.68,3991.02,1879.83,2.74,9729.30
2083600,1079.37,822.43,1.00,1,1,1,3318.35,2.91,251551.37,2734.19,-2.93,165481.64,3096.73,2.95,104837.81,3750.27,2.69,7722.55,2008.41,2.66,9148.34
2098700,1051.51,783.85,1.00,1,1,1,3151.38,-2.20,237631.07,1930.18,-1.96,150654.97,1469.36,-2.72,137721.96,2379.94,2.78,92759.19,2306.16,2.63,20214.53
2112800,1057.76,770.37,1.00,1,1,1,1053.94,-1.14,198010.38,740.42,-1.04,113311.75,1011.06,-2.06,64489.88,1414.63,3.00,74008.82,2529.40,2.64,15898.82
2127800,1062.42,765.27,1.00,1,1,1,460.36,-0.83,42022.84,211.67,-3.12,57554.58,125.24,-0.66,66529.91,993.45,-2.88,42178.48,2589.14,2.63,4141.20
2142100,1051.56,770.23,1.00,1,1,1,834.48,2.71,88872.70,247.72,1.80,20344.60,134.49,-2.01,11419.75,726.73,3.13,24516.94,2497.74,2.62,7014.95
2179300,1059.51,777.69,1.00,1,1,1,293.08,0.75,26440.53,188.56,-1.42,11718.34,653.04,3.10,16492.43,1086.98,2.66,14753.58,2049.27,2.66,12371.87
2194600,1053.04,760.44,1.00,2,2,2,1204.46,-1.93,96279.94,1697.35,-2.95,111057.78,1040.90,2.58,37458.05,1577.49,2.60,32579.44,1482.53,2.58,38169.39
2209600,1009.06,767.70,1.00,2,2,2,2971.89,2.98,198845.77,2461.83,2.51,121019.39,2408.85,2.65,91531.75,1725.50,2.56,10754.37,1019.59,2.57,30879.56
2237800,967.31,823.38,1.00,1,1,1,2467.79,2.21,73793.53,3257.58,2.42,29535.55,3191.33,2.55,29442.10,1552.78,2.49,7325.64,873.58,2.52,5440.87
2253100,902.54,861.16,1.00,1,1,1,4900.93,2.61,182833.24,4034.23,2.58,63684.09,2925.11,2.44,28467.92,1747.72,2.49,12744.83,889.72,2.46,3691.52
2275400,838.61,903.66,1.00,1,1,1,3442.53,2.55,66288.37,2538.99,2.47,69100.42,2281.13,2.43,28908.64,1785.80,2.24,19927.08,953.16,2.51,3617.60
2290400,828.56,920.27,1.00,1,1,1,1294.81,2.12,155789.90,790.24,1.10,167003.40,1150.56,2.12,82545.57,1585.19,2.06,23721.27,966.19,2.51,872.04
2306000,849.66,925.17,1.00,1,1,1,1388.89,0.23,139338.62,1090.70,0.25,52616.73,1305.56,0.78,98012.76,1310.32,2.13,18522.97,932.85,2.31,12192.09
2321700,861.65,928.66,1.00,1,1,1,795.19,0.28,38000.21,1873.63,0.64,61409.45,1427.91,0.55,21301.19,729.63,2.09,37068.95,1006.69,2.35,5210.75
2336800,895.80,959.84,1.00,1,1,1,3062.04,0.74,157225.47,1867.26,0.73,10789.17,839.34,0.95,48548.64,237.35,1.75,33897.74,1083.85,2.33,5222.99
2351300,902.78,965.58,1.00,1,1,1,623.72,0.69,168230.98,618.51,2.79,153411.44,249.60,1.93,50349.55,98.21,1.05,12003.13,924.91,2.30,11167.42
2365900,878.91,966.06,1.00,1,1,1,1635.26,3.12,147088.16,1718.59,-2.68,93793.62,1007.08,-2.75,71682.06,381.78,1.19,19508.95,645.45,2.40,19753.60
2381400,856.43,942.62,1.00,1,1,1,2095.57,-2.34,100398.55,1464.60,-2.53,22877.95,1119.04,-2.67,8776.00,333.82,1.39,5527.74,322.59,2.00,23806.18
2404100,833.25,933.73,1.00,1,1,1,1093.54,-2.78,52879.11,643.02,-2.66,36620.27,175.50,2.78,44420.74,355.86,2.91,20990.09,179.49,1.00,11992.99
2419300,834.87,931.25,1.00,1,1,1,195.37,-0.99,75704.87,1727.37,0.81,154313.32,456.32,1.13,33044.44,483.73,-2.91,14971.63,146.68,2.37,13676.58
2433200,867.85,970.20,1.00,1,1,1,3671.51,0.87,268489.32,1811.01,0.84,7333.01,703.70,1.09,17879.42,339.72,-2.48,16383.00,381.78,1.19,25400.37
2448000,869.39,970.11,1.00,1,1,1,104.19,-0.06,243905.86,532.79,-3.13,148904.10,382.71,1.18,21942.48,89.27,-0.42,26324.96,333.82,1.39,5789.18
2462400,852.29,970.07,1.00,1,1,1,1187.26,-3.14,89672.34,1079.22,-2.53,49144.30,610.58,-2.22,68399.37,248.74,0.27,13078.59,355.86,2.91,33088.55
2477500,843.29,951.87,1.00,1,1,1,1344.80,-2.03,88782.11,895.63,-1.85,45306.79,486.22,-1.64,22525.16,274.27,2.69,32450.35,483.73,-2.91,15070.78
2499600,843.18,938.02,1.00,1,1,1,626.34,-1.58,37428.19,749.89,-0.53,45877.11,449.07,-1.20,9379.78,610.58,-2.22,27866.99,339.72,-2.48,10304.24
2514600,867.29,937.80,1.00,2,2,2,1607.93,-0.01,115000.91,685.43,0.19,34150.66,530.97,-3.05,52301.61,486.22,-1.64,22675.33,89.27,-0.42,25973.96
2529600,863.35,942.00,1.00,2,2,2,384.00,2.32,126254.18,1536.53,2.99,146284.32,685.43,0.19,80994.82,449.07,-1.20,13819.54,248.74,0.27,12555.45
2558600,800.43,947.78,1.00,1,1,1,2178.96,3.05,65818.37,2178.96,3.05,22438.08,1536.53,2.99,75664.30,530.97,-3.05,27052.56,274.27,2.69,16896.56
