@RELATION gaze_labels

%@METADATA width_px 1920
%@METADATA height_px 1080
%@METADATA width_mm 540.00
%@METADATA height_mm 254.00
%@METADATA distance_mm 620.00


@ATTRIBUTE time INTEGER
@ATTRIBUTE x NUMERIC
@ATTRIBUTE y NUMERIC
@ATTRIBUTE confidence NUMERIC
@ATTRIBUTE handlabeller1 INTEGER
@ATTRIBUTE handlabeller2 INTEGER
@ATTRIBUTE handlabeller_final INTEGER
@ATTRIBUTE speed_1 numeric
@ATTRIBUTE direction_1 numeric
@ATTRIBUTE acceleration_1 numeric
@ATTRIBUTE speed_2 numeric
@ATTRIBUTE direction_2 numeric
@ATTRIBUTE acceleration_2 numeric
@ATTRIBUTE speed_4 numeric
@ATTRIBUTE direction_4 numeric
@ATTRIBUTE acceleration_4 numeric
@ATTRIBUTE speed_8 numeric
@ATTRIBUTE direction_8 numeric
@ATTRIBUTE acceleration_8 numeric
@ATTRIBUTE speed_16 numeric
@ATTRIBUTE direction_16 numeric
@ATTRIBUTE acceleration_16 numeric

%The number after speed, direction denotes the step size that was used for the calculation.
%Acceleration was calculated between two adjacent samples of the already low pass filtered velocity

@DATA
0,-31.30,760.49,1.00,0,0,0,0.00,0.00,0.00,1707.47,0.36,0.00,1178.98,0.29,0.00,585.27,0.33,0.00,448.12,0.74,0.00
15000,-7.36,769.59,1.00,0,0,0,1707.47,0.36,113831.43,1178.98,0.29,35938.06,408.11,-0.14,55045.22,301.82,-0.33,26175.03,363.60,1.00,8839.25
30100,2.73,770.58,1.00,1,1,1,670.88,0.10,71163.69,408.11,-0.14,54680.68,585.27,0.33,19088.95,271.08,0.17,9649.41,355.41,1.11,2707.14
45500,4.97,767.83,1.00,1,1,1,230.10,-0.89,37418.44,114.58,0.66,22009.24,301.82,-0.33,25495.16,378.47,1.07,19407.25,127.19,1.15,14829.78
67500,6.10,773.22,1.00,1,1,1,250.15,1.36,19696.74,229.21,-0.61,10185.20,271.08,0.17,6623.00,448.12,0.74,6945.82,133.56,-2.85,10777.59
82600,11.94,762.97,1.00,1,1,1,781.09,-1.05,65053.19,486.97,0.03,22067.94,378.47,1.07,19792.83,363.60,1.00,8780.71,80.63,-2.99,3622.29
97600,20.75,773.72,1.00,1,1,1,926.64,0.88,93982.00,931.65,1.39,63522.84,438.55,1.39,9460.25,355.41,1.11,2725.19,744.92,0.27,55003.69
112100,16.98,789.99,1.00,1,1,1,1151.34,1.80,64732.78,911.54,1.94,35006.16,771.53,1.44,23063.34,127.19,1.15,15750.25,2156.73,0.28,97367.20
127500,10.81,799.10,1.00,1,1,1,714.73,2.17,35592.41,616.33,1.53,27679.45,626.21,1.51,9929.64,133.56,-2.85,15396.56,2009.47,0.35,13643.18
141800,17.71,808.28,1.00,1,1,1,802.86,0.93,61860.83,571.11,0.78,30745.02,122.46,-2.22,51125.46,80.63,-2.99,3824.93,2349.12,0.34,23825.59
157200,22.92,810.98,1.00,1,1,1,380.96,0.48,31682.16,673.82,-1.80,77620.21,553.14,-2.17,27978.59,744.92,0.27,53575.02,2063.47,0.34,18566.58
179700,11.98,783.39,1.00,1,1,1,1319.13,-1.95,72278.13,1435.29,-2.23,38727.31,723.22,-1.90,10735.88,2156.73,0.28,62747.75,1951.10,0.34,5028.61
194800,-10.20,768.37,1.00,2,2,2,1773.75,-2.55,66831.72,793.15,-2.00,45428.20,1331.02,-0.13,108207.96,3628.06,0.30,97541.76,1995.28,0.32,3459.26
210300,1.77,761.37,1.00,2,2,2,894.48,-0.53,148748.11,4224.47,0.25,307364.98,4736.40,0.30,230168.32,4416.32,0.29,51001.29,1853.30,0.33,9189.28
224600,111.86,799.22,1.00,2,2,2,8140.35,0.33,530580.36,10408.67,0.36,435391.34,8294.30,0.35,249922.19,3606.78,0.28,56613.58,1795.25,0.34,4169.18
238800,279.78,864.85,1.00,3,3,3,12697.25,0.37,322280.99,12521.16,0.38,150476.60,10119.02,0.36,128564.82,3715.76,0.31,10532.61,1859.00,0.27,9024.94
253500,447.30,934.94,1.00,3,3,3,12352.78,0.40,30887.77,9842.01,0.35,183649.20,5588.37,0.36,308238.93,3919.93,0.32,14057.31,1953.85,0.14,18069.94
268600,554.83,966.68,1.00,1,1,1,7425.12,0.29,333597.46,1821.86,0.29,531464.52,2987.48,0.33,172453.88,3430.38,0.32,32433.05,2218.24,0.02,24173.28
306600,540.06,962.40,1.00,1,1,1,404.70,-2.86,206047.84,880.91,-2.67,70864.63,811.82,0.12,57941.20,2639.87,0.35,20896.32,2581.27,-0.09,11752.78
321500,513.30,945.54,1.00,1,1,1,2122.68,-2.58,116606.04,1142.21,-2.50,20939.80,568.40,-2.49,89389.09,1621.31,0.27,69213.61,2987.45,-0.12,27936.63
335600,513.51,942.60,1.00,1,1,1,209.36,-1.50,144129.82,290.09,-1.78,66920.55,539.40,-2.63,6012.84,802.22,-0.45,81509.35,3161.93,-0.11,12569.38
366800,510.56,932.69,1.00,1,1,1,331.33,-1.86,4942.70,197.30,-3.11,9919.12,243.21,-0.68,21428.79,1095.81,-0.91,16507.44,3115.60,-0.12,1829.84
382800,504.20,942.32,1.00,2,2,2,720.78,2.15,60469.11,558.22,0.07,47212.96,1036.34,-0.91,50103.43,2230.63,-0.74,72660.14,2701.59,-0.19,29006.02
397500,527.65,933.89,1.00,2,2,2,1695.03,-0.34,157334.90,2865.85,-0.83,173801.00,2814.34,-0.61,126011.39,3023.55,-0.65,56325.82,2244.54,-0.30,36391.87
412700,562.25,879.29,1.00,2,2,2,4253.01,-1.01,203646.44,4792.62,-0.67,132378.12,5013.10,-0.63,144721.80,3195.80,-0.63,12113.42,1844.15,-0.52,38656.14
434600,667.04,823.50,1.00,1,1,1,5420.53,-0.49,124079.01,6829.50,-0.56,97409.40,6182.21,-0.65,53740.51,3611.60,-0.64,19007.77,1622.24,-0.60,12259.22
449300,774.17,746.73,1.00,1,1,1,8965.88,-0.62,249226.16,7914.00,-0.64,83524.16,5753.21,-0.57,43006.51,3647.34,-0.67,7768.31,1848.09,-0.50,19293.68
464400,856.58,683.17,1.00,1,1,1,6892.36,-0.66,138533.52,4442.63,-0.60,230346.54,4502.78,-0.66,87487.34,3503.87,-0.62,14945.14,1871.00,-0.45,6932.53
479300,884.13,671.42,1.00,1,1,1,2010.18,-0.40,333711.84,1234.39,-0.78,217151.90,2197.59,-0.77,156416.84,3131.74,-0.54,30990.32,1755.61,-0.42,8622.20
495400,883.79,656.26,1.00,1,1,1,941.89,-1.59,116568.53,703.88,-2.12,79196.68,663.23,-0.29,101780.38,2402.96,-0.43,48957.65,1717.64,-0.38,4836.78
511300,872.33,652.24,1.00,1,1,1,763.78,-2.80,61720.54,630.90,0.89,83775.06,411.91,0.05,19287.44,1606.42,-0.13,62261.91,1618.67,-0.41,6965.19
526600,896.17,671.56,1.00,1,1,1,2005.80,0.68,178892.78,1402.18,0.50,55746.91,1115.96,0.54,50832.28,946.70,0.35,57605.94,1454.10,-0.45,11419.36
541800,909.84,672.77,1.00,1,1,1,903.08,0.09,89100.25,1570.58,0.43,13115.96,1910.83,0.58,52374.48,789.06,0.84,29513.84,1125.09,-0.35,23195.36
563300,948.58,695.54,1.00,2,2,2,2090.09,0.53,61934.65,2352.85,0.61,39924.57,1385.23,0.62,24711.32,926.88,1.25,17453.71,704.77,-0.42,19778.42
577300,978.15,720.84,1.00,2,2,2,2779.55,0.71,57839.88,1249.50,0.93,87655.24,1282.63,1.06,41660.76,986.52,1.47,15435.21,253.64,-0.20,32896.48
592900,970.76,725.14,1.00,1,1,1,548.12,2.61,192641.98,1181.35,2.34,100951.68,1302.36,1.93,70026.02,840.66,1.88,25621.37,186.26,2.24,26502.12
609000,952.20,747.84,1.00,1,1,1,1821.19,2.26,82109.82,2152.16,2.42,60805.04,1770.91,2.60,68180.27,772.34,2.07,10204.42,329.61,2.52,9931.91
623900,920.88,769.44,1.00,1,1,1,2553.83,2.54,63793.17,2456.42,2.73,51910.42,1940.66,2.72,19408.38,842.06,2.70,34147.87,159.85,2.67,11628.20
639000,884.79,777.60,1.00,1,1,1,2450.43,2.92,63186.72,1946.65,3.08,60987.40,1241.46,2.89,49298.32,854.73,3.06,19622.04,182.78,-0.31,22619.53
653500,863.37,773.08,1.00,1,1,1,1509.42,-2.93,86132.79,589.03,-2.99,94943.86,1034.50,-2.86,44138.02,907.85,3.14,6156.14,501.79,-0.71,23536.73
689700,855.26,773.12,1.00,1,1,1,224.08,3.14,35670.96,691.58,-2.26,12850.85,636.24,-2.29,16600.23,914.85,-3.00,3667.68,776.43,-0.55,8070.70
704600,840.78,745.90,1.00,1,1,1,2069.22,-2.06,132552.90,953.59,-1.82,29761.32,608.18,-2.28,2017.58,753.91,-2.27,41053.05,826.31,-0.62,4790.88
733800,844.89,732.37,1.00,1,1,1,484.29,-1.28,60257.86,524.56,-2.29,18554.94,835.10,-2.39,8254.06,914.26,-1.31,26920.44,755.13,-0.67,2889.32
755500,823.15,725.85,1.00,2,2,2,1045.80,-2.85,53175.98,1071.87,-3.01,34947.02,861.17,-1.55,32078.99,1418.57,-0.94,30351.07,817.45,-0.66,2943.14
770400,806.01,727.12,1.00,2,2,2,1153.44,3.07,27715.18,1808.89,-1.19,155388.64,1894.19,-0.89,88492.55,2188.59,-0.72,57608.40,891.32,-0.70,5560.96
784500,842.55,677.11,1.00,3,3,3,4392.53,-0.94,369821.04,5163.98,-0.66,263572.72,3292.82,-0.68,105734.65,2267.27,-0.56,26170.82,975.65,-0.72,6142.96
799000,922.42,636.24,1.00,3,3,3,6188.07,-0.47,207352.09,4439.89,-0.56,61083.91,4745.36,-0.53,108795.64,2351.03,-0.46,16724.62,1060.44,-0.67,6845.96
829200,1011.09,572.32,1.00,1,1,1,3619.28,-0.62,88308.80,4532.35,-0.43,18449.36,4056.33,-0.39,30757.07,2658.84,-0.42,10818.25,1067.26,-0.64,1158.53
844600,1109.96,549.39,1.00,1,1,1,6590.88,-0.23,229899.36,3783.87,-0.15,89565.21,2909.48,-0.25,80838.13,2716.28,-0.41,3900.37,1183.06,-0.60,7952.02
867300,1153.57,550.35,1.00,1,1,1,1921.47,0.02,209380.93,1466.02,0.52,122912.70,2303.70,0.01,39223.97,2222.16,-0.33,23385.57,1169.45,-0.52,4128.41
882600,1158.34,577.02,1.00,1,1,1,1770.86,1.39,153052.60,905.57,1.01,51902.87,810.48,0.47,105691.05,1551.60,-0.27,44531.38,1266.26,-0.48,7130.08
897300,1167.97,573.39,1.00,1,1,1,700.24,-0.36,137404.76,107.78,-1.43,67368.20,421.93,1.98,60633.74,879.25,0.03,51347.77,1509.99,-0.44,16993.19
912000,1158.79,573.89,1.00,1,1,1,625.26,3.09,89115.74,804.63,3.13,56363.21,364.59,3.10,28690.58,300.49,0.83,47973.90,1638.91,-0.42,9027.90
927700,1143.51,573.77,1.00,1,1,1,973.27,-3.13,22378.83,747.26,2.96,8923.82,579.06,3.08,13673.21,261.46,2.22,22898.17,1519.96,-0.35,10803.72
942100,1136.66,577.92,1.00,1,1,1,556.28,2.60,40225.85,391.59,3.00,24743.22,335.37,2.90,17806.58,64.07,-2.31,19482.56,1252.60,-0.30,19060.26
963900,1129.48,575.76,1.00,1,1,1,344.31,-2.85,19010.48,38.17,1.29,18280.83,155.82,2.85,8254.02,230.19,-0.79,10795.58,860.20,-0.16,19208.69
978800,1137.04,579.27,1.00,1,1,1,559.99,0.43,60547.52,143.70,0.23,8685.45,266.18,-0.40,28285.94,557.54,-0.49,23178.16,502.88,-0.12,24050.82
993800,1133.65,576.76,1.00,2,2,2,281.35,-2.50,55830.69,603.89,-0.48,33594.39,1066.34,-0.37,53351.63,836.82,-0.39,19173.44,369.47,-0.35,11011.07
1008400,1152.92,571.06,1.00,2,2,2,1376.12,-0.29,106954.39,2035.88,-0.41,98197.15,1355.50,-0.43,20394.02,963.96,-0.36,8893.55,417.72,-0.59,7472.36
1023100,1188.25,552.72,1.00,3,3,3,2707.71,-0.48,93983.73,1855.95,-0.42,12287.95,1647.38,-0.38,20593.59,869.21,-0.33,6719.84,377.99,-0.52,3382.24
1052900,1228.23,537.16,1.00,1,1,1,1439.79,-0.37,43139.76,1428.12,-0.35,14901.36,1537.46,-0.35,3988.35,814.84,-0.38,2400.40,367.98,-0.44,1078.44
1074700,1257.48,527.46,1.00,1,1,1,1413.23,-0.32,3553.65,1163.74,-0.21,14741.68,749.04,-0.28,36312.20,855.02,-0.48,4251.91,367.94,-0.23,3423.08
1089100,1269.45,528.46,1.00,1,1,1,834.55,0.08,50267.10,114.58,1.61,83132.96,329.82,-0.19,29301.69,762.51,-0.53,6931.16,512.13,-0.04,11594.36
1119100,1257.27,532.54,1.00,1,1,1,428.36,2.82,41320.65,339.85,2.90,10894.28,182.36,-2.01,13800.61,500.86,-0.42,8984.49,794.76,0.06,9640.35
1134200,1254.57,532.15,1.00,1,1,1,180.29,-2.99,18532.28,601.00,-1.88,44450.85,291.19,-2.23,7948.62,190.40,-0.30,20710.45,1074.35,0.03,18591.10
1149600,1251.72,515.07,1.00,1,1,1,1124.08,-1.74,70286.82,692.04,-1.50,16689.32,215.65,-1.18,17003.59,173.29,2.04,21759.80,1332.43,0.03,16759.80
1164900,1256.01,510.95,1.00,1,1,1,388.71,-0.77,62720.54,321.30,0.35,54936.43,51.18,-1.38,10841.67,325.20,1.24,15604.28,1344.82,0.01,2089.68
1186400,1262.83,519.14,1.00,4,4,4,495.53,0.88,30294.43,490.13,1.62,23183.92,525.37,1.72,26815.34,867.74,0.51,30885.79,1162.16,0.09,9736.31
1201300,1255.22,528.77,1.00,4,4,4,824.08,2.24,58356.69,1184.24,2.07,51978.17,1026.29,1.14,44064.52,1505.45,0.28,46083.26,1083.66,0.26,13698.21
1215300,1246.44,549.18,1.00,4,4,4,1586.96,1.98,58531.85,1787.75,0.98,116077.71,1795.18,0.63,73465.89,2087.06,0.27,41573.10,985.45,0.44,14880.25
1230400,1284.19,571.98,1.00,4,4,4,2920.85,0.54,207147.56,3219.30,0.34,137885.26,3046.10,0.30,97112.24,2218.92,0.22,11294.05,897.41,0.46,6047.78
1252100,1358.17,588.57,1.00,4,4,4,3493.67,0.22,54151.52,4448.59,0.10,70345.98,4136.11,0.15,56288.27,2138.99,0.24,4276.41,857.95,0.39,3396.79
1267100,1446.65,588.15,1.00,4,4,4,5899.10,-0.00,174212.33,5423.83,0.00,72548.53,3902.57,0.01,39346.03,2194.47,0.31,11017.45,638.76,0.27,15776.61
1281300,1516.54,588.71,1.00,4,4,4,4922.01,0.01,68979.39,3266.13,-0.14,157970.41,2776.51,-0.03,79946.14,2051.16,0.35,11194.91,449.21,0.21,13546.00
1295800,1539.41,574.61,1.00,4,4,4,1852.64,-0.55,241015.86,248.95,-0.86,212619.44,1226.20,0.35,117570.08,1635.69,0.31,29005.79,306.17,0.14,10036.11
1310900,1521.33,583.11,1.00,4,4,4,1322.74,2.70,209964.27,1588.96,2.17,121638.87,831.82,1.86,95395.86,860.28,0.27,51468.45,174.28,-0.19,10094.16
1324900,1513.15,612.67,1.00,4,4,4,2190.68,1.84,118914.83,1700.34,1.91,31642.16,1240.41,2.26,40556.96,193.60,-2.78,75224.66,162.71,-0.60,4894.35
1347100,1500.67,641.09,1.00,4,4,4,1398.27,1.98,37441.11,971.34,2.36,41721.79,1071.36,2.64,21122.62,939.07,-2.82,33587.77,182.85,-0.72,1329.31
1361300,1488.02,637.54,1.00,4,4,4,925.70,-2.87,110257.03,1646.49,-2.59,119700.69,1210.50,-2.79,67605.26,1230.76,-2.88,21158.04,88.45,-1.65,10384.85
1375600,1460.65,616.60,1.00,4,4,4,2409.82,-2.49,110997.67,2004.42,-2.42,33592.14,1754.15,-2.46,50209.10,1227.91,-2.80,7440.92,286.96,-2.83,18626.32
1405600,1421.59,578.62,1.00,4,4,4,1816.13,-2.37,21448.83,1813.32,-2.41,6392.80,1871.65,-2.47,3927.59,1355.64,-2.67,7046.21,570.91,-3.05,9918.47
1437000,1377.99,542.02,1.00,4,4,4,1813.02,-2.44,4236.39,1765.72,-2.52,6324.30,1589.55,-2.51,9234.64,1442.14,-2.60,4133.49,795.49,-3.10,7235.82
1459000,1345.20,523.35,1.00,4,4,4,1715.03,-2.62,15128.58,1355.13,-2.66,21254.10,1485.06,-2.59,7414.39,1302.04,-2.72,9940.59,868.09,-3.12,3419.60
1489700,1314.69,508.94,1.00,4,4,4,1098.91,-2.70,20357.83,1173.98,-2.71,6303.94,1148.30,-2.82,14840.20,1104.71,-2.85,8299.07,789.80,-3.08,2768.05
1505000,1296.06,500.95,1.00,1,1,1,1325.15,-2.74,15063.02,902.05,3.01,41007.81,882.32,2.81,45552.89,893.82,-3.10,20943.74,742.03,-3.00,5076.24
1519400,1288.12,512.39,1.00,1,1,1,966.35,2.18,102457.94,1565.15,1.88,100074.33,1104.95,2.18,44933.24,737.64,2.80,24264.73,749.82,-2.81,10125.45
1534600,1282.16,545.15,1.00,1,1,1,2190.79,1.75,90166.80,1740.73,1.79,15035.99,1129.30,1.87,22782.67,594.84,2.55,14293.26,678.85,-2.68,7481.74
1548800,1277.16,562.38,1.00,1,1,1,1263.28,1.85,66412.16,774.88,1.87,68341.24,1033.99,1.76,10860.64,550.02,2.07,19465.49,596.01,-2.85,9352.96
1571000,1273.90,572.12,1.00,1,1,1,462.73,1.89,36087.50,457.26,1.68,15184.87,394.13,1.82,28876.25,653.81,1.65,12185.90,732.98,2.87,17630.76
1584700,1275.40,578.70,1.00,1,1,1,492.61,1.35,18963.14,102.03,-0.85,39708.19,127.19,0.97,23686.47,410.39,1.63,17787.15,1445.86,2.68,53973.03
1599500,1275.81,569.93,1.00,1,1,1,593.19,-1.52,72696.99,381.92,-0.97,18973.55,319.46,0.55,14215.18,148.35,0.03,29712.17,2320.35,2.64,59285.99
1614600,1281.87,569.29,1.00,1,1,1,403.70,-0.10,44053.07,619.86,0.70,50330.41,233.56,-0.90,24626.86,67.18,0.14,5425.04,3167.12,2.66,56179.98
1628900,1289.71,581.71,1.00,1,1,1,1027.18,1.01,64521.49,115.49,-0.72,42949.68,524.78,-0.75,20710.20,680.87,2.32,50438.44,3479.30,2.64,22225.85
1651400,1285.05,566.47,1.00,2,2,2,708.29,-1.87,76472.01,992.29,-1.25,39732.23,104.02,-0.94,18804.60,2270.85,2.64,72821.21,3508.61,2.60,6439.37
1667100,1301.80,545.79,1.00,2,2,2,1695.30,-0.89,90809.39,97.94,-1.25,56965.26,1335.52,2.52,91384.89,4220.63,2.66,124242.61,3088.56,2.56,28154.53
1681800,1286.00,563.65,1.00,2,2,2,1622.43,2.30,225641.80,4082.30,2.34,283733.11,4976.76,2.62,248334.76,5820.42,2.71,110461.18,3047.93,2.60,8006.84
1697600,1215.18,635.23,1.00,2,2,2,6372.81,2.35,300869.57,9945.28,2.61,386983.93,9530.05,2.64,288344.20,6510.14,2.73,43889.69,2908.39,2.63,10956.59
1712700,1020.58,718.54,1.00,3,3,3,14019.05,2.74,560496.47,15364.52,2.72,369954.35,12353.89,2.71,193238.05,7086.32,2.66,49365.17,2838.38,2.68,10578.61
1727300,798.24,820.67,1.00,1,1,1,16758.72,2.71,189642.04,14923.45,2.78,62570.89,12481.67,2.75,36341.65,6038.60,2.58,80429.08,2854.74,2.71,4955.69
1742600,603.87,878.08,1.00,1,1,1,13246.61,2.85,268627.05,9661.77,2.79,344225.78,9246.83,2.68,217853.49,5921.14,2.60,13916.95,2820.63,2.69,3738.43
1757500,523.80,919.79,1.00,1,1,1,6058.71,2.66,496134.73,3965.68,2.30,433972.57,3580.71,2.45,390355.77,4716.90,2.67,83872.22,2872.61,2.69,3547.14
1772700,524.74,967.46,1.00,1,1,1,3136.82,1.55,358271.78,1910.56,1.14,239983.77,1563.38,1.95,153131.16,3299.04,2.71,93809.58,2889.47,2.68,3395.39
1811300,567.03,1013.05,1.00,1,1,1,1610.81,0.82,57291.53,829.22,0.78,30323.65,629.58,1.14,31602.63,1765.50,2.80,40179.09,2821.08,2.64,3182.78
1825300,555.79,998.10,1.00,1,1,1,1335.84,-2.22,210198.56,908.75,-2.01,122190.38,360.12,-0.93,61468.79,508.26,2.49,92308.84,2575.44,2.67,18125.46
1856100,549.81,976.16,1.00,1,1,1,738.50,-1.84,22887.44,1299.78,-1.73,15938.99,1402.86,-1.89,40045.22,163.10,1.34,15111.41,2142.37,2.77,16068.61
1871300,546.11,939.10,1.00,1,1,1,2449.91,-1.67,113545.34,2163.87,-1.81,57537.79,863.26,-1.83,35730.83,251.37,-0.93,24822.20,1312.31,2.86,55467.76
1885800,534.35,913.78,1.00,1,1,1,1925.71,-2.01,61687.24,360.06,-2.30,127825.64,546.93,-2.15,26508.36,639.52,-1.21,27854.23,527.63,-3.06,58106.65
1907800,537.34,929.32,1.00,2,2,2,719.20,1.38,119513.04,891.67,1.71,52631.70,85.91,-0.94,23764.90,896.22,-0.90,15808.15,263.38,-0.98,31590.61
1922200,529.97,945.94,1.00,2,2,2,1262.80,1.99,54710.49,464.84,0.41,61470.48,1018.30,0.24,68674.87,1231.05,-0.88,23299.52,523.71,-0.60,20520.16
1936100,549.39,934.60,1.00,2,2,2,1617.65,-0.53,197349.09,2457.90,-0.23,151489.21,1741.96,-0.30,72788.15,1182.04,-0.81,6917.55,633.93,-0.97,17201.75
1951000,598.84,929.57,1.00,3,3,3,3335.96,-0.10,132906.37,3057.43,-0.39,49507.07,2493.53,-0.64,69371.11,1166.55,-0.76,3691.73,780.01,-1.27,17256.02
1966300,634.78,899.47,1.00,1,1,1,3063.89,-0.70,123926.84,2864.70,-0.96,110167.66,2235.11,-0.80,30172.85,1261.88,-0.81,7293.19,723.95,-1.15,6902.80
1981600,648.82,857.55,1.00,1,1,1,2889.13,-1.25,106257.24,2032.88,-1.31,76847.78,1960.38,-1.20,57595.74,1302.64,-0.75,5447.16,734.76,-0.86,13688.07
2003600,654.32,826.20,1.00,1,1,1,1446.82,-1.40,67018.91,1388.47,-1.63,38317.68,1277.45,-1.43,35062.13,1128.84,-0.98,14847.64,554.73,-0.65,10342.36
2017600,645.62,807.67,1.00,1,1,1,1462.37,-2.01,62683.85,466.74,-2.15,72112.42,354.62,-1.55,66150.85,938.87,-1.32,28271.26,360.19,-0.57,14126.35
2033400,646.68,814.58,1.00,1,1,1,442.39,1.42,119676.13,883.39,1.43,83587.17,468.15,-2.76,30304.11,621.06,-1.55,22998.99,168.65,-1.58,19361.85
2047800,649.37,834.08,1.00,1,1,1,1367.30,1.43,64235.21,619.57,3.06,77106.66,324.40,2.73,23109.88,265.05,-0.82,31948.94,358.66,-2.92,25042.15
2062500,628.71,816.00,1.00,1,1,1,1868.36,-2.42,206555.51,985.49,-2.42,48333.36,161.27,2.91,11446.12,220.30,1.36,29273.15,1128.84,-0.98,88582.15
2076600,628.08,815.33,1.00,1,1,1,65.32,-2.33,127896.53,211.10,0.13,82746.25,355.76,-0.09,36591.19,516.79,2.10,27249.15,938.87,-1.32,28070.76
2099100,636.37,817.01,1.00,1,1,1,376.03,0.20,19158.72,1274.02,0.36,47522.11,734.94,0.87,26906.02,922.90,2.57,23112.45,621.06,-1.55,16150.40
2114100,672.86,831.95,1.00,1,1,1,2629.27,0.39,150735.50,1461.10,0.99,58040.99,759.65,1.88,48127.13,1638.14,2.74,49516.78,265.05,-0.82,30670.98
2128700,660.13,853.14,1.00,2,2,2,1693.50,2.11,228546.86,2300.86,2.65,194348.94,1597.79,2.55,75824.26,734.94,0.87,135791.42,220.30,1.36,29473.65
2143700,612.74,863.93,1.00,2,2,2,3240.22,2.92,160076.10,2790.13,2.89,51978.49,3386.81,2.77,124069.43,759.65,1.88,48127.13,516.79,2.10,25614.20
2174200,537.08,884.39,1.00,1,1,1,2569.56,2.88,22314.24,4107.98,2.81,44234.96,2790.13,2.89,23359.29,1597.79,2.55,36296.20,922.90,2.57,17050.17
2189100,436.54,925.08,1.00,1,1,1,7279.28,2.76,318018.50,7279.28,2.76,213646.79,4107.98,2.81,90548.07,3386.81,2.77,124902.11,1638.14,2.74,49849.11
