@RELATION gaze_labels

%@METADATA width_px 1920
%@METADATA height_px 1080
%@METADATA width_mm 540.00
%@METADATA height_mm 254.00
%@METADATA distance_mm 620.00


@ATTRIBUTE time INTEGER
@ATTRIBUTE x NUMERIC
@ATTRIBUTE y NUMERIC
@ATTRIBUTE confidence NUMERIC
@ATTRIBUTE handlabeller1 INTEGER
@ATTRIBUTE handlabeller2 INTEGER
@ATTRIBUTE handlabeller_final INTEGER
@ATTRIBUTE speed_1 numeric
@ATTRIBUTE direction_1 numeric
@ATTRIBUTE acceleration_1 numeric
@ATTRIBUTE speed_2 numeric
@ATTRIBUTE direction_2 numeric
@ATTRIBUTE acceleration_2 numeric
@ATTRIBUTE speed_4 numeric
@ATTRIBUTE direction_4 numeric
@ATTRIBUTE acceleration_4 numeric
@ATTRIBUTE speed_8 numeric
@ATTRIBUTE direction_8 numeric
@ATTRIBUTE acceleration_8 numeric
@ATTRIBUTE speed_16 numeric
@ATTRIBUTE direction_16 numeric
@ATTRIBUTE acceleration_16 numeric

%The number after speed, direction denotes the step size that was used for the calculation.
%Acceleration was calculated between two adjacent samples of the already low pass filtered velocity

@DATA
0,679.81,886.61,1.00,1,1,1,0.00,0.00,0.00,6190.63,0.31,0.00,4433.36,0.36,0.00,2104.69,0.50,0.00,568.35,0.44,0.00
15100,768.72,915.48,1.00,1,1,1,6190.63,0.31,409975.82,4433.36,0.36,117573.55,1550.17,0.66,197564.22,710.31,0.87,97096.98,200.77,1.41,32061.76
30000,804.18,933.74,1.00,1,1,1,2676.95,0.48,239902.78,1550.17,0.66,200216.09,2104.69,0.50,41723.10,273.82,-3.12,61335.88,94.84,1.58,7287.03
45000,805.46,943.74,1.00,1,1,1,671.67,1.44,157444.03,626.38,2.34,115786.25,710.31,0.87,97744.29,560.09,-2.63,22917.19,619.62,-0.52,44820.35
60200,791.02,947.33,1.00,1,1,1,979.29,2.90,73780.94,344.76,2.71,21652.34,273.82,-3.12,60125.31,568.35,0.44,74191.78,1556.89,-0.61,61989.84
75000,796.07,948.07,1.00,1,1,1,345.26,0.15,88193.15,350.74,-2.06,32242.03,560.09,-2.63,23226.89,200.77,1.41,32711.66,2419.70,-0.65,58462.96
105400,783.54,933.35,1.00,1,1,1,636.03,-2.28,30400.05,780.79,-2.43,15458.41,384.21,-2.49,6152.92,94.84,1.58,3571.60,3400.39,-0.63,32316.13
127500,765.13,921.18,1.00,1,1,1,998.35,-2.56,19262.79,458.60,-2.77,17328.51,229.51,-3.08,10410.56,619.62,-0.52,30421.05,4018.72,-0.56,29976.74
157900,761.07,924.69,1.00,2,2,2,176.56,2.43,31765.88,601.05,1.24,31643.21,311.61,0.64,17082.02,1556.89,-0.61,30994.92,2200.89,-0.42,61470.12
172200,773.81,946.61,1.00,2,2,2,1772.74,1.04,122285.01,1661.91,0.51,89495.33,1704.09,-0.20,105947.31,2419.70,-0.65,60507.12,1979.02,-0.46,16810.50
187500,804.02,948.68,1.00,2,2,2,1979.02,0.07,115565.37,4198.55,-0.41,226008.77,4059.35,-0.48,161220.26,3400.39,-0.63,64209.84,1830.03,-0.48,9943.47
202500,890.35,895.59,1.00,2,2,2,6756.44,-0.55,351485.52,6693.02,-0.65,186081.18,6202.57,-0.61,149486.03,4018.72,-0.56,44165.73,1838.91,-0.48,599.59
224200,999.64,800.13,1.00,3,3,3,6687.32,-0.72,51642.64,7970.71,-0.70,61273.69,7530.85,-0.68,64473.02,4546.64,-0.54,24861.79,1883.51,-0.51,3772.62
238900,1112.28,708.71,1.00,1,1,1,9868.47,-0.68,217325.49,8590.16,-0.70,42199.22,6839.01,-0.66,47436.08,4536.92,-0.51,6959.74,1874.19,-0.59,9468.48
253400,1190.87,637.80,1.00,1,1,1,7300.00,-0.73,179765.41,5431.20,-0.60,223284.39,5112.66,-0.59,123123.40,4057.82,-0.50,33240.07,2008.88,-0.64,11446.47
267800,1241.83,620.09,1.00,1,1,1,3746.77,-0.33,285793.26,1971.68,-0.06,268970.06,2767.57,-0.26,183320.17,3286.73,-0.47,54236.07,1943.35,-0.61,6304.25
282700,1248.53,634.26,1.00,1,1,1,1052.08,1.13,253820.69,1796.65,1.03,131909.65,1487.16,0.55,137678.69,2326.59,-0.43,64898.45,1994.40,-0.58,4882.23
297700,1269.37,666.22,1.00,1,1,1,2543.16,0.99,100511.03,1643.40,1.12,13974.15,1291.44,1.12,54058.65,1186.83,-0.43,75984.32,1971.69,-0.59,1995.72
320100,1275.54,689.48,1.00,1,1,1,1074.23,1.31,69630.57,904.00,1.27,34034.25,706.16,1.17,26211.80,380.78,-0.75,37219.66,1764.22,-0.61,9370.72
335200,1279.47,698.58,1.00,1,1,1,656.56,1.16,28857.44,458.25,-2.22,88992.58,426.41,-2.38,73536.22,203.89,-2.75,33225.15,1377.29,-0.62,25640.05
350500,1267.09,678.40,1.00,1,1,1,1547.21,-2.12,143730.57,2023.63,-2.10,102579.80,1640.44,-2.10,80777.77,211.32,-2.85,1388.60,895.17,-0.62,31518.39
365200,1248.57,646.32,1.00,1,1,1,2519.84,-2.09,66261.38,2875.33,-2.08,58075.31,1486.96,-2.19,14413.95,329.80,-2.69,8534.24,365.92,-0.70,36112.43
379700,1226.14,605.10,1.00,1,1,1,3236.16,-2.07,49644.07,1134.06,-2.30,123226.08,886.22,-2.31,42464.02,384.61,-2.57,4804.86,21.32,-0.43,23819.48
409300,1215.15,609.11,1.00,2,2,2,395.05,2.79,108160.92,410.53,1.94,46247.11,288.31,-3.07,23853.30,451.80,-2.65,2513.75,155.99,2.95,5971.83
432000,1218.34,625.11,1.00,1,1,1,718.49,1.37,33711.47,965.66,1.30,30031.46,526.52,1.60,26865.64,426.87,-2.73,1967.03,171.46,3.12,1380.94
447500,1224.90,644.69,1.00,1,1,1,1332.37,1.25,40406.35,704.12,1.38,17312.12,666.67,1.54,9330.87,307.12,-2.99,9854.91,240.58,-3.08,4592.93
477700,1224.56,656.68,1.00,1,1,1,397.18,1.60,32093.95,477.64,1.95,13269.74,388.15,2.02,12216.78,232.81,2.35,8416.22,256.66,-3.09,540.02
492800,1216.81,664.75,1.00,1,1,1,741.45,2.34,34492.30,654.60,-2.88,50447.74,325.75,-2.93,29394.42,172.88,2.36,3973.88,74.06,-2.25,14238.77
507800,1205.53,651.59,1.00,1,1,1,1155.61,-2.28,95479.90,742.43,-2.24,29948.78,428.67,-2.48,13057.21,157.08,2.70,3894.76,502.44,-0.04,36628.72
537800,1196.14,638.50,1.00,1,1,1,536.89,-2.19,20749.99,359.66,-2.06,13133.53,507.97,-2.13,6081.82,216.06,2.61,2050.03,1208.66,0.07,23711.74
559800,1196.79,635.06,1.00,1,1,1,159.39,-1.38,20092.56,250.76,-1.72,6778.73,227.10,-2.12,12768.01,264.47,2.37,3434.09,1875.82,0.10,30403.04
575000,1194.80,629.27,1.00,1,1,1,402.58,-1.90,18137.44,36.30,2.59,17569.64,350.20,1.59,36538.57,308.22,0.31,32302.53,2370.39,0.07,32795.36
590000,1195.86,635.63,1.00,1,1,1,429.48,1.41,55277.43,1099.80,1.55,72145.52,679.85,1.61,21981.60,1370.02,0.09,71426.13,2432.41,0.04,6161.44
604700,1195.64,661.92,1.00,1,1,1,1789.09,1.58,93066.29,1129.89,1.59,3853.66,1069.91,0.63,60614.35,2981.31,0.08,109625.69,2242.87,-0.01,15058.18
634300,1194.99,685.67,1.00,4,4,4,802.59,1.60,33336.35,1398.75,0.26,53240.08,2908.40,0.15,68162.60,4473.42,0.05,50546.90,2266.21,-0.06,3723.59
655700,1264.63,680.05,1.00,4,4,4,3265.07,-0.08,160991.14,6408.55,-0.06,238258.50,5447.84,0.02,121114.42,5328.15,0.04,39968.68,2180.24,-0.08,4616.44
670700,1427.82,671.41,1.00,4,4,4,10894.50,-0.05,508748.33,12502.59,-0.02,406939.50,9546.13,-0.03,274608.06,5346.06,0.02,5417.76,2089.89,-0.09,6182.43
685300,1634.62,671.89,1.00,4,4,4,14164.25,0.00,228818.72,13408.88,-0.02,62129.03,11470.26,-0.03,131801.42,4841.14,-0.03,39964.24,1877.65,-0.08,14562.25
700300,1824.65,663.82,1.00,4,4,4,12680.27,-0.04,106695.00,10418.05,-0.04,200410.37,8739.66,-0.03,182044.84,5197.32,-0.10,31905.29,1343.33,-0.05,35774.23
714300,1936.44,658.37,1.00,4,4,4,7994.35,-0.05,334740.00,4013.35,-0.09,457869.45,4132.54,-0.12,331244.31,4660.22,-0.11,38719.52,840.71,0.07,37105.52
729500,1941.41,653.79,1.00,4,4,4,444.58,-0.74,503833.36,941.23,-2.54,314303.53,1045.56,-0.70,217571.99,3075.56,-0.19,106146.31,515.99,0.23,22377.94
751800,1907.38,638.34,1.00,4,4,4,1676.14,-2.72,84944.17,1982.71,-2.65,47192.95,1577.19,-2.72,100217.86,833.35,-0.81,109569.71,389.69,0.04,6806.01
766200,1877.30,619.37,1.00,4,4,4,2469.21,-2.58,58339.82,2443.04,-2.80,39808.31,2251.95,-2.76,47194.39,2019.27,-2.96,178762.75,474.02,-0.15,8210.44
780300,1841.67,615.30,1.00,4,4,4,2543.16,-3.03,79226.18,2620.53,-2.86,16299.89,3478.91,-2.94,93841.57,3398.59,-3.12,102013.55,213.51,-0.20,18499.39
795300,1804.00,598.33,1.00,4,4,4,2754.31,-2.72,56127.21,4479.61,-3.00,127986.63,4764.61,-3.13,100943.82,4049.73,3.12,45034.75,424.05,3.11,42370.57
810700,1706.82,596.34,1.00,4,4,4,6311.95,-3.12,255135.71,6548.62,3.07,153928.61,5001.27,3.06,31513.89,3810.11,3.09,16547.17,1145.29,3.09,46847.00
832300,1562.37,616.33,1.00,4,4,4,6751.05,3.00,51853.96,5404.50,2.96,60887.96,5674.72,2.99,36136.68,3506.12,3.06,15276.73,1826.44,3.10,31539.18
861800,1435.28,646.72,1.00,4,4,4,4429.58,2.91,80726.85,4998.02,2.91,16314.12,4112.83,2.97,53106.05,3303.62,3.04,7224.29,2186.33,3.10,12200.26
877900,1340.62,668.96,1.00,4,4,4,6039.61,2.91,100009.85,2678.42,2.98,145004.09,2621.31,2.94,92821.92,3067.28,2.99,17736.28,2198.48,3.08,2103.65
907800,1313.67,666.45,1.00,4,4,4,905.48,-3.05,173549.13,253.67,-2.75,82488.76,1493.07,2.95,37744.75,2517.98,2.92,19622.73,2156.64,3.05,2508.47
922800,1330.10,664.59,1.00,1,1,1,1102.98,-0.11,133196.77,339.78,0.18,39343.34,437.59,2.98,70377.97,1747.89,2.88,51569.71,2134.53,2.99,9047.68
937900,1323.73,668.29,1.00,1,1,1,488.35,2.62,103485.71,726.42,2.75,68110.55,375.56,2.01,25325.06,970.66,2.84,51590.21,2185.85,2.93,8778.54
959800,1305.28,674.88,1.00,1,1,1,894.64,2.80,19348.96,792.49,2.35,14120.14,607.55,2.55,15702.24,303.90,2.56,31216.71,2437.70,2.84,15042.08
975300,1302.95,689.42,1.00,1,1,1,950.08,1.73,60686.05,512.39,2.18,19275.79,425.96,2.38,12920.36,241.44,2.10,8877.08,2576.06,2.73,19584.64
989800,1296.43,687.45,1.00,1,1,1,469.86,-2.85,76905.17,57.64,-1.35,39034.70,296.01,1.61,20454.94,553.61,2.42,22960.30,2467.31,2.64,17100.45
1004200,1303.31,687.80,1.00,1,1,1,478.40,0.05,65363.98,322.95,0.56,24077.75,101.58,2.52,17142.38,987.83,2.50,30441.60,2272.25,2.57,18854.45
1019700,1304.59,692.60,1.00,2,2,2,320.87,1.31,31443.72,237.72,2.37,28594.42,506.08,2.26,26366.44,1768.95,2.51,50395.12,1928.96,2.50,23875.91
1035500,1297.98,693.00,1.00,2,2,2,419.02,3.08,36492.02,1076.72,2.55,53419.52,1538.11,2.54,67116.29,2768.17,2.52,63271.11,1756.82,2.50,10894.89
1050800,1276.80,711.28,1.00,2,2,2,1828.90,2.43,99171.60,2644.25,2.55,102452.60,3174.92,2.57,107084.08,3449.38,2.50,44710.08,1808.36,2.53,4888.83
1072400,1217.01,747.44,1.00,2,2,2,3234.87,2.60,67788.33,4953.16,2.57,106965.58,5160.54,2.52,92412.25,3765.16,2.49,14738.74,1648.21,2.53,7414.64
1087500,1123.62,809.16,1.00,3,3,3,7413.41,2.56,277030.97,8237.22,2.51,219280.04,6147.20,2.52,65348.06,3728.52,2.49,2836.93,1620.11,2.49,4979.53
1102600,1016.70,894.94,1.00,1,1,1,9078.35,2.47,121081.22,7615.45,2.47,45091.00,6282.51,2.47,19702.45,3125.89,2.53,40590.09,1540.04,2.47,5498.30
1117700,943.32,951.94,1.00,1,1,1,6153.01,2.48,193888.18,4340.80,2.41,218089.36,4369.68,2.43,127532.11,2931.72,2.55,13596.27,1526.37,2.49,2257.74
1132800,919.05,982.41,1.00,1,1,1,2579.86,2.24,244766.71,1161.26,2.16,213784.28,1332.38,2.55,202048.80,2205.82,2.54,48094.97,1545.74,2.55,6045.74
1147800,923.84,980.96,1.00,1,1,1,333.72,-0.29,190713.10,735.86,-1.16,125978.20,209.83,-2.79,81425.11,1500.49,2.47,47777.24,1548.31,2.62,7210.09
1178700,932.49,951.42,1.00,1,1,1,996.10,-1.29,27844.13,751.56,-1.44,6782.90,371.32,-1.35,13014.22,647.29,2.33,27975.25,1477.15,2.64,2399.57
1194200,928.27,946.37,1.00,1,1,1,424.70,-2.27,54056.09,134.80,-2.40,44025.95,282.47,-1.05,8487.31,105.57,2.37,34955.26,1339.82,2.64,8869.60
1231800,927.23,946.57,1.00,1,1,1,28.16,2.95,10950.83,275.74,0.84,10906.54,267.44,1.30,13472.43,203.74,-1.66,7515.69,1150.34,2.62,5104.61
1245800,937.72,957.01,1.00,1,1,1,1057.03,0.78,76654.48,731.63,1.18,34280.18,191.46,1.46,6045.74,337.68,-2.18,13489.69,796.59,2.64,25311.19
1276000,939.55,976.47,1.00,1,1,1,647.23,1.48,23046.96,238.70,2.34,22252.50,154.25,3.08,8324.74,301.72,-2.29,1683.17,350.00,2.87,15318.00
1290700,930.29,964.73,1.00,1,1,1,1016.67,-2.24,108790.29,1257.81,-2.25,89021.72,665.38,-2.64,36796.39,239.20,-1.88,8475.07,186.26,-2.25,22089.98
1305900,915.82,947.29,1.00,1,1,1,1491.20,-2.26,31281.57,1397.39,-2.45,19465.82,1093.94,-2.14,39865.54,191.63,-1.91,3149.67,327.05,-1.40,16324.47
1329000,889.04,930.63,1.00,1,1,1,1365.14,-2.58,20525.40,978.13,-2.02,28252.08,854.68,-1.82,16830.42,280.20,-2.20,4817.57,428.09,-1.26,4915.30
1343800,899.74,913.89,1.00,1,1,1,1342.15,-1.00,130110.94,1202.13,-0.67,92818.49,393.37,-1.48,33881.33,458.27,-2.00,13023.04,382.89,-1.10,5491.84
1357800,916.19,909.14,1.00,1,1,1,1223.37,-0.28,65197.39,684.78,0.37,74263.83,439.76,-0.22,35017.82,475.09,-1.95,1957.66,359.71,-0.95,4132.17
1372800,918.25,921.08,1.00,1,1,1,807.62,1.40,102560.07,528.22,1.69,50345.59,315.94,0.55,20427.56,499.13,-1.27,21820.54,397.08,-0.90,2858.94
1387800,914.25,924.87,1.00,2,2,2,366.85,2.38,45097.66,120.23,2.38,29475.28,136.86,-3.08,29452.55,841.70,-0.79,30680.91,395.25,-1.02,3248.91
1402700,915.64,923.56,1.00,2,2,2,128.05,-0.76,33215.11,580.61,-1.94,42700.67,617.94,-1.13,45639.34,828.02,-0.63,8657.37,508.64,-1.13,8249.08
1417800,908.00,908.61,1.00,2,2,2,1111.24,-2.04,71644.38,1195.78,-1.10,60524.32,1272.57,-0.95,44649.76,688.76,-0.58,9567.85,520.06,-0.95,5970.42
1440500,936.02,883.21,1.00,1,1,1,1666.17,-0.74,76875.88,2089.68,-0.76,46029.69,1479.43,-0.81,12456.80,754.01,-0.65,3615.31,529.55,-0.64,7139.14
1454500,963.65,855.84,1.00,1,1,1,2777.71,-0.78,79690.44,1977.62,-0.57,27872.95,1418.43,-0.53,29229.53,757.00,-0.64,385.00,584.18,-0.34,12557.58
1469000,983.33,852.57,1.00,1,1,1,1376.06,-0.16,126628.55,878.85,0.22,103646.13,1055.00,-0.32,30460.13,786.45,-0.69,3022.05,479.77,-0.17,9470.67
1483600,988.58,861.52,1.00,1,1,1,710.75,1.04,89261.72,529.12,0.87,38147.10,485.82,0.27,48466.54,860.37,-0.49,12083.54,688.76,-0.58,21484.31
1497500,993.04,864.11,1.00,1,1,1,370.97,0.53,30847.75,179.88,0.46,26699.02,208.49,0.35,20036.42,735.70,-0.20,19002.23,754.01,-0.65,5904.13
1520500,994.53,864.48,1.00,1,1,1,66.41,0.24,13379.18,197.90,-1.12,11680.18,317.42,-0.33,8861.42,537.31,0.31,16317.14,757.00,-0.64,234.35
1535400,996.32,857.36,1.00,1,1,1,492.50,-1.32,33338.87,573.33,-0.61,27676.33,484.18,0.04,14707.64,405.70,0.72,15341.38,786.45,-0.69,2940.92
1550600,1008.70,854.64,1.00,1,1,1,834.20,-0.22,49720.82,1037.50,0.26,52579.09,584.38,0.34,12655.23,317.42,-0.33,24302.85,860.37,-0.49,11606.56
1564500,1025.46,865.25,1.00,1,1,1,1426.89,0.56,73385.95,827.10,0.75,35463.67,584.19,0.82,19895.25,484.18,0.04,15765.74,735.70,-0.20,19002.23
1593700,1034.78,878.94,1.00,1,1,1,567.37,0.97,31987.81,520.90,1.47,19029.80,827.10,0.75,8496.35,584.38,0.34,6587.65,537.31,0.31,12852.54
1615300,1028.07,891.58,1.00,1,1,1,662.44,2.06,29655.62,662.44,2.06,17046.14,520.90,1.47,25725.47,584.19,0.82,12802.96,405.70,0.72,10582.71
