@RELATION gaze_labels

%@METADATA width_px 1920
%@METADATA height_px 1080
%@METADATA width_mm 540.00
%@METADATA height_mm 254.00
%@METADATA distance_mm 620.00


@ATTRIBUTE time INTEGER
@ATTRIBUTE x NUMERIC
@ATTRIBUTE y NUMERIC
@ATTRIBUTE confidence NUMERIC
@ATTRIBUTE handlabeller1 INTEGER
@ATTRIBUTE handlabeller2 INTEGER
@ATTRIBUTE handlabeller_final INTEGER
@ATTRIBUTE speed_1 numeric
@ATTRIBUTE direction_1 numeric
@ATTRIBUTE acceleration_1 numeric
@ATTRIBUTE speed_2 numeric
@ATTRIBUTE direction_2 numeric
@ATTRIBUTE acceleration_2 numeric
@ATTRIBUTE speed_4 numeric
@ATTRIBUTE direction_4 numeric
@ATTRIBUTE acceleration_4 numeric
@ATTRIBUTE speed_8 numeric
@ATTRIBUTE direction_8 numeric
@ATTRIBUTE acceleration_8 numeric
@ATTRIBUTE speed_16 numeric
@ATTRIBUTE direction_16 numeric
@ATTRIBUTE acceleration_16 numeric

%The number after speed, direction denotes the step size that was used for the calculation.
%Acceleration was calculated between two adjacent samples of the already low pass filtered velocity

@DATA
0,318.65,860.68,1.00,0,0,0,0.00,0.00,0.00,311.07,2.09,0.00,87.31,1.18,0.00,1112.08,0.47,0.00,1958.78,0.25,0.00
13900,316.52,864.44,1.00,0,0,0,311.07,2.09,22379.42,87.31,1.18,19161.21,542.69,0.09,36577.90,2199.39,0.38,78883.74,1865.88,0.20,9461.98
35800,319.85,863.57,1.00,0,0,0,156.99,-0.26,19880.74,542.69,0.09,23216.11,1112.08,0.47,29310.14,3885.98,0.37,77020.55,1799.96,0.31,9289.38
50800,336.47,866.16,1.00,0,0,0,1121.86,0.15,65336.47,2413.07,0.44,127562.38,2199.39,0.38,73098.93,3860.67,0.35,4491.89,1897.38,0.23,11318.37
64600,382.72,893.18,1.00,0,0,0,3881.25,0.53,207724.24,4379.11,0.43,142508.87,3885.98,0.37,122228.27,1958.78,0.25,139396.42,2182.49,-0.00,39939.66
79300,450.16,917.66,1.00,0,0,0,4880.52,0.35,86464.45,5332.06,0.34,70565.54,3860.67,0.35,4583.56,1865.88,0.20,8947.04,2440.56,-0.26,43540.69
94100,530.98,945.72,1.00,0,0,0,5780.80,0.33,61036.17,3481.80,0.29,125968.71,2813.19,0.17,82241.68,1799.96,0.31,13745.77,2935.98,-0.46,49888.57
116700,575.03,954.58,1.00,0,0,0,1988.25,0.20,169039.71,1146.99,-0.52,124648.33,1617.51,-0.04,56302.38,1897.38,0.23,7512.20,3386.06,-0.54,22987.80
131400,568.04,924.34,1.00,0,0,0,2111.47,-1.80,234466.57,1537.32,-1.98,122851.16,357.12,-0.22,86277.64,2182.49,-0.00,37494.38,2685.10,-0.25,77306.81
145700,557.48,913.60,1.00,0,0,0,1053.15,-2.35,93146.26,394.77,2.10,125852.71,585.51,-0.42,17106.84,2440.56,-0.26,44758.62,2755.77,-0.23,6224.80
175300,559.25,939.28,1.00,0,0,0,869.71,1.50,60974.62,1135.41,0.30,43450.85,1802.87,-0.18,41912.70,2935.98,-0.46,24944.28,2779.95,-0.20,2819.54
205800,622.75,933.50,1.00,0,0,0,2090.55,-0.09,74811.21,3532.15,-0.25,86274.74,2958.00,-0.33,39390.06,3386.06,-0.54,17033.59,2728.88,-0.21,2075.48
227900,739.12,892.72,1.00,0,0,0,5579.29,-0.34,162362.52,5364.87,-0.47,93127.24,5081.47,-0.47,99545.11,3492.81,-0.45,15214.23,2550.40,-0.30,13251.55
257800,871.63,807.45,1.00,0,0,0,5270.07,-0.57,43718.75,7033.49,-0.60,62161.83,6416.25,-0.56,47253.69,3612.95,-0.39,8256.45,2315.92,-0.37,9662.82
273300,1002.27,711.85,1.00,0,0,0,10444.45,-0.63,335061.79,8280.97,-0.65,84014.98,5767.00,-0.56,41887.95,3864.89,-0.39,16265.35,2077.13,-0.45,19076.42
288300,1072.52,654.37,1.00,0,0,0,6051.02,-0.69,294289.76,3898.91,-0.43,303854.20,4856.36,-0.46,69224.86,3877.10,-0.43,10979.71,2022.43,-0.48,6148.11
303400,1108.94,662.91,1.00,0,0,0,2477.48,0.23,327779.96,2188.54,0.36,186971.78,2217.46,-0.09,192177.87,3172.79,-0.53,52447.73,1892.04,-0.39,14803.77
318000,1133.37,677.22,1.00,0,0,0,1939.06,0.53,57997.91,1472.93,0.70,64289.83,1271.55,0.48,91690.37,2195.20,-0.54,66988.63,1804.19,-0.34,8654.91
340600,1150.88,698.17,1.00,0,0,0,1208.34,0.87,39828.78,581.36,0.86,39979.69,250.93,0.13,45996.66,855.97,-0.38,60076.73,1726.25,-0.42,6746.96
354600,1147.29,693.31,1.00,0,0,0,431.79,-2.21,117110.60,1463.38,-2.23,146005.76,423.50,-2.65,47448.29,323.34,0.54,50557.71,1480.31,-0.46,18175.16
369200,1125.31,665.04,1.00,0,0,0,2452.68,-2.23,138429.01,1646.53,-2.49,30848.36,945.54,-2.65,35758.04,317.94,1.74,24834.28,1020.57,-0.48,31528.40
384000,1108.69,664.10,1.00,0,0,0,1125.05,-3.09,129159.15,804.41,2.86,90229.64,737.18,-2.71,14609.80,564.27,2.39,24779.84,503.30,-0.32,35791.22
399100,1102.24,671.83,1.00,0,0,0,666.77,2.27,59819.97,371.34,1.68,49242.20,683.83,2.11,62922.76,1051.99,2.86,40111.39,236.28,1.49,39920.28
414000,1107.44,675.17,1.00,0,0,0,414.46,0.57,55539.41,877.14,1.58,34165.66,1052.86,2.01,25316.48,1305.63,2.78,18262.45,562.73,1.91,24249.65
436500,1101.86,704.63,1.00,0,0,0,1332.84,1.76,55056.59,1611.00,2.07,41484.69,1481.14,2.47,31706.17,1371.90,2.52,15692.91,602.86,2.22,8160.80
451900,1078.07,728.70,1.00,0,0,0,2197.28,2.35,85794.15,2701.62,2.78,117274.11,2035.98,2.55,37137.96,1213.30,2.41,13719.93,649.09,2.48,10946.37
468200,1021.84,735.16,1.00,0,0,0,3472.16,3.03,137009.31,2928.81,2.87,21523.94,2225.14,2.66,17682.56,1080.42,2.33,9837.69,653.23,2.77,11443.50
482800,990.83,752.78,1.00,0,0,0,2443.02,2.62,106413.89,1756.10,2.45,103394.67,1557.05,2.71,46271.72,1099.79,2.20,9869.58,399.81,3.04,19782.16
496800,983.16,767.20,1.00,0,0,0,1166.13,2.06,113282.78,520.46,1.41,111184.04,670.81,1.95,83323.73,913.87,2.37,18146.68,110.20,-1.81,28559.74
511900,993.19,767.74,1.00,0,0,0,665.65,0.05,103798.38,830.97,0.17,54664.00,836.60,0.82,54402.75,732.84,2.55,15225.97,429.32,-0.63,26539.88
526400,1007.39,771.43,1.00,0,0,0,1011.30,0.25,26364.31,1264.69,0.59,41794.43,456.99,0.83,26191.90,306.54,2.47,29499.04,653.19,-0.60,15461.73
541800,1024.64,788.75,1.00,0,0,0,1587.30,0.79,57260.39,449.64,1.53,69128.23,234.99,1.64,21995.90,419.80,-0.83,47011.06,659.00,-0.49,4909.52
578800,1008.31,794.97,1.00,0,0,0,472.27,2.78,49488.82,630.13,-3.09,21832.25,263.50,-2.67,11250.52,1156.63,-0.78,19937.85,677.62,-0.53,919.64
593800,991.92,786.95,1.00,0,0,0,1216.59,-2.69,63902.22,1335.08,-2.11,74007.21,881.98,-1.45,55270.72,1712.78,-0.68,38154.20,787.11,-0.48,7649.98
607900,988.24,761.71,1.00,0,0,0,1808.93,-1.72,106764.35,2106.92,-1.09,128559.82,2381.08,-0.97,116934.14,1994.33,-0.69,19982.19,1020.65,-0.42,17010.76
637800,1034.63,704.67,1.00,0,0,0,2459.10,-0.89,60763.38,3453.24,-0.78,53080.99,3599.25,-0.73,47072.72,1997.45,-0.68,696.45,1149.19,-0.46,4445.43
660600,1117.73,633.84,1.00,0,0,0,4788.88,-0.71,105782.87,5576.04,-0.58,100921.45,4093.20,-0.63,27547.40,2284.49,-0.63,13527.05,1126.86,-0.52,3191.08
675300,1209.95,590.70,1.00,0,0,0,6925.86,-0.44,179234.24,5398.60,-0.46,44774.35,4089.60,-0.46,48037.16,2253.41,-0.52,16813.32,1061.56,-0.52,4478.95
689700,1258.43,563.97,1.00,0,0,0,3845.00,-0.50,215261.88,2337.21,-0.08,232259.75,2612.87,-0.17,121168.41,2268.42,-0.45,10164.86,1024.52,-0.60,6231.48
703600,1275.88,585.45,1.00,0,0,0,1990.93,0.89,288063.64,1550.39,1.39,192046.24,1167.35,0.43,128335.31,2040.22,-0.37,21326.54,1052.77,-0.72,8725.09
718400,1266.48,607.73,1.00,0,0,0,1634.06,1.97,127762.63,1012.11,1.48,37258.45,897.52,1.02,44129.30,1206.66,-0.18,59571.95,1259.12,-0.77,14538.95
740600,1279.10,622.76,1.00,0,0,0,884.14,0.87,65838.35,637.31,0.29,44093.50,371.07,1.05,23724.66,433.54,0.44,40079.25,1440.77,-0.56,15010.14
755600,1289.20,614.48,1.00,0,0,0,870.67,-0.69,82219.43,595.59,-1.04,50665.63,25.72,-1.21,25868.03,308.13,1.72,30306.17,1770.18,-0.30,35239.49
771000,1288.30,607.16,1.00,0,0,0,478.95,-1.69,47813.78,765.44,-2.78,67944.63,349.44,-2.71,22628.32,167.71,2.99,19790.90,2236.60,-0.14,36975.49
786500,1267.09,606.09,1.00,0,0,0,1369.90,-3.09,88438.78,953.88,2.91,34331.21,623.70,-2.83,18065.82,388.33,-1.89,25527.78,2369.71,-0.05,16101.13
801800,1259.68,613.81,1.00,0,0,0,699.45,2.34,68866.78,482.83,-2.91,36724.45,635.08,-2.64,7941.37,472.72,-0.80,29556.79,2127.07,-0.00,17193.05
817000,1252.74,602.78,1.00,0,0,0,857.51,-2.13,80977.06,866.03,-1.77,52630.92,805.92,-1.92,35086.89,1289.72,0.01,67516.36,1625.82,-0.01,33021.79
831400,1254.69,588.67,1.00,0,0,0,989.19,-1.43,44722.31,1429.17,-1.62,40715.20,1123.74,-0.50,88794.57,2546.53,0.06,87436.91,1364.48,-0.09,19604.51
846600,1250.67,560.53,1.00,0,0,0,1870.29,-1.71,63093.59,2123.95,-0.11,163510.80,3033.31,0.07,142951.87,3543.51,0.00,66467.87,1189.08,-0.16,13187.27
861800,1318.86,581.51,1.00,0,0,0,4693.96,0.30,378033.74,5709.25,0.27,251314.48,5389.63,0.10,155265.51,3866.72,-0.05,24362.26,1091.69,-0.27,10321.92
883600,1454.27,616.81,1.00,4,4,4,6419.20,0.26,79890.60,8196.81,0.15,120262.93,7037.94,0.10,75615.46,3142.37,-0.10,34321.28,933.92,-0.32,7572.90
897800,1610.69,625.20,1.00,4,4,4,11031.40,0.05,345989.92,8904.88,-0.04,123073.84,6462.66,0.02,54848.55,2737.35,-0.09,28627.17,866.02,-0.25,6584.90
912900,1714.99,606.72,1.00,4,4,4,7014.56,-0.18,297426.72,4653.77,-0.25,295122.94,3309.91,-0.24,223493.19,2187.31,-0.02,37905.26,933.43,-0.20,5167.18
928200,1747.88,590.65,1.00,4,4,4,2393.03,-0.45,311126.16,1148.04,-1.95,322461.10,1030.69,-1.14,182292.30,1608.55,-0.16,41255.08,934.16,-0.19,577.20
958700,1695.74,557.80,1.00,0,0,0,2020.67,-2.58,126548.29,2417.14,-2.80,61572.05,1216.72,-2.66,50968.30,780.86,-0.77,35043.69,950.17,-0.12,2356.76
974000,1643.48,553.83,1.00,0,0,0,3425.41,-3.07,123650.31,1662.70,-3.07,60486.42,1814.08,-2.85,43119.85,730.61,-2.39,71629.33,927.94,-0.07,3568.51
1010700,1609.49,551.67,1.00,0,0,0,927.88,-3.08,68055.29,1284.07,-2.93,11780.44,1894.88,-2.97,6454.27,1251.99,-2.86,18687.37,904.86,0.04,2667.41
1025500,1578.85,539.80,1.00,0,0,0,2220.25,-2.77,92202.09,2327.33,-2.84,71150.45,1448.47,-3.08,32788.79,1373.37,-3.01,15530.73,628.43,-0.14,20727.84
1040900,1542.28,531.13,1.00,0,0,0,2440.92,-2.91,25180.45,1799.90,3.00,66968.74,1411.16,3.13,6975.44,1165.22,3.07,21353.60,351.11,-0.89,28798.70
1054800,1526.63,547.15,1.00,0,0,0,1610.92,2.34,152679.48,935.37,2.21,94986.75,874.99,2.75,48785.89,832.50,3.00,24420.14,444.19,-2.72,45485.59
1069800,1526.10,552.79,1.00,0,0,0,377.55,1.66,89230.24,398.14,1.66,42152.84,659.97,1.99,40460.46,805.81,2.95,3149.76,950.23,-3.14,38220.52
1091600,1525.34,561.74,1.00,0,0,0,412.30,1.66,1603.41,486.90,1.63,4104.61,366.50,1.74,14560.99,663.31,2.94,6556.94,1432.21,2.92,25173.13
1105600,1525.01,570.19,1.00,0,0,0,603.37,1.61,13743.21,330.72,1.86,12970.29,354.24,2.27,13532.21,196.77,2.87,33375.33,1887.00,2.76,37716.89
1120700,1522.56,570.96,1.00,0,0,0,170.58,2.84,37692.51,471.11,3.13,32213.70,476.68,-2.95,28725.18,317.35,2.48,10199.54,2196.06,2.74,20584.81
1134800,1511.26,570.39,1.00,0,0,0,802.21,-3.09,45738.50,976.66,-2.61,44367.01,501.20,-1.80,37795.58,763.27,2.59,31837.16,2511.32,2.76,22609.99
1149800,1498.11,556.47,1.00,0,0,0,1277.05,-2.33,59447.81,901.40,-1.38,72313.25,440.31,3.08,40729.12,1735.76,2.55,64882.36,2507.98,2.72,6353.74
1171300,1517.58,538.11,1.00,0,0,0,1244.95,-0.76,82988.57,461.73,1.84,63363.28,1182.97,2.68,37048.78,2833.50,2.61,51360.22,2218.35,2.70,13684.31
1186500,1493.64,572.81,1.00,0,0,0,2773.90,2.17,263140.20,3383.81,2.42,197946.89,2984.36,2.45,121657.46,3756.43,2.68,62513.27,2115.72,2.69,6903.99
1201600,1440.66,605.89,1.00,0,0,0,4136.55,2.58,128216.28,6270.41,2.51,193003.27,6163.71,2.52,211422.43,4132.71,2.72,27982.41,1951.17,2.69,10917.47
1215700,1346.26,681.45,1.00,0,0,0,8575.56,2.47,318667.08,9093.30,2.56,202223.86,7114.82,2.65,91270.84,4099.98,2.69,9722.19,1994.43,2.70,3144.87
1230600,1220.36,750.84,1.00,0,0,0,9647.83,2.64,126813.85,7876.39,2.74,132474.61,7161.16,2.73,39056.82,3868.24,2.69,15554.79,1855.80,2.72,9787.71
1252200,1081.25,792.89,1.00,0,0,0,6728.27,2.85,156186.99,5854.82,2.95,113688.22,5128.75,2.81,96350.39,3612.41,2.70,12021.35,1953.54,2.71,4621.67
1266700,1012.90,791.25,1.00,0,0,0,4714.76,-3.12,185362.57,2841.14,2.96,207847.62,2644.93,2.93,174179.90,2855.10,2.72,52293.76,2181.63,2.76,17212.77
1295200,961.19,815.50,1.00,0,0,0,2004.06,2.70,107186.53,853.81,2.86,69922.36,1181.41,2.93,51351.68,2198.71,2.78,23731.75,2514.24,2.73,11888.47
1331300,959.91,806.54,1.00,0,0,0,250.71,-1.71,57924.17,245.43,0.01,30229.09,289.74,2.48,25764.80,1216.81,2.91,27822.28,3041.91,2.72,14633.52
1345400,973.51,815.61,1.00,0,0,0,1159.40,0.59,95013.94,642.29,0.15,28412.47,263.93,0.05,36770.73,605.08,2.89,43413.00,3130.10,2.72,6393.40
1375600,988.06,810.70,1.00,0,0,0,508.35,-0.33,31104.82,285.02,0.10,11851.22,568.37,-0.12,10310.34,721.69,2.92,3944.34,2868.23,2.69,8998.61
1390600,986.33,816.85,1.00,0,0,0,426.05,1.84,55135.64,544.07,-0.50,23099.28,85.44,0.62,33872.93,1100.70,2.87,25425.27,2450.88,2.70,27826.24
1412000,1005.47,801.27,1.00,0,0,0,1153.29,-0.68,71091.97,213.47,2.77,35341.45,1495.12,3.06,72966.62,2101.81,2.79,47148.29,1994.11,2.74,21845.82
1426600,979.16,819.63,1.00,0,0,0,2197.07,2.53,229334.01,3955.23,2.99,256655.27,3053.17,2.91,108837.08,2585.26,2.74,34109.09,1587.65,2.68,28734.06
1441600,889.70,818.71,1.00,0,0,0,5964.38,-3.13,291059.18,6452.13,2.92,168238.22,5741.80,2.82,181013.42,2887.54,2.67,24332.94,1448.98,2.60,12253.99
1456700,789.72,862.39,1.00,0,0,0,7225.43,2.73,200342.85,7632.79,2.74,115793.25,6193.54,2.76,39846.13,2803.42,2.61,12039.45,1328.86,2.63,8195.43
1470900,684.25,907.05,1.00,0,0,0,8066.21,2.74,59521.21,6110.72,2.58,130969.95,4413.38,2.54,149163.23,3155.76,2.65,26105.32,1536.82,2.65,14784.30
1485800,639.31,957.25,1.00,0,0,0,4521.58,2.30,296506.71,2333.97,2.01,290886.00,2843.44,2.29,121039.29,2965.03,2.63,13502.77,1385.48,2.68,10772.23
1508400,647.18,986.33,1.00,0,0,0,1333.16,1.31,175033.88,1458.20,1.09,82029.14,1298.88,1.90,75802.44,2527.53,2.48,26319.97,1347.81,2.65,2409.17
1523700,664.84,1006.26,1.00,0,0,0,1740.78,0.85,52749.92,330.93,0.29,81733.10,725.90,1.29,53415.78,1700.93,2.42,54643.33,589.78,2.63,49560.28
1537600,656.44,989.10,1.00,0,0,0,1375.16,-2.03,222159.85,413.53,-2.96,53478.42,499.99,1.87,29877.22,1020.67,2.33,49746.44,303.73,-0.32,64008.73
1553000,652.92,1004.09,1.00,0,0,0,999.93,1.80,145485.53,1040.28,2.19,61214.60,609.76,-3.08,44740.46,204.19,1.79,55325.48,1295.14,-0.51,64839.03
1567700,638.30,1014.62,1.00,0,0,0,1226.05,2.52,55025.68,807.75,-3.14,59355.85,1014.31,2.89,32274.14,278.71,-0.35,28886.79,2102.24,-0.43,55635.48
1582700,628.93,1004.09,1.00,0,0,0,939.61,-2.30,97752.46,1313.96,-2.97,35851.41,423.41,-2.34,59247.92,1752.84,-0.55,98703.31,2872.21,-0.43,51332.87
1604200,591.08,1006.20,1.00,0,0,0,1763.20,3.09,64643.61,568.21,-1.35,67702.15,872.61,-0.77,45064.24,3746.91,-0.46,93274.01,3083.03,-0.37,12740.59
1619200,633.52,983.86,1.00,0,0,0,3197.14,-0.48,323758.05,3142.69,-0.34,191838.39,3755.55,-0.47,195581.40,5119.56,-0.51,92455.65,3512.78,-0.35,28963.11
1634300,680.13,974.28,1.00,0,0,0,3151.27,-0.20,59107.38,7862.20,-0.40,313063.84,9072.54,-0.44,352274.12,5984.48,-0.51,57280.35,3809.50,-0.36,19732.40
1649500,853.06,891.38,1.00,0,0,0,12616.72,-0.45,630870.22,15202.75,-0.46,484877.00,9764.02,-0.47,50119.61,6698.17,-0.49,47618.13,3975.74,-0.38,12745.97
1663500,1078.09,777.58,1.00,0,0,0,18012.19,-0.47,386066.59,11086.77,-0.51,297601.52,10146.17,-0.49,30312.76,6479.67,-0.43,33761.79,4014.87,-0.37,5179.47
1693800,1281.98,652.12,1.00,0,0,0,7901.00,-0.55,335314.44,7374.88,-0.53,122639.73,9099.45,-0.50,34613.98,6580.16,-0.37,12275.80,3988.25,-0.36,1795.84
1716600,1416.35,580.25,1.00,0,0,0,6683.14,-0.49,56783.41,6760.14,-0.48,31119.78,4916.39,-0.41,185175.70,6630.10,-0.36,4749.35,3915.46,-0.31,8351.46
1731400,1507.68,535.21,1.00,0,0,0,6881.01,-0.46,20198.04,2312.07,0.03,329511.32,3866.47,-0.14,106933.49,5778.42,-0.34,57871.48,3828.09,-0.24,18501.86
1761800,1520.79,583.73,1.00,4,4,4,1653.42,1.31,242785.72,2574.89,0.66,50525.34,3246.47,0.12,36281.29,4241.17,-0.30,51002.50,3931.02,-0.21,5084.64
1776800,1599.75,607.25,1.00,4,4,4,5492.17,0.29,322168.16,4671.24,0.18,178253.90,2754.29,0.25,41950.78,3072.79,-0.11,90324.84,3724.59,-0.23,14416.13
1791900,1659.11,609.00,1.00,4,4,4,3932.80,0.03,130482.74,3709.64,-0.19,119832.32,3394.97,-0.07,76295.38,2237.50,0.28,86914.68,3508.28,-0.32,25361.36
1806700,1708.68,586.34,1.00,4,4,4,3682.83,-0.43,118061.37,2643.12,-0.42,86941.89,2091.80,-0.04,88130.13,1999.31,0.79,74273.67,2820.44,-0.36,47317.34
1829200,1749.13,568.80,1.00,4,4,4,1959.43,-0.41,76631.87,918.54,0.45,96299.28,1278.57,0.75,67031.35,1943.90,0.87,7098.42,1849.40,-0.43,43787.71
1843500,1739.13,601.01,1.00,4,4,4,2358.30,1.87,274651.29,3531.79,1.85,244554.70,2265.18,1.58,118328.01,1180.34,1.15,61337.04,1004.04,-0.41,59152.11
1858100,1720.87,666.88,1.00,4,4,4,4681.88,1.84,159299.75,4740.65,1.81,83725.84,3657.05,1.91,114418.38,370.16,1.85,63486.93,364.69,-0.22,44471.38
1872800,1706.63,736.05,1.00,4,4,4,4804.40,1.77,23310.99,3790.88,1.96,77865.82,2758.47,2.08,71715.65,693.22,2.96,42437.52,199.90,1.36,28406.83
1887400,1678.95,769.74,1.00,4,4,4,2986.32,2.26,176152.61,1596.91,3.00,225527.98,1149.83,-3.00,176693.78,1490.36,-3.05,57783.43,38.65,2.16,12015.27
1902300,1659.98,742.58,1.00,0,0,0,2223.21,-2.18,280293.55,3226.33,-1.85,227286.07,2395.32,-2.16,123506.08,1716.15,-2.86,25570.19,396.33,-3.02,25522.32
1924100,1645.75,656.08,1.00,0,0,0,4021.26,-1.73,102448.05,3920.50,-1.86,31861.87,3717.63,-2.05,62271.49,1893.59,-2.67,18123.63,850.02,-3.03,20812.10
1939400,1618.26,603.24,1.00,0,0,0,3893.02,-2.05,82027.27,4486.03,-2.23,108208.77,3614.35,-2.13,19493.18,1915.73,-2.47,24218.10,1073.23,-3.11,15445.13
1953400,1564.74,552.58,1.00,0,0,0,5264.18,-2.38,145170.85,3662.85,-2.51,99468.21,2832.74,-2.52,103623.89,1823.81,-2.32,21793.15,1248.14,-3.13,12680.30
1967800,1534.12,542.07,1.00,0,0,0,2247.86,-2.81,232686.36,1839.54,3.03,181908.37,1721.17,-2.98,104756.67,1659.63,-2.40,15419.91,1016.00,-2.98,20078.07
1982800,1511.00,558.66,1.00,0,0,0,1897.33,2.52,128445.13,1587.57,1.89,123671.18,951.83,2.47,85965.85,1730.50,-2.80,45149.12,897.26,-2.72,18271.81
1997800,1519.02,587.24,1.00,0,0,0,1978.93,1.30,148331.37,905.88,1.44,57703.60,962.44,2.16,19482.73,1457.15,-3.01,28585.49,886.10,-2.45,15921.62
2019900,1515.22,592.00,1.00,0,0,0,275.82,2.24,82881.57,604.32,2.78,43618.81,1109.79,2.79,29631.00,1043.90,3.05,22529.99,922.09,-2.28,7437.89
2034100,1498.51,595.02,1.00,0,0,0,1195.63,2.96,70741.64,2530.95,-3.03,141666.67,1268.23,-3.04,39361.91,516.85,3.00,37208.37,826.76,-2.30,6885.71
2049000,1442.01,583.93,1.00,0,0,0,3864.20,-2.95,186890.71,1870.29,-2.92,47292.16,1348.57,-2.88,14613.10,161.30,3.04,23874.69,611.23,-2.57,19229.53
2079000,1416.60,576.48,1.00,0,0,0,882.50,-2.86,99548.79,651.19,-2.50,43438.59,648.20,-2.44,27092.30,102.56,-2.19,4726.91,444.12,-2.76,6505.51
2094100,1418.50,566.32,1.00,0,0,0,684.52,-1.39,70289.71,775.27,-0.58,77465.32,496.68,-0.48,63059.11,170.81,-1.91,5168.85,222.76,3.00,18187.63
2131300,1450.49,554.22,1.00,0,0,0,919.40,-0.36,21834.34,1272.89,-0.07,18931.25,1125.96,-0.03,19184.71,194.86,-1.50,2093.01,143.59,2.35,3746.77
2146300,1484.77,561.40,1.00,0,0,0,2334.45,0.21,109071.05,2061.84,0.32,67430.46,1069.21,0.01,4613.53,401.81,-0.35,24549.35,51.22,1.75,7024.17
2161300,1509.23,573.63,1.00,0,0,0,1822.97,0.46,49038.60,742.86,0.24,88149.95,854.24,0.20,18991.32,574.19,-0.25,11937.37,48.17,-2.41,5788.92
2176300,1506.39,566.79,1.00,0,0,0,493.62,-1.96,147970.60,416.88,-2.32,74365.47,277.50,0.06,38706.36,558.76,-0.06,7249.80,76.57,-1.92,2719.34
2191300,1500.72,564.46,1.00,1,1,1,408.94,-2.75,23723.90,228.01,-2.44,12842.19,308.92,-2.07,34255.76,458.06,0.31,13970.94,132.69,-1.31,5508.75
2205800,1501.24,562.46,1.00,1,1,1,143.11,-1.31,28642.34,245.59,-1.72,11621.32,112.38,-2.37,14101.99,212.01,0.46,17286.90,259.15,-0.53,13117.97
2227700,1499.40,555.62,1.00,1,1,1,323.30,-1.83,9661.31,22.66,-1.78,10181.93,129.06,1.02,10934.54,32.07,1.76,9389.41,351.89,-0.29,5316.37
2242100,1501.07,561.65,1.00,1,1,1,434.64,1.30,52634.22,592.21,1.23,42687.22,198.18,0.98,4822.14,36.59,1.31,1098.54,330.54,-0.16,3557.50
2256400,1505.09,571.64,1.00,1,1,1,752.63,1.19,22687.39,474.66,1.00,11712.07,368.53,1.18,12502.23,75.51,-0.70,6785.35,216.75,0.10,9265.91
2270900,1508.41,573.19,1.00,1,1,1,252.74,0.44,40945.41,192.94,1.07,19477.23,181.72,0.98,13384.95,128.66,-1.26,5222.79,89.01,-0.66,11315.80
2292600,1508.44,577.76,1.00,1,1,1,210.95,1.56,11531.84,54.65,-1.99,11403.12,212.38,-1.34,16665.94,91.98,-0.65,3450.73,156.12,-1.78,6549.74
2306700,1507.61,571.40,1.00,1,1,1,455.24,-1.70,47171.40,671.55,-1.58,44097.12,408.08,-1.64,15236.54,90.90,-0.98,2132.77,95.13,-1.79,4326.12
2321900,1508.24,558.09,1.00,1,1,1,876.64,-1.52,28674.25,835.39,-1.62,10931.39,490.38,-1.57,5855.34,90.63,-1.49,3021.10,32.50,-0.91,5158.94
2336600,1506.44,546.45,1.00,1,1,1,801.31,-1.72,12521.81,313.00,-1.54,35632.97,320.64,-1.58,11553.42,198.98,-1.78,7837.62,12.31,-0.48,1494.77
2351800,1508.50,548.73,1.00,1,1,1,202.71,0.84,64280.41,199.23,1.41,33558.31,40.13,2.51,22722.43,350.14,-1.75,9965.68,30.86,0.92,2050.39
2366300,1507.38,552.29,1.00,1,1,1,257.25,1.88,16115.83,301.99,1.79,9534.94,54.70,2.91,1609.36,215.98,-1.80,9305.08,30.52,-1.24,3729.35
2388900,1506.06,559.67,1.00,1,1,1,331.63,1.75,3694.72,178.87,-2.31,19054.91,244.54,-2.06,10472.19,15.86,-2.86,9238.24,97.82,-1.56,3077.38
2403900,1502.86,547.31,1.00,1,1,1,851.15,-1.82,77389.27,875.49,-1.78,48468.35,153.74,-2.12,6101.95,98.15,1.72,6762.45,86.71,-1.70,1111.31
2418400,1500.80,534.38,1.00,1,1,1,902.73,-1.73,6810.68,138.03,-1.92,50979.02,29.74,-1.56,8939.12,87.87,1.83,1006.95,93.78,-1.58,856.73
2448800,1500.73,541.49,1.00,1,1,1,233.80,1.58,37299.70,536.03,1.35,22144.53,167.79,1.46,6491.62,21.65,2.85,2592.10,72.98,-1.88,1056.64
2462600,1506.09,557.48,1.00,1,1,1,1221.98,1.25,72758.06,541.51,1.39,1730.24,292.61,1.43,9062.34,104.19,-1.61,8077.23,28.04,-2.32,3553.28
2485200,1504.30,560.88,1.00,1,1,1,170.08,2.06,49184.92,100.35,1.81,19997.53,148.29,1.30,6490.22,16.37,0.36,4936.56,22.88,2.69,1359.13
2516100,1504.81,562.69,1.00,1,1,1,60.97,1.30,4294.99,163.99,-1.62,8471.38,169.40,-1.62,10221.45,115.95,1.16,3405.41,92.92,-2.29,2901.86
2531400,1503.95,553.31,1.00,1,1,1,615.76,-1.66,44170.31,634.05,-1.54,30763.46,167.15,-1.49,1405.54,71.02,1.51,3607.21,132.94,-2.27,2621.50
2546800,1505.37,543.23,1.00,1,1,1,660.70,-1.43,9985.70,176.68,-1.32,30094.37,199.32,-1.29,3193.28,43.07,-2.13,7193.04,164.48,-2.09,2651.34
2561200,1505.27,548.21,1.00,1,1,1,345.75,1.59,69779.52,284.54,1.24,30731.63,52.51,-2.57,13264.04,84.98,-1.89,3070.34,103.93,-2.27,4490.73
2576300,1508.13,551.16,1.00,1,1,1,272.17,0.80,16391.87,172.87,2.43,18141.85,158.90,1.84,12012.59,293.05,-1.96,13797.89,62.17,2.86,6444.04
2591400,1501.30,551.60,1.00,1,1,1,453.25,3.08,43903.03,183.69,2.94,5945.81,74.45,2.90,9172.29,298.17,-2.18,4266.85,61.38,2.74,499.51
2605700,1502.84,552.24,1.00,1,1,1,116.55,0.39,39170.03,65.28,-1.94,12911.66,432.76,-2.23,28553.23,262.91,-2.33,3779.16,80.45,-2.72,4149.79
2627800,1500.45,549.38,1.00,1,1,1,168.58,-2.27,12543.52,726.19,-2.04,29924.05,528.52,-2.15,4674.64,244.93,-2.31,847.51,59.52,-2.65,976.35
2642500,1490.66,528.46,1.00,1,1,1,1571.74,-2.01,95878.00,1117.97,-2.16,27597.05,584.33,-2.12,3952.63,207.72,-2.70,6448.49,54.53,-2.33,1258.18
2656500,1482.59,522.73,1.00,1,1,1,706.62,-2.52,72726.85,412.18,-2.28,50737.97,463.04,-2.16,8824.84,125.33,-2.93,6451.09,32.51,-2.65,1843.95
2671500,1482.88,519.38,1.00,1,1,1,223.91,-1.49,41570.16,49.13,0.99,30728.85,200.43,2.15,38133.81,132.20,-2.92,458.45,59.90,3.05,2472.02
2693200,1483.58,524.24,1.00,1,1,1,226.11,1.43,20603.64,554.50,1.54,23646.71,388.07,1.46,12209.17,82.56,2.83,3412.38,49.31,3.08,493.05
2707600,1483.53,539.39,1.00,1,1,1,1052.11,1.57,57572.96,824.29,1.50,18825.66,452.14,1.46,4449.26,162.90,1.41,11893.15,28.50,-2.93,1603.43
2722200,1485.29,548.08,1.00,1,1,1,607.49,1.37,32416.52,329.30,1.31,34577.99,400.34,1.36,4588.03,201.91,1.10,4663.79,43.62,-1.46,3402.81
2736300,1485.98,548.52,1.00,1,1,1,57.86,0.56,40362.02,146.22,0.85,14805.31,206.21,0.85,17239.00,160.01,1.36,4480.00,34.01,-1.45,681.67
2766400,1489.57,552.92,1.00,1,1,1,188.86,0.89,4495.60,176.44,0.38,2666.40,133.85,0.10,4706.76,167.26,1.27,527.83,21.22,-1.44,425.05
2788600,1494.55,551.94,1.00,1,1,1,228.71,-0.20,9815.57,203.32,-0.52,7523.44,45.64,-1.03,5472.79,111.72,0.55,5018.69,62.34,1.18,3666.13
2803600,1496.13,549.16,1.00,1,1,1,212.95,-1.05,12277.32,213.59,-2.29,21483.78,51.26,-1.19,633.28,112.70,-0.51,7606.13,112.38,1.19,3336.97
2833400,1488.27,544.72,1.00,1,1,1,303.07,-2.63,12450.98,111.96,-3.12,5395.74,64.63,-0.46,1444.54,108.33,-0.35,609.11,90.70,1.30,811.43
2848200,1491.14,549.04,1.00,1,1,1,350.28,0.98,42940.87,277.82,0.39,25987.00,132.38,-1.03,5754.19,94.16,-0.70,2532.71,60.09,1.03,2469.95
2877900,1499.72,549.38,1.00,1,1,1,289.16,0.04,9961.84,304.55,-0.75,10571.09,198.06,-0.18,4982.38,45.01,-1.08,1852.90,46.48,-0.01,1831.77
2900400,1502.78,538.21,1.00,1,1,1,514.62,-1.30,23571.19,237.62,-1.05,4615.06,145.41,-0.53,3522.76,33.65,1.78,3463.62,34.24,-0.55,1090.23
2914700,1504.11,541.81,1.00,1,1,1,268.46,1.22,52413.35,174.18,1.87,28610.75,62.10,-2.06,10876.84,18.00,0.67,2122.41,31.77,0.63,2575.38
2929400,1501.31,543.04,1.00,1,1,1,207.73,2.73,22389.12,260.18,2.58,11666.90,309.12,2.02,23772.72,64.87,-1.38,5099.22,15.43,0.87,1167.70
2943300,1497.82,545.79,1.00,1,1,1,319.77,2.48,9304.96,448.90,2.08,18166.02,221.71,2.82,15986.28,79.35,-1.78,2288.29,34.95,-2.36,3621.81
2958000,1495.04,554.24,1.00,1,1,1,605.35,1.89,26016.10,203.82,3.07,25606.70,139.79,-2.77,9863.41,78.46,2.67,8515.85,25.01,-2.23,728.18
2980100,1490.34,546.36,1.00,1,1,1,415.12,-2.11,42167.34,406.17,-1.72,19975.41,100.29,-1.61,6115.43,129.35,2.27,2935.65,26.73,-0.66,1649.11
2994100,1492.89,539.74,1.00,1,1,1,507.14,-1.20,29415.50,350.31,-0.78,24601.63,174.74,-1.65,5330.31,128.16,2.16,986.79,12.04,-1.20,1252.70
3009100,1497.54,539.20,1.00,1,1,1,311.95,-0.12,30357.59,103.17,1.18,26730.57,144.16,1.16,20968.06,78.42,-3.05,7587.47,20.47,3.02,1879.17
3024600,1494.10,542.64,1.00,1,1,1,314.14,2.36,38144.13,511.51,1.82,27949.61,277.17,1.60,10267.44,84.44,-1.87,5874.28,56.08,1.89,3283.63
3039300,1493.77,554.18,1.00,1,1,1,784.95,1.60,40583.36,469.74,1.69,5068.72,171.89,2.63,16343.53,56.61,-1.03,4263.15,70.55,1.63,1464.36
3053900,1492.44,556.30,1.00,1,1,1,171.78,2.13,44001.02,302.72,-2.17,49687.48,37.17,2.81,9278.39,48.95,1.66,7049.75,56.32,1.54,1053.31
3076600,1487.41,544.85,1.00,1,1,1,551.37,-1.98,29236.83,341.46,-1.62,7802.19,207.64,-1.55,9828.01,88.37,1.85,1817.47,98.36,1.80,2029.33
3091600,1491.75,543.45,1.00,1,1,1,303.81,-0.31,43751.01,269.81,-0.61,20239.35,152.36,-1.58,3702.17,78.17,1.12,3981.30,98.79,1.88,580.22
3106500,1494.02,540.22,1.00,1,1,1,264.90,-0.96,12357.33,85.25,1.35,20938.66,146.55,0.63,17941.64,81.49,0.56,2979.19,61.23,1.95,2542.67
3121800,1492.32,545.96,1.00,1,1,1,390.98,1.86,42321.31,328.69,1.52,16031.12,175.69,0.89,3273.67,64.43,0.22,1958.83,12.10,2.64,3428.65
3136300,1494.47,550.01,1.00,1,1,1,316.16,1.08,19061.35,280.03,0.75,16217.34,328.60,1.15,11387.94,196.14,1.41,12571.84,16.33,-0.77,1943.04
3151300,1498.38,551.57,1.00,1,1,1,280.84,0.38,13868.31,361.97,0.86,6007.77,194.55,0.92,9701.17,247.07,1.71,5599.60,81.07,-1.47,4625.28
3172400,1502.95,559.95,1.00,1,1,1,452.29,1.07,14041.23,149.97,1.11,10407.29,274.85,1.69,9064.48,156.57,2.00,5017.44,100.84,-1.86,1900.42
3202000,1501.76,558.39,1.00,1,1,1,66.50,-2.22,17504.02,368.33,2.32,11634.05,337.30,1.96,3452.39,31.97,-2.07,6000.36,97.32,-1.96,340.61
3217000,1491.81,572.03,1.00,1,1,1,1125.43,2.20,76413.33,620.34,2.16,17478.71,213.25,3.01,19809.20,95.89,-1.14,5398.42,59.48,-1.96,2522.99
3246700,1486.25,581.37,1.00,1,1,1,366.20,2.11,25641.94,275.31,-2.25,25195.21,254.37,-2.18,8227.91,199.40,-1.63,4155.68,11.96,2.80,2023.90
3262000,1484.00,562.41,1.00,1,1,1,1248.00,-1.69,101601.80,1089.81,-1.48,59666.21,459.48,-1.32,22946.60,244.34,-2.05,6669.53,35.31,1.00,2601.52
3283500,1489.83,541.43,1.00,1,1,1,1012.93,-1.30,22981.68,871.29,-1.00,23756.68,944.96,-1.41,22731.00,244.77,-2.19,1542.13,26.03,0.30,1052.87
3298100,1500.91,535.89,1.00,1,1,1,848.60,-0.46,52803.73,775.12,-1.28,17052.59,550.42,-1.53,27693.36,312.05,-1.82,8339.50,67.02,-1.39,5125.49
3313200,1496.36,519.35,1.00,1,1,1,1136.28,-1.84,84781.99,617.60,-2.59,56638.28,231.58,-2.19,26103.94,276.53,-1.51,6424.12,110.76,-1.36,2903.55
3327600,1485.40,526.33,1.00,1,1,1,901.80,2.57,114261.83,613.99,2.50,48182.07,349.23,-2.82,14734.77,156.94,-0.72,13869.45,147.80,-1.98,5972.81
3342800,1481.83,530.27,1.00,1,1,1,350.07,2.31,37594.08,174.92,2.53,28897.20,396.57,1.87,35033.62,94.03,0.61,10712.29,179.81,-2.79,8743.55
3358000,1481.04,529.37,1.00,1,1,1,78.74,-2.29,24182.61,426.32,1.14,28435.91,399.60,1.01,21941.05,45.60,-2.13,9028.37,192.16,-2.85,1078.68
3379900,1488.50,544.61,1.00,1,1,1,774.86,1.12,38865.55,746.17,0.81,16839.61,382.89,0.79,3903.58,69.95,0.13,4801.53,195.57,-2.81,371.98
3393900,1499.54,548.74,1.00,1,1,1,842.10,0.36,42954.51,403.95,0.31,31069.18,258.07,0.10,17663.18,37.65,-1.34,5425.28,155.98,-2.87,2939.26
3408400,1499.45,548.17,1.00,2,2,2,39.85,-1.73,59492.15,599.93,-1.67,58354.56,501.43,-0.97,30364.17,214.79,2.74,16488.00,70.55,3.01,6537.65
3423500,1497.86,531.06,1.00,2,2,2,1137.84,-1.66,72721.65,947.30,-1.37,27255.56,498.60,-2.02,33191.22,362.94,2.54,10513.56,70.99,-2.77,2300.06
3438200,1505.02,520.50,1.00,2,2,2,868.49,-0.97,49195.98,480.75,-2.45,56879.48,659.17,-2.99,37956.11,431.98,2.76,7553.02,78.88,2.76,3790.38
3454100,1486.51,521.70,1.00,1,1,1,1166.89,3.08,115287.18,1429.28,2.74,80505.09,922.57,2.71,32595.39,433.07,3.09,8933.80,69.84,2.19,2675.35
3475800,1455.53,541.44,1.00,1,1,1,1692.72,2.57,40295.43,1560.56,2.48,18960.39,1201.02,2.55,15010.39,211.32,-2.98,10651.85,97.76,2.42,1567.28
3490700,1441.46,556.82,1.00,1,1,1,1398.78,2.31,33463.58,1000.42,2.20,44375.91,781.83,2.51,28262.31,103.05,-3.00,7268.49,157.12,2.60,4252.48
3504800,1438.52,564.94,1.00,1,1,1,612.84,1.92,61368.03,219.39,-0.92,86507.76,253.10,0.14,69468.45,200.83,2.90,7930.12,258.37,2.97,8902.31
3519400,1445.28,551.81,1.00,1,1,1,1011.68,-1.10,111056.21,1096.86,-0.57,61247.46,629.95,-0.59,32388.71,161.70,2.11,9889.87,281.11,2.95,1592.96
3540800,1471.82,543.73,1.00,1,1,1,1296.71,-0.30,43771.18,870.37,-0.55,10627.31,674.93,-0.78,6054.42,56.14,1.03,6743.43,256.65,2.88,1455.83
3570000,1482.91,528.93,1.00,1,1,1,633.11,-0.93,29808.48,393.68,-1.29,21858.84,386.75,-0.33,12563.48,24.11,-1.54,2654.12,229.93,2.63,2271.83
3584000,1476.57,527.39,1.00,1,1,1,466.34,-2.90,65894.67,529.49,2.15,65215.40,134.07,2.70,37160.54,149.59,-2.80,10290.10,254.53,2.61,1811.22
3599100,1474.43,541.80,1.00,1,1,1,964.30,1.72,73413.55,518.71,2.22,2259.69,593.15,2.61,30448.85,170.16,2.69,8260.30,166.93,2.51,5957.23
3636500,1460.20,549.16,1.00,1,1,1,428.37,2.66,21224.50,673.68,2.81,10197.80,837.11,2.69,6664.55,320.24,2.65,4021.10,5.43,-2.43,4433.43
3650600,1441.58,552.96,1.00,1,1,1,1347.83,2.94,66874.81,1602.67,2.97,66844.13,726.47,2.75,8683.49,382.57,2.47,6289.61,62.74,-1.47,4238.93
3664500,1416.01,556.95,1.00,1,1,1,1862.05,2.99,37376.92,828.60,2.67,60966.63,630.01,2.63,9223.90,321.20,2.43,4543.85,130.97,-2.11,6389.48
3678700,1420.88,563.61,1.00,1,1,1,580.85,0.94,154233.87,541.75,0.67,81812.84,170.42,1.81,37278.05,194.28,2.83,11374.02,257.46,3.13,15675.92
3694100,1428.56,566.93,1.00,1,1,1,543.66,0.41,19339.91,473.48,0.02,21544.89,363.74,0.07,27688.10,84.40,-2.16,12305.43,655.11,2.84,26914.93
3716900,1438.96,563.95,1.00,1,1,1,474.32,-0.28,15292.79,382.91,-0.60,12093.26,431.91,-0.46,9544.26,111.85,-1.46,3180.15,1028.43,2.76,16644.36
3732300,1440.61,558.64,1.00,1,1,1,361.45,-1.27,26585.54,527.26,-1.02,15278.16,552.87,-0.80,13299.50,192.31,-1.44,5226.82,1174.69,2.71,10226.35
3746600,1447.17,550.62,1.00,1,1,1,724.36,-0.89,28810.53,795.10,-0.92,19217.07,424.60,-1.40,22044.15,396.44,-2.93,29795.77,1287.58,2.74,8293.26
3761000,1454.36,540.43,1.00,1,1,1,866.32,-0.96,10590.78,410.22,-1.90,45739.39,568.31,-2.26,30127.92,1066.76,2.91,50635.60,1345.11,2.76,4539.72
3776600,1443.21,538.96,1.00,2,2,2,720.93,-3.01,87232.88,1183.61,-2.93,66252.26,1265.97,3.11,65419.10,1802.70,2.83,47727.90,1261.61,2.75,5365.91
3791400,1419.21,532.76,1.00,2,2,2,1675.23,-2.89,65119.62,2447.18,2.95,97133.87,2772.71,2.79,109492.56,2199.63,2.75,28710.77,1195.36,2.76,4535.01
3806500,1371.37,552.84,1.00,2,2,2,3436.02,2.74,154629.73,4588.82,2.65,156250.57,3610.43,2.74,56738.46,2563.45,2.73,24445.97,1123.59,2.84,7594.45
3821800,1295.95,598.08,1.00,3,3,3,5748.28,2.60,156704.58,4623.65,2.64,3917.29,4032.87,2.63,37603.92,2650.05,2.73,5664.14,1093.55,2.87,2679.44
3843200,1222.28,633.89,1.00,1,1,1,3827.24,2.69,91807.87,3566.45,2.61,49794.88,3837.82,2.62,9708.15,2573.81,2.72,3847.81,1102.58,2.77,5068.03
3857900,1184.92,663.26,1.00,1,1,1,3233.49,2.48,65100.32,2880.12,2.56,48030.45,2547.66,2.66,88368.62,2492.32,2.70,6604.65,1398.00,2.75,20172.77
3873100,1150.37,681.27,1.00,1,1,1,2562.66,2.66,56412.28,1343.04,2.83,107155.26,1424.16,2.66,73914.81,1794.32,2.75,46482.47,1929.86,2.71,35209.04
3887800,1146.65,675.43,1.00,1,1,1,471.10,-2.14,174465.56,292.89,-2.01,90917.21,845.50,3.03,47873.19,1118.17,2.83,46652.32,2558.78,2.68,42963.86
3903100,1146.63,673.31,1.00,1,1,1,138.22,-1.58,23645.43,457.75,-2.66,18723.26,445.98,-2.41,42073.88,551.78,2.60,38783.70,2931.81,2.67,24535.17
3918100,1134.34,669.02,1.00,1,1,1,867.85,-2.81,55454.17,548.33,-2.52,7582.80,330.47,-1.93,14416.62,760.09,2.73,14932.43,3067.16,2.64,10394.60
3956600,1122.71,656.33,1.00,1,1,1,447.14,-2.31,13484.23,369.31,-1.43,12988.92,54.54,1.38,9984.48,1422.03,2.69,17235.15,2845.65,2.61,6309.72
3971200,1137.03,649.60,1.00,2,2,2,1083.67,-0.44,88317.94,755.75,0.73,69109.24,746.44,2.52,49703.55,2489.40,2.65,73281.37,2458.48,2.64,26995.26
4000800,1147.66,678.54,1.00,2,2,2,1041.72,1.22,52953.36,1965.94,2.36,72583.39,2875.87,2.52,71940.32,3209.74,2.64,24344.37,2208.77,2.63,8456.50
4015700,1075.01,711.30,1.00,2,2,2,5348.65,2.72,360773.87,7455.22,2.67,376852.33,5336.34,2.58,165768.29,3512.95,2.61,21128.02,2054.14,2.60,11158.47
4030700,949.21,780.06,1.00,3,3,3,9557.78,2.64,282973.64,10407.37,2.64,197643.75,7838.82,2.65,169650.16,3990.13,2.54,36409.14,1907.61,2.59,9928.40
4045800,800.66,862.50,1.00,1,1,1,11251.45,2.63,112252.49,8146.74,2.63,149728.22,7530.17,2.63,23232.68,3904.70,2.58,11021.90,1969.62,2.61,4818.80
4068200,682.21,928.52,1.00,1,1,1,6053.84,2.63,232037.29,5203.41,2.61,131594.02,5221.73,2.56,104976.43,4278.33,2.63,19421.56,1961.14,2.62,1255.91
4083000,633.85,960.71,1.00,1,1,1,3924.82,2.55,146179.58,1746.78,2.07,257249.03,2301.11,2.58,197450.11,3678.26,2.57,44253.10,1917.96,2.64,3997.42
4097800,657.29,973.82,1.00,1,1,1,1814.25,0.51,339095.36,1379.35,-0.44,200894.45,239.98,2.03,141910.05,2494.27,2.52,80553.77,2100.82,2.62,12645.86
4112400,670.63,943.61,1.00,1,1,1,2262.04,-1.15,207544.34,1287.99,-1.05,55850.85,854.05,0.06,66615.88,1361.13,2.52,77612.61,2227.28,2.64,8948.86
4127000,675.90,941.15,1.00,1,1,1,398.95,-0.44,135545.44,823.73,0.98,124099.28,315.59,-0.01,36980.33,332.61,2.38,70740.29,1884.95,2.68,24400.57
4142200,684.31,963.99,1.00,1,1,1,1601.62,1.22,110725.35,874.40,1.50,28863.10,451.14,2.20,45289.82,214.01,-1.13,35368.46,528.30,2.45,90618.98
4164200,678.24,973.59,1.00,1,1,1,516.08,2.13,61410.30,857.55,3.02,54191.56,432.57,2.55,6972.29,350.71,-2.08,12987.66,1491.17,-0.24,90001.07
4179200,652.82,967.93,1.00,1,1,1,1735.94,-2.92,109022.47,1039.91,-2.59,43528.35,719.11,-2.53,46368.99,434.80,-3.03,24386.64,3116.02,-0.28,108451.80
4194000,651.86,957.33,1.00,1,1,1,719.17,-1.66,112441.46,1100.29,-1.81,55365.84,961.23,-2.41,17598.10,417.99,-0.97,49381.04,4275.05,-0.25,78617.25
4208700,645.28,936.36,1.00,4,4,4,1495.09,-1.87,54878.49,918.12,-2.21,29936.90,804.41,-2.45,10917.96,2483.08,-0.52,143816.10,3908.51,-0.22,26346.63
4223800,635.61,935.31,1.00,4,4,4,643.98,-3.03,90795.17,980.53,3.10,58992.46,1248.15,-0.84,99898.84,5637.23,-0.42,210494.65,3410.53,-0.23,33002.36
4238400,616.18,937.51,1.00,4,4,4,1339.39,3.03,49640.51,2216.91,-0.51,213839.48,5315.64,-0.40,289175.57,7336.48,-0.34,121367.14,2953.03,-0.26,31950.27
4261000,707.50,894.90,1.00,4,4,4,4458.92,-0.44,254180.43,10377.54,-0.37,362296.12,11135.58,-0.35,258148.27,8385.07,-0.27,52302.01,2618.93,-0.39,21991.53
4275000,969.90,799.15,1.00,4,4,4,19951.77,-0.35,1108172.71,22821.12,-0.33,890309.94,13058.80,-0.30,142880.02,6833.23,-0.20,116616.23,2328.57,-0.55,35031.36
4289500,1323.61,686.51,1.00,4,4,4,25601.05,-0.31,394967.07,15339.20,-0.26,522815.50,15149.01,-0.23,160010.70,6157.19,-0.19,47344.48,2261.58,-0.59,7989.97
4318700,1617.54,626.23,1.00,4,4,4,10275.34,-0.20,528142.51,10377.98,-0.09,184676.27,7982.55,-0.11,249253.50,5566.65,-0.23,22529.98,2264.17,-0.54,3736.71
4333800,1781.36,643.72,1.00,4,4,4,10910.98,0.11,219605.21,2727.10,0.64,566366.14,3091.30,0.22,342349.10,4600.88,-0.35,73940.17,2230.91,-0.50,6058.44
4371100,1732.03,711.75,1.00,4,4,4,2252.95,2.20,326815.89,3925.06,2.57,147789.52,1963.36,2.46,122502.24,2197.34,-0.57,67316.17,2150.54,-0.51,2232.91
4385100,1611.74,752.22,1.00,4,4,4,9065.10,2.82,524782.31,8168.85,3.08,363858.65,5040.38,3.11,263181.34,799.24,-2.53,185873.06,2129.77,-0.54,3794.28
4400400,1493.20,727.58,1.00,4,4,4,7913.30,-2.94,299358.89,8670.14,-2.75,249143.96,8304.37,-2.94,234258.08,2780.49,3.13,142955.86,2065.23,-0.54,4221.13
4414800,1373.25,655.12,1.00,4,4,4,9732.04,-2.60,241030.72,8994.06,-2.70,41744.42,6297.30,-2.80,156354.61,3873.57,3.13,75934.68,1740.92,-0.56,22741.34
4429700,1255.23,614.38,1.00,1,1,1,8379.44,-2.81,156654.67,4394.70,-2.87,317048.26,4586.32,-2.82,115095.65,4450.22,-3.00,57106.60,894.15,-0.84,61298.67
4451500,1217.91,611.74,1.00,1,1,1,1716.28,-3.07,309002.25,1390.72,2.76,155718.21,2446.09,-3.10,106959.61,3729.61,-2.86,41828.95,506.74,-2.45,47887.61
4465800,1208.58,632.94,1.00,1,1,1,1619.76,1.99,134428.51,1255.57,1.73,91503.67,1130.10,2.90,97937.04,2802.47,-2.86,64837.74,1250.02,-2.97,59430.72
4480800,1211.96,648.04,1.00,1,1,1,1031.81,1.35,66559.59,860.58,-3.13,94331.41,976.23,2.96,11127.87,1874.66,-3.04,67408.26,1516.42,-2.94,17902.87
4495800,1182.77,632.53,1.00,1,1,1,2204.29,-2.65,198713.82,1899.46,-2.68,79027.47,1072.84,-3.05,20022.35,864.10,-3.09,67517.55,1403.63,-2.73,22321.26
4510900,1160.90,622.33,1.00,1,1,1,1597.93,-2.71,40682.00,1250.26,-3.00,54325.49,1311.79,-2.93,18284.13,155.02,-1.88,54496.59,1142.70,-2.50,25920.75
4532400,1137.45,626.16,1.00,1,1,1,1104.84,2.98,43022.76,955.90,2.91,23033.14,725.37,-2.62,30670.01,773.86,-0.73,33660.12,762.07,-2.28,20006.50
4546400,1127.83,629.96,1.00,2,2,2,739.01,2.77,29563.20,612.18,-1.35,95743.50,898.22,-0.52,100871.31,1175.07,-0.57,30702.67,320.37,-1.64,38589.06
4561600,1141.40,608.73,1.00,2,2,2,1657.94,-1.00,151182.05,3062.23,-0.41,180576.26,2606.84,-0.39,113162.08,1431.08,-0.36,24642.94,433.63,-0.41,29312.84
4576400,1212.06,593.28,1.00,2,2,2,4887.12,-0.22,263387.27,4805.84,-0.29,122159.08,3094.19,-0.31,36043.83,1413.20,-0.28,7668.04,513.60,-0.42,5411.19
4591900,1281.10,567.64,1.00,3,3,3,4751.45,-0.36,44509.40,3131.35,-0.25,108478.30,2975.83,-0.21,21257.80,1426.22,-0.30,1564.67,464.17,-0.72,9860.29
4622500,1352.04,558.02,1.00,1,1,1,2339.64,-0.13,82397.78,1931.79,-0.10,40988.25,1849.74,-0.19,36826.26,1581.30,-0.27,5181.02,240.04,-1.05,8200.73
4644000,1381.26,557.82,1.00,1,1,1,1359.22,-0.01,46816.55,318.17,0.58,78863.72,718.67,-0.09,52888.21,1486.81,-0.19,7378.07,143.60,2.30,17751.19
4658800,1361.70,564.35,1.00,1,1,1,1393.06,2.82,183661.27,711.45,3.03,66035.74,191.42,0.32,37071.48,867.29,-0.29,42597.90,596.63,2.24,30632.76
4688200,1350.03,561.44,1.00,1,1,1,409.34,-2.90,36401.27,116.92,-0.28,28131.36,177.22,2.60,11379.30,245.55,-0.68,21970.92,944.66,2.23,11840.76
4703300,1366.71,562.92,1.00,1,1,1,1109.24,0.09,100330.58,674.90,0.16,37816.07,165.62,-1.65,19321.25,658.77,2.89,58817.29,1043.47,2.27,7148.84
4718200,1370.02,564.64,1.00,1,1,1,250.17,0.48,59261.12,304.71,-1.98,58887.28,495.68,-2.59,28201.47,1607.85,2.70,65062.93,1125.91,2.28,5550.01
4755100,1360.42,548.45,1.00,2,2,2,510.16,-2.11,19905.86,1150.15,-2.72,25691.60,1469.12,2.96,31087.96,2373.03,2.57,21832.95,1281.44,2.39,5548.59
4770300,1315.28,540.25,1.00,2,2,2,3017.75,-2.96,178339.96,3894.68,2.83,206063.06,2898.59,2.71,100226.56,3372.99,2.50,67155.66,1498.96,2.46,15842.17
4785400,1248.03,584.44,1.00,3,3,3,5329.48,2.56,249720.43,6764.06,2.48,223609.35,6278.48,2.53,229031.71,3645.28,2.53,19516.34,1790.20,2.56,21946.39
4800500,1153.71,665.24,1.00,3,3,3,8224.73,2.43,199655.21,8915.45,2.41,147957.92,7740.28,2.42,110723.28,3672.76,2.55,4246.55,1908.92,2.60,9452.21
4815600,1048.48,765.20,1.00,1,1,1,9612.02,2.38,96719.05,8745.43,2.37,25098.43,6533.27,2.42,79944.65,4222.20,2.52,37211.31,1778.18,2.62,8844.85
4830600,965.54,849.32,1.00,1,1,1,7875.39,2.35,117321.77,4563.14,2.43,280091.73,4717.31,2.43,121121.41,3961.14,2.46,22841.62,1836.79,2.59,4723.71
4852100,922.29,873.90,1.00,1,1,1,2313.99,2.62,264360.42,1426.01,2.73,150056.72,2343.10,2.47,110692.05,3311.79,2.47,30268.22,1917.79,2.56,4893.22
4866600,918.56,870.01,1.00,1,1,1,371.73,-2.33,155314.61,461.09,-1.23,122290.25,609.55,3.01,127242.94,2302.62,2.52,70041.27,3672.76,2.55,121051.87
4881700,926.80,861.02,1.00,1,1,1,807.63,-0.83,57415.95,561.94,-1.14,7369.69,529.23,-1.64,55149.57,1084.06,2.73,83855.33,4222.20,2.52,37211.31
4896700,925.60,854.63,1.00,1,1,1,433.45,-1.76,43219.21,659.47,-1.92,31333.29,598.27,-1.54,5779.79,402.35,-2.66,59269.45,3961.14,2.46,22841.62
4911400,920.18,842.59,1.00,1,1,1,898.47,-1.99,33197.05,718.66,-1.87,4657.57,606.78,-1.82,11439.38,173.54,-1.35,26872.43,3311.79,2.47,44269.85
4926000,919.48,834.49,1.00,1,1,1,557.19,-1.66,28483.07,568.34,-1.74,11702.66,466.88,-1.81,9601.80,598.27,-1.54,29422.51,2302.62,2.52,69561.54
4948000,916.70,822.08,1.00,1,1,1,577.78,-1.79,3588.59,272.57,-1.69,13475.84,184.40,0.96,29192.19,606.78,-1.82,7643.58,1084.06,2.73,57555.25
4963400,918.30,824.36,1.00,1,1,1,180.59,0.96,48569.05,1084.00,1.24,87767.00,272.57,-1.69,28815.64,466.88,-1.81,9103.01,402.35,-2.66,57729.98
4977800,927.17,852.64,1.00,1,1,1,2058.39,1.27,131041.54,2058.39,1.27,67719.46,1084.00,1.24,93861.93,184.40,0.96,44599.18,173.54,-1.35,27432.27
