@RELATION gaze_labels

%@METADATA width_px 1920
%@METADATA height_px 1080
%@METADATA width_mm 540.00
%@METADATA height_mm 254.00
%@METADATA distance_mm 620.00


@ATTRIBUTE time INTEGER
@ATTRIBUTE x NUMERIC
@ATTRIBUTE y NUMERIC
@ATTRIBUTE confidence NUMERIC
@ATTRIBUTE handlabeller1 INTEGER
@ATTRIBUTE handlabeller2 INTEGER
@ATTRIBUTE handlabeller_final INTEGER
@ATTRIBUTE speed_1 numeric
@ATTRIBUTE direction_1 numeric
@ATTRIBUTE acceleration_1 numeric
@ATTRIBUTE speed_2 numeric
@ATTRIBUTE direction_2 numeric
@ATTRIBUTE acceleration_2 numeric
@ATTRIBUTE speed_4 numeric
@ATTRIBUTE direction_4 numeric
@ATTRIBUTE acceleration_4 numeric
@ATTRIBUTE speed_8 numeric
@ATTRIBUTE direction_8 numeric
@ATTRIBUTE acceleration_8 numeric
@ATTRIBUTE speed_16 numeric
@ATTRIBUTE direction_16 numeric
@ATTRIBUTE acceleration_16 numeric

%The number after speed, direction denotes the step size that was used for the calculation.
%Acceleration was calculated between two adjacent samples of the already low pass filtered velocity

@DATA
0,379.65,772.58,1.00,1,1,1,0.00,0.00,0.00,408.71,-2.47,0.00,358.26,-2.45,0.00,282.41,-2.44,0.00,291.22,-2.73,0.00
14600,375.00,768.85,1.00,1,1,1,408.71,-2.47,27993.66,358.26,-2.45,3496.43,272.99,-2.41,5888.08,280.75,-2.36,1501.16,121.00,-2.86,11794.63
29800,371.46,765.73,1.00,1,1,1,309.98,-2.42,6584.25,272.99,-2.41,5655.66,282.41,-2.44,782.86,170.70,0.99,29554.32,465.82,0.55,38366.06
44800,368.86,763.34,1.00,1,1,1,235.53,-2.40,4978.15,206.85,-2.42,4412.38,280.75,-2.36,1461.12,112.54,2.23,11451.13,1546.72,0.41,72523.43
59700,366.81,761.65,1.00,1,1,1,178.13,-2.45,3924.16,289.58,-2.31,5853.65,170.70,0.99,30149.38,291.22,-2.73,19162.51,2787.25,0.32,84213.53
73800,363.21,757.13,1.00,1,1,1,410.19,-2.24,16940.94,473.58,0.89,54101.53,112.54,2.23,12182.06,121.00,-2.86,12212.88,3487.21,0.28,50362.33
96500,377.73,775.24,1.00,1,1,1,1022.53,0.90,63115.28,260.80,1.56,13826.70,312.06,-2.92,12483.54,465.82,0.55,25690.05,3707.86,0.19,17055.95
124900,363.32,770.45,1.00,1,1,1,534.62,-2.82,52807.49,915.84,-2.65,37550.92,103.38,2.15,10316.24,1546.72,0.41,38304.63,4170.43,0.16,16817.84
140600,342.20,756.03,1.00,1,1,1,1628.90,-2.54,71624.98,257.53,-2.21,43972.27,684.16,0.48,44692.70,2787.25,0.32,79922.39,2111.52,0.15,131146.71
155300,358.62,764.19,1.00,2,2,2,1247.37,0.46,195207.46,2048.90,0.49,155403.41,3088.86,0.37,163921.19,3487.21,0.28,48306.72,2027.10,0.17,5960.37
192300,435.86,805.51,1.00,2,2,2,2367.53,0.49,30306.75,5042.18,0.39,81329.40,5912.32,0.31,76637.26,3707.86,0.19,10464.06,1973.44,0.15,1710.54
206800,598.81,862.88,1.00,2,2,2,11913.88,0.34,660736.77,12992.19,0.26,552797.24,6521.35,0.27,46481.71,4170.43,0.16,32939.77,2051.26,0.16,5809.36
220800,793.37,901.90,1.00,3,3,3,14174.13,0.20,207489.82,8372.18,0.18,336189.50,7403.47,0.16,82492.60,4205.55,0.17,3680.29,2092.45,0.20,5726.09
249800,953.18,926.32,1.00,1,1,1,5574.54,0.15,296878.09,4368.62,-0.02,143813.45,5394.39,0.04,74290.82,3750.62,0.17,15688.54,2223.98,0.13,6657.62
271500,1014.83,898.28,1.00,1,1,1,3121.07,-0.43,157490.27,2439.78,-0.57,120605.13,2699.57,-0.15,128266.02,3534.10,0.10,15662.81,2397.32,-0.02,18330.26
286600,1029.01,878.24,1.00,1,1,1,1625.56,-0.96,125995.18,971.71,-1.80,152748.09,926.21,-0.77,133893.62,2657.46,0.02,60266.62,2820.16,-0.11,31832.38
301300,1008.34,870.06,1.00,1,1,1,1512.07,-2.76,167896.05,512.25,-2.96,61271.63,482.62,-1.86,55845.15,1457.57,-0.03,81892.75,3088.69,-0.16,20927.41
330600,1006.84,874.15,1.00,1,1,1,148.81,1.92,51988.07,208.14,-2.02,14493.10,287.76,-2.73,12616.76,974.03,-0.55,26462.36,3059.54,-0.20,3745.53
353700,1003.63,860.22,1.00,2,2,2,618.95,-1.80,32384.22,169.51,-1.07,7588.84,387.97,0.87,28502.64,1309.99,-0.87,21509.02,3054.90,-0.21,1971.20
361300,1009.33,869.58,1.00,2,2,2,1442.25,1.02,268295.86,1475.06,0.94,204567.41,1089.66,-0.32,133072.11,1933.47,-0.84,82338.15,2547.44,-0.33,78875.48
382200,1028.50,894.12,1.00,2,2,2,1489.61,0.91,8463.57,1925.64,-0.26,93667.99,2850.83,-0.67,89391.87,2597.59,-0.81,31955.93,1980.66,-0.52,34044.41
396900,1075.52,851.74,1.00,3,3,3,4306.48,-0.73,316654.47,5856.95,-0.92,305170.27,4238.15,-0.77,97010.95,3033.79,-0.81,29686.79,1602.42,-0.75,38250.53
411500,1132.68,757.76,1.00,3,3,3,7534.26,-1.02,248332.41,7316.82,-0.92,99998.13,6191.58,-0.89,140897.72,2986.39,-0.69,25586.82,1306.82,-0.84,22158.13
427200,1210.60,675.94,1.00,1,1,1,7196.26,-0.81,102729.82,6516.66,-0.87,54884.65,5101.44,-0.91,69823.27,2796.71,-0.70,12411.28,1211.38,-0.84,6080.52
442000,1260.95,605.93,1.00,1,1,1,5827.00,-0.95,110349.33,3292.20,-0.91,218188.53,3102.66,-0.70,146273.12,2983.20,-0.81,24131.60,1166.60,-0.72,10093.61
464300,1285.85,579.73,1.00,1,1,1,1620.58,-0.81,189565.32,961.36,0.46,145021.23,1414.34,-0.52,77579.45,2290.84,-0.84,31270.63,1264.54,-0.72,4392.86
479300,1293.14,621.72,1.00,1,1,1,2841.24,1.40,268238.36,1636.99,1.43,90047.07,476.83,0.42,79873.49,1305.07,-0.82,65786.53,1187.45,-0.66,7281.21
494400,1292.95,628.49,1.00,1,1,1,448.42,1.60,159164.00,128.19,-2.38,115204.19,440.42,1.44,29834.00,582.82,-0.86,47893.19,1223.45,-0.64,2959.74
509500,1290.33,619.06,1.00,1,1,1,648.48,-1.84,71862.40,397.53,-1.75,20111.86,252.41,-2.29,44026.26,175.78,0.69,40111.58,1495.19,-0.48,22678.99
537400,1289.91,611.67,1.00,1,1,1,265.15,-1.63,14100.53,311.42,-2.27,7226.46,334.96,-2.29,2958.71,222.66,1.21,4003.38,1812.64,-0.25,17617.70
573400,1277.47,603.87,1.00,1,1,1,407.87,-2.58,9277.50,371.84,-2.77,4928.73,80.73,2.28,9874.25,124.79,1.94,4285.00,2208.67,-0.06,15423.71
588700,1272.15,604.73,1.00,1,1,1,352.45,2.98,17799.78,520.37,1.25,52923.36,104.09,0.44,9655.36,145.79,0.75,10022.98,2324.58,-0.02,10010.79
617500,1284.65,625.67,1.00,1,1,1,846.97,1.03,35795.27,588.22,0.40,16113.41,484.30,1.37,14939.11,874.05,0.44,25572.00,2163.11,0.05,7638.68
639100,1299.49,616.19,1.00,4,4,4,815.19,-0.57,55245.32,451.01,1.54,26515.60,711.52,0.81,18450.90,2052.95,0.31,55134.22,1965.46,0.05,9152.17
653700,1285.20,641.99,1.00,4,4,4,2020.10,2.08,189337.84,1079.90,1.18,46254.34,2321.10,0.39,116194.13,3804.54,0.22,121441.02,1772.14,0.00,14689.77
668700,1311.58,645.78,1.00,4,4,4,1776.76,0.14,208565.10,4857.71,0.29,284561.73,5374.33,0.31,204335.20,4474.85,0.09,56198.85,1582.10,-0.03,13319.44
684500,1428.76,684.14,1.00,4,4,4,7803.57,0.32,383628.99,10010.62,0.23,327124.65,8655.21,0.15,219195.41,4825.88,0.02,30078.99,1347.14,-0.07,15237.65
698800,1605.11,713.87,1.00,4,4,4,12506.11,0.17,344633.25,12730.06,0.09,218811.64,9178.88,0.03,80946.74,4552.85,-0.01,21621.98,1084.80,-0.10,18494.75
713700,1798.94,717.82,1.00,4,4,4,13012.07,0.02,129926.73,8806.66,-0.15,314200.48,7552.09,-0.09,127779.20,4274.64,-0.03,20145.52,838.90,-0.05,16782.35
735900,1928.11,664.68,1.00,4,4,4,6291.25,-0.39,345352.30,4057.78,-0.54,238106.75,4328.12,-0.36,161051.48,3607.81,-0.07,30794.32,546.06,0.13,14258.65
750900,1928.26,639.96,1.00,4,4,4,1648.51,-1.56,390363.99,2399.84,-2.32,341071.41,1474.20,-1.28,242310.61,2233.43,-0.34,104279.87,401.22,0.08,9755.54
766300,1878.59,611.11,1.00,4,4,4,3730.19,-2.62,210645.69,3469.77,-2.98,140318.30,2766.25,-2.82,200867.25,1042.39,-1.60,140077.68,338.13,0.10,4107.16
780500,1826.90,623.39,1.00,4,4,4,3740.99,2.91,195000.04,3644.11,3.13,45191.79,3949.54,-2.93,87236.44,2525.85,-2.74,162045.78,425.33,-0.33,12952.10
796100,1770.00,612.41,1.00,4,4,4,3715.04,-2.95,100587.57,4419.99,-2.90,82293.00,4658.63,-3.03,53242.51,3973.08,-3.06,112933.29,320.01,-0.51,7980.58
811100,1695.65,590.77,1.00,4,4,4,5162.59,-2.86,100205.60,5708.50,-2.96,88254.93,5368.76,-3.05,47549.00,4215.54,-3.13,25011.19,397.60,-2.14,34929.53
826100,1601.61,581.22,1.00,4,4,4,6301.36,-3.04,102657.65,6414.72,3.13,90893.44,5147.46,3.11,46926.00,3887.55,3.11,24062.60,948.05,-2.64,41987.53
841300,1501.93,592.68,1.00,4,4,4,6601.02,3.03,93461.43,4904.76,2.91,128767.03,4573.29,3.00,51227.17,3437.91,-3.10,33518.51,1594.82,-2.87,46210.66
863900,1421.19,623.91,1.00,4,4,4,3830.44,2.77,134977.85,3207.34,2.79,78092.00,3286.11,2.94,57742.34,2709.04,-3.12,32315.62,2132.08,-3.08,29567.56
878800,1389.13,634.40,1.00,4,4,4,2264.51,2.83,105610.44,1229.53,3.13,140215.70,1717.29,3.02,106009.84,2202.72,3.14,34291.05,2244.70,3.10,16061.61
893300,1385.05,624.40,1.00,1,1,1,745.02,-1.96,160920.51,947.24,-1.63,104765.27,546.04,-2.61,91447.50,1464.65,3.13,50901.89,2210.68,2.98,18516.49
908400,1387.52,606.41,1.00,1,1,1,1202.55,-1.43,44407.52,474.27,-1.50,31821.28,577.92,-2.00,22381.27,909.05,3.14,36795.44,2086.14,2.95,9731.84
937700,1386.51,603.39,1.00,1,1,1,108.69,-1.90,37757.74,447.35,-2.47,14602.00,490.59,-2.05,3104.84,607.22,3.08,10415.13,1906.78,2.89,7239.17
959000,1369.87,592.25,1.00,1,1,1,940.27,-2.55,40218.91,604.33,-2.41,7491.14,370.24,-2.75,14943.33,697.83,2.87,7751.98,1701.96,2.83,10949.67
988600,1363.61,582.85,1.00,2,2,2,381.31,-2.16,20466.78,336.09,3.08,14873.16,802.26,2.72,20614.39,993.58,2.56,13062.32,1381.97,2.74,11829.18
1002700,1355.21,593.19,1.00,2,2,2,944.46,2.25,79315.14,2016.07,2.22,128642.84,1426.44,2.45,48550.92,1253.23,2.42,21863.33,1086.94,2.70,21156.76
1017900,1327.87,629.89,1.00,1,1,1,3010.72,2.21,136018.76,2813.65,2.37,57467.44,2624.49,2.29,81574.87,1419.46,2.36,11850.23,780.49,2.73,20246.14
1039300,1281.38,664.97,1.00,1,1,1,2721.90,2.50,40204.62,3131.06,2.32,16149.72,2855.34,2.25,11939.69,1464.92,2.32,3459.24,600.36,2.69,8501.96
1053500,1251.61,711.19,1.00,1,1,1,3870.88,2.14,113847.47,2964.99,2.10,48767.95,2257.65,2.21,42551.21,1585.73,2.28,9849.19,596.03,2.55,6143.05
1068500,1237.44,739.57,1.00,1,1,1,2115.38,2.03,118861.54,1315.60,1.90,113216.87,1553.64,2.16,47382.13,1484.51,2.38,12283.96,545.36,2.55,3378.46
1083700,1238.85,748.81,1.00,1,1,1,614.73,1.42,108664.19,255.76,2.87,78340.44,578.89,2.23,64262.00,1053.44,2.50,30058.14,704.55,2.45,11127.60
1098700,1229.99,741.63,1.00,1,1,1,759.95,-2.46,85546.59,351.93,-2.57,17501.21,395.14,-2.75,40735.70,512.17,2.39,36492.09,1075.07,2.51,24926.62
1120400,1227.96,741.85,1.00,1,1,1,93.99,3.03,32120.47,570.36,-2.51,10137.14,635.83,-2.13,17933.66,92.46,2.30,19363.25,1776.83,2.63,33266.94
1135300,1213.09,729.38,1.00,1,1,1,1302.81,-2.44,83196.61,1052.27,-1.94,43652.10,505.54,-1.43,27429.31,305.18,-1.24,26320.79,2152.26,2.74,28826.21
1149700,1216.75,713.13,1.00,1,1,1,1156.85,-1.35,89335.20,1029.34,-0.76,80578.99,461.63,-0.94,16393.91,132.13,-2.07,16477.11,1778.24,2.76,26124.35
1164300,1234.71,708.80,1.00,1,1,1,1265.33,-0.24,87827.09,948.46,0.24,65380.80,658.28,-0.67,16874.71,775.86,2.85,52043.06,596.39,2.55,82264.11
1179200,1243.90,719.88,1.00,1,1,1,966.17,0.88,81019.58,428.65,-0.54,47780.93,305.93,0.97,50094.51,2111.46,2.88,89679.46,938.55,-0.04,99413.34
1209900,1251.49,698.77,1.00,2,2,2,730.69,-1.23,48152.16,404.14,2.42,27009.26,1601.61,2.62,53846.65,2912.68,2.91,26217.09,2006.51,-0.18,35346.03
1225700,1229.84,732.35,1.00,2,2,2,2528.41,2.14,205342.89,4090.24,2.62,233866.52,3875.36,2.83,147552.21,2434.03,2.86,31672.37,2450.90,-0.15,28516.07
1247100,1119.79,774.98,1.00,2,2,2,5515.02,2.77,176408.69,8392.27,2.85,210938.94,6854.92,2.86,139535.57,669.14,2.65,83387.33,2562.76,-0.10,7729.04
1261800,939.59,819.18,1.00,4,4,4,12621.76,2.90,488961.55,10599.69,2.98,172924.33,4858.67,2.91,137130.77,1709.88,-0.07,158989.42,2310.02,0.01,24796.96
1276400,813.03,823.52,1.00,4,4,4,8673.31,3.11,308071.01,1980.75,3.13,592175.13,289.75,-0.66,350907.13,3617.79,-0.12,130922.23,1893.61,0.07,30156.03
1305200,853.63,819.89,1.00,4,4,4,1415.14,-0.09,350229.85,6432.40,-0.19,291246.29,7352.02,-0.20,246292.49,4624.02,-0.13,34951.21,1354.43,0.07,18721.53
1327900,1138.28,760.61,1.00,4,4,4,12808.54,-0.21,502384.64,18086.61,-0.18,513435.24,10757.95,-0.19,150140.15,5708.85,-0.13,47790.06,677.47,-0.14,31130.43
1342800,1522.87,699.07,1.00,4,4,4,26139.84,-0.16,896549.81,15643.18,-0.19,164349.27,13615.41,-0.16,193037.95,6247.37,-0.08,41698.80,133.69,-1.81,47220.26
1373500,1839.00,627.12,1.00,4,4,4,10560.94,-0.22,508678.37,9973.66,-0.14,185827.89,11506.45,-0.11,71485.03,5968.37,-0.05,10116.71,542.31,2.83,18507.41
1388900,1978.32,636.07,1.00,4,4,4,9065.01,0.06,206599.63,5663.10,0.20,324372.63,5229.16,0.12,423801.25,5209.64,-0.10,51917.91,1022.43,2.68,31973.12
1404000,2008.28,661.44,1.00,4,4,4,2600.10,0.70,473293.36,4209.51,2.08,531256.62,2301.35,1.91,407299.94,2194.07,-0.26,202974.88,988.42,2.57,7669.02
1418700,1917.03,745.53,1.00,4,4,4,8441.24,2.40,621374.40,6809.02,2.68,277058.63,5558.63,2.84,312197.60,2028.50,-3.08,283450.08,531.80,2.19,36270.16
1440100,1788.69,771.90,1.00,4,4,4,6122.46,2.94,209954.59,8008.66,-3.13,171037.81,8589.40,3.11,165392.63,5887.44,2.98,184005.80,367.15,1.33,18860.53
1454700,1628.73,743.62,1.00,4,4,4,11126.38,-2.97,403102.40,11978.56,-2.88,319364.38,10283.87,-3.05,142538.90,8231.60,2.92,163034.32,351.19,1.94,14935.87
1470200,1439.98,680.27,1.00,4,4,4,12845.19,-2.82,159558.42,13015.69,-2.98,103050.24,11401.39,-3.11,83336.45,9137.01,2.91,58697.27,1352.55,2.67,71954.80
1485400,1234.23,680.11,1.00,4,4,4,13536.19,-3.14,282719.81,11421.82,2.95,302360.43,11171.50,2.96,159874.83,8552.98,2.96,47778.05,2908.80,2.82,104218.47
1500400,1101.63,747.37,1.00,4,4,4,9912.20,2.67,433364.12,10980.80,2.54,299996.81,10096.91,2.73,182422.71,7574.17,2.98,66172.85,4439.13,2.85,102301.46
1515100,964.76,863.81,1.00,4,4,4,12224.54,2.44,236023.52,9386.44,2.45,124938.78,7732.73,2.54,195248.34,6515.55,2.94,74610.35,4829.99,2.89,29352.73
1530400,884.13,926.22,1.00,1,1,1,6664.20,2.48,364445.53,4538.57,2.53,318725.88,4769.38,2.54,193683.78,5313.26,2.77,102100.71,4982.00,2.93,15201.42
1545300,852.21,942.03,1.00,1,1,1,2390.80,2.68,291687.37,1236.83,3.12,239897.96,2308.46,2.83,177453.75,4170.03,2.61,91248.86,4363.78,2.99,45313.04
1567200,838.62,927.17,1.00,1,1,1,919.33,-2.31,105552.84,1277.36,-2.39,43250.31,1058.59,-3.12,61591.07,3113.08,2.61,48264.68,3956.67,2.99,18590.16
1581700,818.21,910.31,1.00,1,1,1,1825.77,-2.45,63741.24,839.67,-3.05,55234.45,1060.17,3.11,3464.02,1626.79,2.76,105132.04,3217.59,2.93,52959.91
1596700,813.95,924.91,1.00,1,1,1,1014.22,1.85,160935.52,1680.65,2.38,86195.67,1291.23,2.90,22670.42,1026.71,3.09,48866.66,2530.60,2.79,52720.64
1610800,782.79,944.03,1.00,1,1,1,2592.77,2.59,139254.80,1817.52,2.75,45950.45,967.53,2.58,33880.82,814.06,-3.04,18052.63,1787.67,2.65,57119.21
1625800,765.17,945.34,1.00,1,1,1,1178.31,3.07,109154.87,514.03,3.12,90127.48,1000.46,3.01,27872.55,705.21,3.07,11331.05,1286.27,2.62,33512.14
1648400,763.47,944.48,1.00,1,1,1,84.06,-2.67,48987.28,553.42,-2.53,14918.27,635.11,-2.87,21392.86,528.37,2.84,10026.78,737.93,2.75,24919.45
1662700,748.49,933.55,1.00,1,1,1,1296.80,-2.51,84890.44,764.23,-2.71,16954.63,339.90,-2.74,21059.00,376.44,3.05,12515.00,416.49,2.98,24140.65
1693500,732.15,930.09,1.00,1,1,1,542.20,-2.93,27017.33,202.95,3.04,19416.01,286.34,-2.76,1748.74,109.90,-1.79,12294.24,288.33,-3.06,4953.37
1708500,739.24,934.47,1.00,2,2,2,555.64,0.55,72101.94,208.73,0.58,25893.18,56.56,-0.57,21511.65,113.42,-0.78,7196.38,255.92,3.08,3355.90
1737300,739.82,935.07,1.00,1,1,1,28.86,0.80,18323.53,284.03,-0.27,7432.29,574.90,-0.08,18251.94,22.86,0.01,3428.00,212.38,2.96,1780.25
1759100,753.09,930.62,1.00,1,1,1,641.99,-0.32,28905.61,1060.82,-0.22,35658.07,481.56,-0.06,4311.33,133.13,0.60,5270.07,213.27,-3.01,3060.50
1775000,778.86,926.42,1.00,1,1,1,1642.61,-0.16,63796.63,822.74,0.06,22272.58,428.79,0.33,11602.96,244.24,0.15,8679.64,118.84,-2.52,7666.89
1789900,778.38,932.23,1.00,1,1,1,391.10,1.65,119366.08,732.98,2.15,90252.07,324.11,0.87,14935.16,179.33,-0.10,5589.24,113.42,-0.78,11890.09
1804500,767.04,944.52,1.00,1,1,1,1145.52,2.32,59626.15,636.32,2.34,11222.54,221.81,2.48,27388.58,172.69,-0.65,6543.90,22.86,0.01,6762.08
1818700,765.58,945.35,1.00,1,1,1,117.87,2.63,72808.32,261.06,-1.52,59876.59,203.40,-3.11,10335.54,111.71,-1.57,9681.84,133.13,0.60,8090.67
1839900,767.53,935.29,1.00,1,1,1,483.09,-1.38,26737.18,380.70,-1.59,5757.04,383.28,-1.94,16800.71,192.78,-3.04,10024.85,244.24,0.15,6509.73
1854400,765.27,931.76,1.00,1,1,1,289.38,-2.14,23358.48,569.44,-2.16,22269.09,474.62,-1.98,6411.65,203.40,-3.11,1182.74,179.33,-0.10,5743.42
1869800,758.00,921.18,1.00,1,1,1,833.24,-2.17,35329.82,640.48,-2.25,5632.68,283.36,-2.41,15992.06,383.28,-1.94,23128.25,172.69,-0.65,6203.96
1884800,753.08,916.58,1.00,1,1,1,449.52,-2.39,27067.67,137.43,2.41,44190.79,640.48,-2.25,24236.90,474.62,-1.98,6197.93,111.71,-1.57,9165.48
1899700,754.95,923.94,1.00,1,1,1,509.79,1.32,61802.88,509.79,1.32,31004.79,137.43,2.41,44487.37,283.36,-2.41,16528.71,192.78,-3.04,14263.54
