@RELATION gaze_labels

%@METADATA width_px 1920
%@METADATA height_px 1080
%@METADATA width_mm 540.00
%@METADATA height_mm 254.00
%@METADATA distance_mm 620.00


@ATTRIBUTE time INTEGER
@ATTRIBUTE x NUMERIC
@ATTRIBUTE y NUMERIC
@ATTRIBUTE confidence NUMERIC
@ATTRIBUTE handlabeller1 INTEGER
@ATTRIBUTE handlabeller2 INTEGER
@ATTRIBUTE handlabeller_final INTEGER
@ATTRIBUTE speed_1 numeric
@ATTRIBUTE direction_1 numeric
@ATTRIBUTE acceleration_1 numeric
@ATTRIBUTE speed_2 numeric
@ATTRIBUTE direction_2 numeric
@ATTRIBUTE acceleration_2 numeric
@ATTRIBUTE speed_4 numeric
@ATTRIBUTE direction_4 numeric
@ATTRIBUTE acceleration_4 numeric
@ATTRIBUTE speed_8 numeric
@ATTRIBUTE direction_8 numeric
@ATTRIBUTE acceleration_8 numeric
@ATTRIBUTE speed_16 numeric
@ATTRIBUTE direction_16 numeric
@ATTRIBUTE acceleration_16 numeric

%The number after speed, direction denotes the step size that was used for the calculation.
%Acceleration was calculated between two adjacent samples of the already low pass filtered velocity

@DATA
0,1252.24,828.82,1.00,4,4,4,0.00,0.00,0.00,16777.01,-0.23,0.00,4183.27,-0.36,0.00,873.53,-2.85,0.00,563.06,3.00,0.00
15100,1499.17,772.25,1.00,4,4,4,16777.01,-0.23,1111060.59,4183.27,-0.36,837592.29,6486.00,3.07,699310.46,3980.89,2.97,213500.80,2242.19,3.00,111200.97
30100,1369.88,783.93,1.00,4,4,4,8654.69,3.05,1691973.65,6486.00,3.07,703972.53,873.53,-2.85,378465.98,1491.67,2.85,167085.33,849.92,2.88,93448.46
60900,1202.85,793.19,1.00,4,4,4,5431.25,3.09,104941.69,3577.08,3.01,94883.69,3980.89,2.97,104670.85,637.31,2.33,32191.84,364.15,2.32,18695.91
82800,1182.93,808.14,1.00,0,0,0,1137.52,2.50,206815.36,1222.40,2.20,131291.82,1491.67,2.85,114442.01,563.06,3.00,18349.06,443.06,0.32,31008.53
97400,1176.54,829.22,1.00,0,0,0,1508.55,1.87,61327.16,1134.71,0.36,128456.69,637.31,2.33,67911.54,2242.19,3.00,115009.22,131.61,-0.62,26097.89
127700,1230.57,826.21,1.00,0,0,0,1785.91,-0.06,89251.51,212.90,2.93,43508.98,511.85,2.07,6287.99,849.92,2.88,46261.62,140.27,-0.17,2021.35
142900,1167.07,831.27,1.00,0,0,0,4190.62,3.06,393169.28,2282.80,2.91,136179.30,506.03,-3.04,37058.88,364.15,2.32,37883.81,788.30,-0.06,42699.56
157400,1164.54,841.60,1.00,1,1,1,733.48,1.81,277283.18,892.94,-2.94,104574.39,125.79,-0.88,40327.71,443.06,0.32,46833.58,300.62,0.18,34561.39
179000,1135.47,824.91,1.00,1,1,1,1551.93,-2.62,87568.86,2070.16,-0.30,133662.52,18.66,1.95,6652.65,131.61,-0.62,17640.24,671.12,2.75,43441.48
193400,1235.81,819.82,1.00,1,1,1,6976.90,-0.05,578074.17,1124.11,0.24,86158.29,1202.65,-0.18,84211.59,140.27,-0.17,4253.27,331.31,2.38,26510.35
207500,1166.62,832.39,1.00,1,1,1,4987.30,2.96,846807.25,339.91,0.94,63387.10,960.43,-0.11,17833.16,788.30,-0.06,46030.73,396.82,0.55,40976.92
222500,1241.61,827.83,1.00,1,1,1,5008.48,-0.06,665205.88,942.92,-0.51,64257.77,211.08,0.28,51301.25,1307.26,0.01,34975.06,537.34,0.33,11573.88
237800,1191.58,818.48,1.00,2,2,2,3326.68,-2.96,540850.99,256.39,-0.63,45051.87,1549.35,-0.07,88425.38,1475.89,0.12,14503.78,649.09,0.16,9808.33
252700,1247.85,823.24,1.00,2,2,2,3790.07,0.08,477036.23,2138.61,0.08,131017.05,1445.80,0.17,24924.39,566.97,0.44,64103.26,504.04,0.29,11039.97
275100,1271.09,824.89,1.00,1,1,1,1040.15,0.07,122769.90,2470.93,0.23,21133.13,1961.30,0.22,23324.05,1024.52,0.14,22901.89,728.50,0.06,11919.55
290200,1338.13,844.12,1.00,1,1,1,4618.44,0.28,238886.71,1801.32,0.42,52133.64,884.50,0.47,74741.00,641.23,0.33,27501.03,548.18,0.07,11958.29
304700,1319.69,846.82,1.00,1,1,1,1284.87,3.00,400917.33,1284.35,2.98,203896.84,588.33,0.80,26015.62,1240.14,0.24,41713.19,608.97,0.15,5143.43
319800,1300.63,850.38,1.00,1,1,1,1284.34,2.96,3343.34,828.93,3.02,30285.64,375.19,2.66,51855.39,862.19,0.36,26461.77,184.17,0.76,31164.16
334300,1295.35,849.89,1.00,1,1,1,365.79,-3.05,64694.69,619.50,0.22,98438.63,510.02,0.32,56381.46,677.89,0.20,15365.20,458.10,0.12,22674.74
349300,1318.46,854.37,1.00,1,1,1,1569.76,0.19,128942.43,1563.89,0.13,63231.72,851.03,0.24,22949.88,268.29,2.92,61936.24,157.51,0.64,21998.01
370600,1351.63,857.28,1.00,1,1,1,1563.27,0.09,7661.25,1039.42,0.26,25757.10,902.68,-0.14,15889.56,170.49,3.08,4859.64,406.86,0.38,12085.21
385600,1354.96,863.96,1.00,1,1,1,497.34,1.11,91403.46,537.65,-1.42,81177.51,202.24,-2.93,72985.93,208.73,3.03,2617.37,169.55,0.85,17796.76
400000,1354.08,841.66,1.00,2,2,2,1549.54,-1.61,139828.92,1729.78,-2.90,122552.80,758.80,-2.98,38677.68,20.04,-0.38,15841.00,311.39,0.41,12118.23
415100,1305.45,851.57,1.00,2,2,2,3286.46,2.94,255136.85,1300.69,3.03,45538.51,1124.60,-3.02,24322.12,244.96,3.13,17467.25,90.90,0.40,14602.05
445100,1295.81,848.39,1.00,1,1,1,338.60,-2.82,99907.89,751.74,3.08,18381.22,576.99,3.02,19420.96,325.12,3.04,2791.89,64.83,2.25,4175.76
460400,1271.47,853.68,1.00,1,1,1,1628.05,2.93,88061.45,49.55,0.11,52327.77,278.90,3.02,19483.27,480.79,-3.09,10908.04,36.35,-3.13,3326.19
497300,1298.38,848.67,1.00,1,1,1,741.87,-0.18,64219.33,134.88,0.18,2318.04,181.20,1.22,9888.74,114.94,1.71,13132.25,26.19,-2.99,298.77
512800,1278.42,854.96,1.00,1,1,1,1350.21,2.84,134746.54,463.93,1.39,28036.61,132.57,0.64,6548.25,348.45,0.05,24282.43,151.20,3.00,8147.87
527400,1300.91,862.40,1.00,1,1,1,1622.94,0.32,193870.45,188.10,1.25,19087.65,917.41,0.20,54748.54,120.16,0.82,18826.42,193.51,3.00,2898.07
541500,1280.10,860.09,1.00,1,1,1,1485.15,-3.03,219234.19,1744.80,-0.06,121010.56,1282.76,-0.01,30387.29,129.81,-0.18,8495.89,252.90,-3.04,5628.94
556500,1351.60,859.48,1.00,1,1,1,4766.95,-0.01,416270.44,2247.94,-0.07,33575.50,109.06,-0.16,78334.82,84.48,3.13,14237.04,286.42,2.87,6935.56
578100,1362.18,854.43,1.00,2,2,2,542.65,-0.45,198213.78,1214.25,3.10,160273.13,214.82,-0.77,6514.52,51.83,2.20,3145.23,51.12,2.51,11076.20
592500,1307.93,861.30,1.00,2,2,2,3797.69,3.02,299741.60,2495.13,-3.08,89756.73,999.62,-2.98,79162.84,38.99,2.60,1539.26,93.73,2.56,2969.55
607000,1290.19,850.28,1.00,1,1,1,1440.28,-2.59,195131.90,825.46,-2.58,125207.78,1352.77,3.07,30760.01,32.09,-0.90,4821.03,110.02,-0.29,13904.27
621100,1287.92,848.77,1.00,1,1,1,193.27,-2.56,88447.00,518.65,2.57,54331.07,182.58,2.83,83445.16,587.42,3.09,43195.24,99.04,2.06,13687.07
643100,1274.45,860.42,1.00,1,1,1,809.47,2.43,35466.22,497.04,1.08,31239.17,150.89,2.43,3324.60,552.25,3.06,1790.30,441.14,-0.19,23147.41
658100,1296.54,865.02,1.00,1,1,1,1503.83,0.20,139758.32,304.73,-0.42,37608.29,298.42,2.30,9990.35,267.93,3.11,19003.94,721.64,-0.24,18816.16
672700,1282.70,856.78,1.00,1,1,1,1102.89,-2.60,176145.35,741.48,-3.08,69947.19,320.00,-0.01,38783.30,89.23,-0.47,24027.22,694.36,-0.20,2585.60
687700,1274.64,863.56,1.00,1,1,1,702.36,2.44,73056.70,378.21,0.31,74165.13,374.22,-3.02,46182.19,167.80,1.64,15134.89,262.06,-0.36,29147.72
702800,1293.56,860.21,1.00,1,1,1,1272.20,-0.17,126677.43,41.53,-1.77,26482.19,350.39,-0.58,45042.60,935.81,-0.22,66088.30,127.64,-0.25,9004.69
717700,1274.40,862.34,1.00,1,1,1,1293.75,3.03,172121.01,551.90,-1.15,34796.23,207.89,0.57,22010.86,1511.41,-0.25,38679.00,491.21,-0.29,24409.60
732500,1300.18,845.22,1.00,2,2,2,2091.05,-0.59,222625.65,401.67,0.63,50652.48,1495.59,-0.27,92267.15,1319.98,-0.19,14120.29,460.29,-0.10,6314.31
754500,1286.30,871.10,1.00,3,3,3,1334.69,2.06,151250.82,2443.92,-0.12,98636.84,3193.71,-0.21,77378.59,1041.43,-0.20,12671.68,451.79,-0.09,481.75
769400,1389.67,834.06,1.00,1,1,1,7369.17,-0.34,564260.75,6893.19,-0.27,301148.47,2060.83,-0.14,76969.83,699.62,-0.14,23205.56,635.35,-0.19,12874.26
783700,1480.51,818.22,1.00,1,1,1,6448.63,-0.17,104623.85,1738.75,-0.16,361329.34,1851.87,-0.27,22869.78,1073.95,-0.24,26844.74,244.46,-0.21,27343.92
813200,1464.83,821.80,1.00,1,1,1,545.23,2.92,237056.85,1434.07,2.88,107433.56,165.80,1.09,61836.61,754.27,-0.07,12015.62,228.58,0.09,2478.29
828500,1418.37,834.52,1.00,1,1,1,3148.57,2.87,170191.64,1958.28,2.80,35383.34,392.82,3.05,31433.95,876.40,-0.25,12585.65,148.74,-0.23,6439.69
850500,1395.91,845.98,1.00,1,1,1,1146.17,2.67,92705.13,548.85,-0.48,113766.43,571.18,2.80,9709.72,391.93,-0.12,22287.26,214.49,-3.08,16339.81
879300,1443.12,821.68,1.00,1,1,1,1843.65,-0.48,103812.77,626.49,-0.33,4039.97,40.48,1.84,19066.44,731.60,2.87,38913.50,43.77,-2.55,6182.29
893700,1421.50,837.19,1.00,2,2,2,1847.35,2.52,255626.53,1016.29,2.58,113387.31,776.53,-0.34,55577.32,830.85,2.80,7809.99,130.52,2.87,7461.46
909000,1417.52,837.67,1.00,2,2,2,262.57,3.02,106028.60,987.76,-0.35,130283.73,1224.03,2.79,130755.09,699.52,2.95,11347.41,184.81,-2.67,8132.74
924400,1449.98,826.76,1.00,2,2,2,2223.81,-0.32,161134.02,1414.26,2.91,155709.21,1138.72,2.81,5652.15,1169.67,3.08,31420.68,466.39,3.03,21313.80
946800,1365.49,849.98,1.00,2,2,2,3911.50,2.87,273798.68,2893.56,2.80,66744.48,1510.81,2.98,19521.92,1444.37,2.96,14207.42,564.17,2.98,4471.87
961600,1348.48,862.60,1.00,1,1,1,1431.42,2.50,177608.65,1642.77,3.06,92693.02,3304.27,3.01,121242.02,1250.60,3.03,14594.98,552.22,2.97,942.48
976700,1316.53,853.92,1.00,1,1,1,2192.58,-2.88,114199.64,3972.24,-3.09,155974.00,1732.01,3.09,104921.94,1339.06,3.09,7874.52,436.97,3.04,7987.23
991000,1231.88,856.10,1.00,1,1,1,5921.82,3.12,270840.28,1825.97,3.12,150871.76,1440.34,-3.06,25495.85,1464.43,3.02,10810.52,290.41,-3.12,10674.01
1005500,1263.96,855.28,1.00,1,1,1,2213.39,-0.03,561049.03,1087.94,-0.03,200959.07,1183.26,-3.05,17730.22,368.37,-3.01,76621.39,610.60,2.99,22624.46
1020500,1263.96,855.28,1.00,1,1,1,0.00,0.00,147559.23,712.65,-2.83,118404.90,376.05,-0.26,102810.64,287.28,-2.72,8371.46,612.49,-3.13,6686.38
1042700,1238.73,847.14,1.00,1,1,1,1194.17,-2.83,53791.50,259.68,-2.52,21265.92,843.62,-0.20,21115.20,150.32,-2.73,6170.92,563.57,3.11,2533.70
1057700,1256.12,849.64,1.00,1,1,1,1170.82,0.14,157104.21,2694.64,-0.04,193589.15,776.81,-0.15,5326.82,688.55,-0.14,54715.48,632.38,3.05,5211.86
1072700,1319.51,843.95,1.00,1,1,1,4243.31,-0.09,207723.92,1988.02,-0.03,47116.64,1009.27,-0.01,17403.53,222.53,-0.39,31746.33,372.70,-3.09,17941.39
1087600,1315.52,847.64,1.00,1,1,1,364.66,2.39,304525.20,684.57,3.02,179246.60,1040.54,-0.08,5373.69,153.45,-1.71,15899.89,287.28,-2.72,9990.68
1102600,1299.18,846.36,1.00,1,1,1,1092.65,-3.06,59114.37,143.33,-0.86,53052.37,490.00,3.12,101994.52,252.95,-0.15,19607.48,150.32,-2.73,9132.96
1117700,1318.32,844.36,1.00,1,1,1,1274.48,-0.10,156116.37,306.01,-2.95,26289.15,822.67,-2.91,24511.89,147.43,-0.31,7294.55,688.55,-0.14,54353.13
1132600,1290.17,844.64,1.00,1,1,1,1889.84,3.13,212143.20,1533.18,-2.98,82366.83,429.48,-3.00,26656.74,378.45,3.12,34983.72,222.53,-0.39,31959.40
1155500,1261.17,834.75,1.00,1,1,1,1337.72,-2.81,33586.68,529.25,-3.03,43887.39,509.53,-3.11,4158.51,822.67,-2.91,20323.98,153.45,-1.71,10345.35
1169900,1270.56,842.38,1.00,1,1,1,839.73,0.68,148974.80,381.97,0.51,62063.51,296.98,3.13,14793.62,429.48,-3.00,27582.33,252.95,-0.15,20424.45
1200500,1276.15,843.18,1.00,1,1,1,184.74,0.14,22478.82,119.53,2.66,14979.77,381.97,0.51,21450.80,509.53,-3.11,3112.09,147.43,-0.31,3599.60
1214600,1265.82,844.84,1.00,1,1,1,742.44,2.98,65281.16,742.44,2.98,44689.12,119.53,2.66,32509.29,296.98,3.13,15108.38,378.45,3.12,36968.62
