@RELATION gaze_labels

%@METADATA width_px 1920
%@METADATA height_px 1080
%@METADATA width_mm 540.00
%@METADATA height_mm 254.00
%@METADATA distance_mm 620.00


@ATTRIBUTE time INTEGER
@ATTRIBUTE x NUMERIC
@ATTRIBUTE y NUMERIC
@ATTRIBUTE confidence NUMERIC
@ATTRIBUTE handlabeller1 INTEGER
@ATTRIBUTE handlabeller2 INTEGER
@ATTRIBUTE handlabeller_final INTEGER
@ATTRIBUTE speed_1 numeric
@ATTRIBUTE direction_1 numeric
@ATTRIBUTE acceleration_1 numeric
@ATTRIBUTE speed_2 numeric
@ATTRIBUTE direction_2 numeric
@ATTRIBUTE acceleration_2 numeric
@ATTRIBUTE speed_4 numeric
@ATTRIBUTE direction_4 numeric
@ATTRIBUTE acceleration_4 numeric
@ATTRIBUTE speed_8 numeric
@ATTRIBUTE direction_8 numeric
@ATTRIBUTE acceleration_8 numeric
@ATTRIBUTE speed_16 numeric
@ATTRIBUTE direction_16 numeric
@ATTRIBUTE acceleration_16 numeric

%The number after speed, direction denotes the step size that was used for the calculation.
%Acceleration was calculated between two adjacent samples of the already low pass filtered velocity

@DATA
0,569.10,853.07,1.00,1,1,1,0.00,0.00,0.00,4284.29,0.07,0.00,1420.68,0.01,0.00,325.79,-0.20,0.00,158.86,-3.06,0.00
14300,630.21,857.41,1.00,1,1,1,4284.29,0.07,299600.94,1420.68,0.01,200534.97,1653.93,-3.03,214734.22,791.81,-3.13,77791.23,76.43,-2.37,7756.33
28800,610.01,853.45,1.00,1,1,1,1419.48,-2.95,392810.09,1653.93,-3.03,211772.36,325.79,-0.20,135610.50,479.86,3.03,22151.69,104.23,-2.98,4158.74
42800,583.36,852.22,1.00,1,1,1,1905.77,-3.10,38809.78,755.48,-2.95,64483.01,791.81,-3.13,79458.19,568.69,0.06,74616.23,154.46,-0.04,18384.96
58700,587.83,849.20,1.00,1,1,1,339.08,-0.59,137550.42,343.36,2.88,29583.13,479.86,3.03,20201.22,158.86,-3.06,45755.49,327.52,-0.01,10894.66
95600,565.84,856.87,1.00,1,1,1,631.14,2.81,26093.59,365.06,2.66,2224.53,568.69,0.06,28309.68,76.43,-2.37,3005.84,427.38,-0.19,3262.13
110400,571.12,857.98,1.00,1,1,1,364.48,0.21,64996.37,2195.42,-0.03,170858.14,450.01,3.10,68745.73,104.23,-2.98,4074.45,427.21,-0.03,4492.12
124800,629.91,854.91,1.00,1,1,1,4088.62,-0.05,259540.29,616.50,-2.89,193908.99,680.29,-0.15,78392.21,154.46,-0.04,17874.27,84.38,0.27,24148.65
154900,544.57,851.04,1.00,1,1,1,2838.12,-3.10,229860.43,201.00,-2.52,14440.15,284.59,-0.32,13380.45,327.52,-0.01,5754.99,412.61,0.06,10981.88
177900,621.23,848.71,1.00,1,1,1,3334.29,-0.03,268174.66,1307.44,-0.01,64129.97,261.24,-2.96,23009.41,427.38,-0.19,5233.59,660.89,0.09,10815.99
192100,593.21,850.73,1.00,1,1,1,1978.17,3.07,374041.68,434.29,2.95,122276.78,1457.21,-0.02,120697.84,427.21,-0.03,4681.92,751.15,0.08,6377.62
207200,608.73,851.10,1.00,1,1,1,1027.99,0.02,198879.06,1649.88,-0.04,137783.82,82.60,-0.72,92370.56,84.38,0.27,23029.17,638.14,0.12,7711.67
221100,641.01,848.67,1.00,2,2,2,2329.14,-0.07,94249.25,588.00,-0.33,79077.42,651.71,0.14,43229.51,1080.15,0.07,71778.63,683.48,0.11,3286.88
236200,624.85,845.53,1.00,2,2,2,1090.46,-2.95,224718.88,419.95,2.51,66049.72,517.31,0.21,9371.94,1603.60,0.13,35130.38,778.86,0.07,6622.06
250600,630.98,855.94,1.00,2,2,2,838.45,1.04,122340.93,581.27,0.64,56414.25,722.54,0.25,14341.90,1855.86,0.09,18289.60,955.23,0.03,12528.67
272900,641.95,858.29,1.00,1,1,1,503.03,0.21,27812.46,1536.51,0.08,48797.88,2954.16,0.15,100289.75,1270.46,0.15,26587.31,616.85,0.10,15352.31
287500,687.48,860.60,1.00,1,1,1,3123.03,0.05,179983.14,5930.42,0.09,300963.22,2894.10,0.08,14928.67,1142.02,0.16,8841.89,1086.75,0.02,32488.00
303100,820.25,875.16,1.00,1,1,1,8561.60,0.11,349169.88,4510.09,0.08,91219.25,2087.10,0.13,52414.63,1191.34,0.18,3410.78,983.31,0.07,7402.78
318500,826.88,871.40,1.00,1,1,1,494.78,-0.52,530219.55,1728.66,-3.14,404888.00,1604.24,0.12,31418.20,1503.12,0.05,23141.63,885.22,0.09,6484.65
333600,767.52,875.01,1.00,1,1,1,3937.97,3.08,290587.05,1416.40,3.13,20726.89,781.31,-3.08,157936.87,1237.00,0.08,17908.60,718.54,0.09,11039.12
348400,784.53,871.86,1.00,1,1,1,1168.63,-0.18,344582.64,226.30,-0.44,109788.24,137.90,-0.65,60122.32,1096.28,-0.03,13107.00,450.91,0.14,18196.47
363000,773.54,872.18,1.00,1,1,1,752.88,3.11,131236.16,1332.70,-0.12,76711.20,475.94,-0.11,24981.92,387.63,-0.20,49095.67,760.06,0.11,21212.84
386000,834.26,865.74,1.00,1,1,1,2654.88,-0.11,148088.20,684.03,-0.03,28467.33,682.24,-0.35,10733.73,88.50,-3.05,20570.99,937.44,0.05,8031.92
400400,799.11,871.43,1.00,1,1,1,2472.76,2.98,355951.77,409.06,-2.21,67890.38,1422.11,-0.07,54851.47,255.23,-0.17,23717.33,609.04,0.08,22865.76
415000,827.19,856.22,1.00,1,1,1,2187.15,-0.50,314693.16,2358.81,-0.08,177911.70,325.87,2.90,119443.34,146.01,-2.88,26903.30,557.80,0.05,3689.84
429900,868.45,865.55,1.00,1,1,1,2839.03,0.22,125531.22,616.56,2.25,189289.47,75.73,-0.45,26864.55,428.02,-0.03,38207.84,175.42,-3.01,49179.97
444500,815.77,870.38,1.00,1,1,1,3623.10,3.05,437254.76,1253.62,3.09,65771.42,793.58,2.98,59336.73,439.43,0.05,2757.05,203.44,3.13,2647.52
480900,804.60,868.76,1.00,1,1,1,310.25,-3.00,91267.60,1014.10,-3.06,7686.99,276.64,2.98,14201.91,91.52,0.06,9558.10,190.67,-3.06,575.69
496000,763.71,866.31,1.00,1,1,1,2712.83,-3.08,159191.23,872.54,0.03,124902.70,902.21,-0.01,77908.30,154.06,0.55,5606.72,242.99,3.10,3850.59
524500,842.63,869.79,1.00,1,1,1,2771.78,0.04,192436.21,3152.45,0.02,79997.05,125.83,0.39,27637.40,611.49,3.11,26159.37,172.22,3.10,2483.17
539800,901.75,869.42,1.00,1,1,1,3864.33,-0.01,72212.94,963.55,3.06,268742.40,1053.45,0.03,61200.95,293.81,3.11,20763.23,244.79,-3.01,5281.32
555100,813.25,872.28,1.00,2,2,2,5787.47,3.11,630784.82,1451.96,-3.14,32674.80,1096.25,-3.12,140499.70,657.40,3.12,23765.38,100.66,-2.53,10605.45
576500,848.46,869.12,1.00,2,2,2,1652.21,-0.09,347550.74,1218.49,-3.05,12105.81,2028.59,3.12,43643.39,356.24,2.97,14464.30,177.34,2.87,6421.36
590500,770.29,868.40,1.00,1,1,1,5584.24,-3.13,516446.98,2759.16,3.11,111226.45,1539.42,-3.13,35186.63,901.08,3.11,39289.75,360.06,2.99,13225.18
605500,768.49,871.79,1.00,1,1,1,255.68,2.06,364757.83,1929.07,3.10,55352.81,2298.38,3.10,51091.23,1033.99,-3.05,12255.10,194.74,2.96,11037.86
620200,713.04,870.76,1.00,1,1,1,3772.72,-3.12,249275.03,1839.41,3.09,6295.28,713.01,3.02,108067.15,313.31,-2.71,50736.89,79.65,-2.82,8896.63
634600,715.04,874.65,1.00,1,1,1,303.30,1.10,272611.22,278.30,0.33,145835.03,236.38,-1.81,50216.42,560.01,3.13,21364.74,79.93,0.24,11073.97
657500,722.86,874.13,1.00,1,1,1,342.19,-0.07,15523.61,1377.32,-0.35,51311.21,948.89,-0.25,42622.23,103.89,1.88,23440.29,151.10,-2.88,10088.48
673000,764.65,856.30,1.00,1,1,1,2931.09,-0.40,168432.13,1831.66,-0.35,29312.31,935.28,-0.08,10524.14,92.11,2.28,2626.66,656.07,3.11,33123.79
688100,775.45,854.74,1.00,1,1,1,722.68,-0.14,148365.57,649.12,0.78,110361.94,741.31,0.15,18151.95,535.46,-0.12,40189.66,235.32,3.12,27867.18
702200,778.07,869.69,1.00,1,1,1,1076.10,1.40,90642.58,965.63,1.91,63891.75,424.75,1.72,60487.83,520.87,-0.04,3162.17,69.31,-2.71,12440.93
716800,766.30,880.90,1.00,1,1,1,1113.78,2.38,70862.65,710.52,2.58,41138.10,169.86,0.70,25073.24,664.94,-0.17,11163.83,18.31,-0.17,5824.16
730700,760.97,880.54,1.00,1,1,1,383.85,-3.07,64768.74,703.11,-0.82,100870.28,105.89,0.27,6186.48,298.53,2.61,68355.46,41.52,-1.11,2449.71
753700,783.98,861.91,1.00,1,1,1,1286.79,-0.68,69110.21,670.18,-0.36,13723.77,667.47,-0.50,25910.96,236.56,2.45,3219.22,168.15,0.11,6895.83
768800,784.87,871.55,1.00,1,1,1,640.90,1.48,114343.79,723.65,-0.10,12249.72,430.28,-2.96,68680.59,437.20,-0.14,43125.17,239.70,0.02,4876.86
782800,804.92,859.71,1.00,1,1,1,1662.83,-0.53,144361.28,1807.65,3.07,180786.95,567.93,2.79,21088.34,108.13,-0.98,26688.39,292.69,-0.14,4768.74
797800,732.58,875.28,1.00,1,1,1,4932.72,2.93,435436.98,1828.71,2.89,22416.07,819.87,-0.20,92264.33,141.98,-0.99,2257.28,151.88,0.34,11503.50
812300,752.73,873.37,1.00,1,1,1,1395.62,-0.09,435917.90,3319.47,-0.13,354434.89,370.58,2.88,82070.88,168.31,2.58,20908.60,121.62,0.62,3335.69
828200,832.60,861.86,1.00,1,1,1,5075.14,-0.14,231561.19,436.45,-0.25,181550.87,447.18,-0.33,51395.09,27.80,1.58,9765.77,45.47,-2.76,10448.52
865600,775.25,867.53,1.00,1,1,1,1540.95,3.04,176869.33,874.67,-3.13,34776.75,93.75,0.28,10005.13,20.29,1.46,214.40,49.52,-1.13,1854.15
895400,773.83,861.00,1.00,1,1,1,224.20,-1.78,51388.49,356.65,2.59,20268.55,509.45,2.86,19827.48,457.50,-0.06,15332.49,304.91,-0.40,9064.18
910500,761.59,875.89,1.00,1,1,1,1276.24,2.26,94442.01,608.08,0.93,48435.71,399.31,-0.15,60049.66,317.02,0.03,9585.27,271.59,0.04,8455.03
925900,784.85,875.92,1.00,1,1,1,1510.76,0.00,163718.32,1460.90,-0.29,89462.50,534.66,0.30,16111.31,416.96,3.10,47628.34,160.26,-0.15,7649.11
941700,805.28,862.91,1.00,1,1,1,1532.65,-0.57,53992.03,677.22,-0.25,49671.10,673.82,-0.02,15125.58,21.32,2.94,25057.43,104.25,1.15,10518.87
957000,805.28,870.78,1.00,2,2,2,514.08,1.57,121575.29,387.49,1.71,58658.56,351.36,-2.61,64711.33,550.80,-0.21,37392.77,354.35,0.05,20975.15
972900,803.62,874.89,1.00,2,2,2,278.68,1.95,17354.53,1277.34,-2.99,84219.31,544.30,2.99,22133.30,778.47,-0.11,14909.81,296.30,0.10,3780.62
988100,766.00,864.87,1.00,2,2,2,2561.68,-2.88,167275.43,1065.71,-2.93,14775.64,669.71,-0.57,78180.06,362.76,-0.24,27723.80,90.22,0.87,15798.77
1002900,772.38,868.11,1.00,1,1,1,483.55,0.47,205159.82,2134.77,-0.24,211368.01,880.17,-0.17,24951.46,210.11,1.12,25583.41,348.05,0.01,20104.25
1025700,843.99,845.92,1.00,1,1,1,3288.31,-0.30,129835.18,2420.36,-0.04,23586.58,966.32,-0.00,7899.47,237.57,0.33,7630.06,311.57,0.12,2298.17
1039800,861.63,864.76,1.00,1,1,1,1829.85,0.82,211638.49,812.46,2.20,212304.93,730.60,0.40,29044.00,272.30,0.20,3327.72,472.69,-0.12,13204.01
1054500,830.16,864.79,1.00,1,1,1,2140.69,3.14,247890.23,1688.43,2.68,70412.07,618.55,1.86,61364.88,646.07,0.20,25426.27,180.67,-0.07,19892.15
1069300,817.06,887.00,1.00,1,1,1,1742.06,2.10,132077.96,547.27,1.34,111522.67,504.68,2.53,26180.84,732.66,0.00,11017.60,174.02,0.14,2572.08
1083900,833.83,880.46,1.00,1,1,1,1233.01,-0.37,192916.61,705.28,-0.25,61816.93,395.29,0.73,48614.36,210.78,1.24,47498.11,112.95,2.93,19365.57
1098800,837.20,881.79,1.00,1,1,1,243.30,0.38,71650.68,435.90,0.10,22303.98,843.80,-0.35,49798.21,155.93,-0.18,16283.94,152.70,2.53,4385.24
1120100,849.53,882.03,1.00,1,1,1,578.96,0.02,16954.39,962.08,-0.40,28983.75,320.31,-0.49,24807.86,63.57,1.52,8263.33,195.89,0.14,15252.75
1134600,868.87,868.24,1.00,1,1,1,1637.78,-0.62,84321.45,398.64,-1.32,54204.95,732.67,-0.44,28480.40,267.65,-0.45,20581.58,32.85,2.90,15637.59
1149600,852.44,870.63,1.00,1,1,1,1106.75,3.00,178030.92,460.52,-0.53,22432.49,357.55,-2.69,66411.16,396.74,-3.09,42948.15,355.84,2.71,21575.91
1164500,880.76,861.30,1.00,1,1,1,2001.21,-0.32,207865.67,741.33,3.05,78877.76,193.37,3.05,14565.59,469.49,2.90,9938.49,378.49,2.94,5650.42
1179300,830.52,872.72,1.00,1,1,1,3481.05,2.92,370036.79,546.94,2.85,15639.88,935.45,3.06,50140.47,182.54,-2.82,22372.69,195.71,2.89,12378.13
1217800,852.85,869.71,1.00,2,2,2,585.12,-0.13,105562.85,1043.03,3.06,13530.05,1404.52,2.82,14106.54,671.40,3.12,13077.29,184.51,-2.82,2809.54
1232900,774.80,877.28,1.00,1,1,1,5192.83,3.04,382621.28,2898.93,2.81,126313.81,84.06,3.13,87737.93,640.82,2.97,6698.25,144.63,-3.14,4361.77
1248400,769.09,898.91,1.00,1,1,1,1443.24,1.83,314975.60,1056.21,-0.09,253719.89,1207.33,3.13,72469.28,799.44,2.94,10357.37,226.56,3.11,5298.02
1278000,822.23,872.80,1.00,1,1,1,2000.30,-0.46,106137.80,667.73,-1.78,44272.95,325.78,2.71,31092.93,336.47,3.03,15720.08,385.99,-3.02,5604.28
1292100,763.15,870.34,1.00,1,1,1,4193.79,-3.10,427458.28,2421.85,2.93,178290.00,233.72,-2.36,23288.22,608.78,3.14,19624.79,377.09,3.06,5716.96
1307300,752.79,887.43,1.00,1,1,1,1314.40,2.12,246149.69,569.81,1.94,142267.47,707.93,3.01,39117.77,120.98,0.18,47894.26,328.97,3.01,3342.37
1322800,756.77,886.63,1.00,1,1,1,261.95,-0.20,97023.45,628.65,-0.36,70720.51,44.56,-0.12,48547.92,107.18,-1.44,10700.12,362.21,2.97,2348.12
1345200,775.05,878.93,1.00,1,1,1,885.44,-0.40,28168.16,511.27,-1.06,17976.74,583.30,-0.18,24054.11,644.89,-3.09,29540.18,298.43,3.11,3516.25
1360200,766.16,869.97,1.00,1,1,1,841.67,-2.35,95437.43,559.58,0.09,38844.09,214.51,-0.20,24590.25,56.50,1.78,42573.41,279.18,3.09,1327.80
1375100,791.71,880.43,1.00,1,1,1,1853.38,0.39,177772.59,478.93,1.23,37850.32,605.34,-2.84,53734.19,62.86,-0.59,7431.60,88.28,-0.05,24661.68
1390800,771.08,883.78,1.00,1,1,1,1331.69,2.98,195479.04,1758.14,-2.91,131083.72,145.51,2.12,37373.32,157.21,-0.34,6224.03,502.02,-0.42,26810.27
1405100,740.39,868.30,1.00,1,1,1,2403.70,-2.67,107645.23,389.93,-2.55,97917.49,542.42,3.06,33039.75,251.86,-3.04,27947.56,142.76,-0.29,25242.20
1420000,761.64,877.41,1.00,1,1,1,1551.86,0.40,265351.44,808.74,0.66,80413.51,104.87,-0.64,42521.93,99.75,0.29,23515.64,499.84,0.01,24579.45
1434800,759.43,882.94,1.00,1,1,1,402.32,1.95,107668.46,414.54,0.15,33059.13,122.76,1.15,12045.74,63.89,-0.58,5162.31,678.03,-0.25,15764.07
1456500,776.60,879.66,1.00,1,1,1,805.60,-0.19,49631.85,485.76,-2.71,41076.73,258.17,-0.23,12187.21,1017.03,-0.32,44030.42,413.79,-0.07,12902.09
1470600,743.64,875.65,1.00,2,2,2,2354.96,-3.02,222120.30,215.98,-1.32,35060.20,600.01,-0.18,24290.39,926.57,-0.05,19626.26,595.73,-0.23,14111.49
1485700,778.16,873.55,1.00,2,2,2,2290.12,-0.06,306350.13,1813.99,0.01,117521.01,2042.49,-0.30,95981.87,992.55,-0.04,4419.62,371.85,-0.05,15837.77
1500800,798.42,876.01,1.00,2,2,2,1351.93,0.12,65641.91,3949.82,-0.26,148921.00,1889.45,-0.12,26234.07,1272.44,-0.23,23279.03,373.45,-0.20,3567.33
1515300,891.23,843.83,1.00,1,1,1,6774.60,-0.33,385639.72,1991.58,-0.23,135156.91,1714.63,-0.01,17661.41,664.62,-0.01,44136.34,385.86,-0.22,1038.09
1530900,856.80,862.39,1.00,1,1,1,2507.38,2.65,593488.01,751.99,1.49,142945.28,1937.95,-0.25,30779.16,1333.20,-0.18,44019.18,86.41,0.65,21601.22
1553000,893.54,872.09,1.00,1,1,1,1719.52,0.26,178369.06,1894.41,-0.26,97710.39,499.61,2.12,105051.99,594.50,-0.10,33574.24,295.36,-0.03,10628.65
1567600,923.97,844.44,1.00,1,1,1,2815.71,-0.74,162336.92,558.30,2.87,167993.36,929.75,-0.27,91737.76,613.81,-0.17,3168.08,194.17,-0.52,10562.93
1596900,869.91,878.58,1.00,1,1,1,2182.10,2.58,169936.67,145.56,-0.37,24001.63,264.91,-2.81,39496.75,115.52,2.20,23933.55,13.28,-2.44,6793.15
1612700,930.08,842.06,1.00,1,1,1,4455.08,-0.55,420059.89,313.52,-1.49,17850.76,305.11,2.63,14990.46,600.80,2.93,32914.46,193.11,-0.04,12852.71
1642800,871.09,864.24,1.00,2,2,2,2093.98,2.78,216759.62,690.54,2.66,29855.51,262.07,-1.09,18061.47,293.79,3.09,10443.89,225.19,3.06,13893.53
1665300,897.95,858.99,1.00,2,2,2,1216.38,-0.19,146653.41,273.69,-0.51,42851.63,2115.74,2.90,102095.56,737.63,3.05,19739.10,28.16,-0.92,10884.43
1680200,880.01,859.23,1.00,1,1,1,1203.67,3.13,161765.39,4660.06,2.97,330158.68,382.94,2.73,116760.88,669.40,-3.13,6675.83,358.05,2.87,25560.15
1695300,760.31,883.52,1.00,1,1,1,8088.68,2.94,457585.23,1194.93,2.70,233132.41,1501.63,-3.09,77532.92,942.56,2.91,22296.06,419.63,3.07,6568.98
1710400,847.37,874.61,1.00,1,1,1,5795.25,-0.10,918387.74,1875.92,-0.54,203124.34,1784.77,2.97,29862.50,1231.20,3.05,21580.70,354.77,-3.08,5505.99
1725100,808.25,854.76,1.00,1,1,1,2984.17,-2.67,575542.38,2440.02,3.11,284451.99,654.03,-0.26,165773.62,738.54,3.03,33530.72,405.03,2.90,8616.87
1740600,773.72,877.22,1.00,1,1,1,2657.26,2.56,182771.99,678.22,2.04,141394.80,2206.20,3.11,183712.58,705.98,3.00,2625.63,210.05,-2.90,15476.02
1756000,798.71,873.42,1.00,1,1,1,1640.85,-0.15,273155.35,1972.40,3.11,113626.61,223.84,1.89,138914.27,223.99,-2.70,34634.04,385.07,2.87,14635.75
1770800,714.18,878.99,1.00,1,1,1,5723.30,3.08,497264.97,161.72,-0.71,141959.73,247.66,-0.30,28305.53,434.00,-2.98,15358.16,607.71,3.13,17252.44
1794100,803.40,869.42,1.00,1,1,1,3850.79,-0.11,410822.28,1985.98,-0.09,79675.77,953.28,-3.11,51088.00,142.12,1.37,21547.87,287.30,3.10,13768.37
1809100,789.95,872.26,1.00,1,1,1,916.27,2.93,317549.13,2343.18,3.11,288476.87,1165.69,-0.17,140566.11,334.69,-0.29,24975.41,231.13,3.04,3865.64
1823600,734.30,871.31,1.00,1,1,1,3838.59,-3.12,203630.53,232.62,-1.22,168228.06,153.84,0.35,71385.37,217.12,-0.11,8718.04,139.81,-2.73,8935.81
1838800,792.34,865.78,1.00,1,1,1,3836.07,-0.09,504118.85,2648.26,0.02,169769.70,436.10,-0.28,21397.49,102.67,-1.71,15945.36,239.80,-2.99,7288.15
1852900,811.88,872.55,1.00,1,1,1,1466.52,0.33,182639.77,764.70,-0.03,133660.47,1421.74,-0.01,71478.30,184.19,-0.31,13795.33,291.10,2.92,7828.19
1867900,814.59,865.16,1.00,1,1,1,525.02,-1.22,103277.78,434.33,-0.16,22563.08,1225.85,-3.14,176500.01,264.84,-0.22,5558.81,346.76,-0.08,42420.89
1889100,827.41,870.11,1.00,1,1,1,648.64,0.37,39708.34,2825.74,3.14,153569.04,255.48,-0.65,67754.74,65.91,-2.80,15210.66,27.72,0.17,15091.26
1904100,712.30,865.43,1.00,1,1,1,7680.91,-3.10,553172.66,273.51,-1.85,184324.32,113.13,-0.00,11963.70,68.34,-3.01,987.64,69.79,2.56,6137.68
1918700,825.22,862.32,1.00,1,1,1,7737.41,-0.03,1055435.23,3819.99,-0.00,267287.07,1273.97,-3.12,95005.40,557.36,-3.13,33533.16,219.99,2.91,10713.22
1932800,821.93,865.15,1.00,1,1,1,308.07,2.43,565855.72,1978.69,3.08,411114.51,876.37,-0.01,152486.83,366.20,0.07,65466.39,59.38,0.81,18097.89
1969300,725.26,868.06,1.00,1,1,1,2649.60,3.11,66250.21,767.45,-3.13,33277.11,1184.71,3.04,56413.72,138.43,2.92,13709.35,136.42,0.17,2620.62
1984200,782.49,864.52,1.00,2,2,2,3847.95,-0.06,436024.82,215.02,0.66,63642.03,537.33,0.08,115151.75,180.88,2.12,8752.41,108.04,2.40,14733.63
1999200,730.34,872.00,1.00,2,2,2,3511.89,3.00,490257.87,2036.57,0.05,124255.69,1100.85,0.08,37567.89,530.83,2.89,28004.09,165.25,2.93,6044.99
2028900,873.39,869.43,1.00,1,1,1,4817.20,-0.02,279911.36,1725.53,0.04,10534.21,1099.55,2.85,72792.36,173.05,2.38,13116.16,263.55,3.11,3548.40
2043400,806.56,874.74,1.00,1,1,1,4623.40,3.06,650769.63,4866.29,3.02,453573.34,202.24,0.78,83376.39,343.37,0.21,31968.75,296.93,2.95,3955.79
2065400,697.00,890.27,1.00,1,1,1,5029.97,3.00,22875.24,1756.32,3.01,141383.91,1103.24,2.93,55717.42,181.84,2.10,19825.43,91.30,0.19,17410.59
2080500,742.01,883.59,1.00,1,1,1,3013.34,-0.15,532666.78,3492.36,-0.05,347332.84,498.30,3.04,40420.35,259.71,0.29,23189.39,197.98,2.92,18805.31
2095400,801.62,884.63,1.00,1,1,1,4001.33,0.02,76607.32,1023.54,-0.18,166414.82,1200.17,-0.05,113959.98,1064.32,-3.13,88330.60,278.39,2.96,5445.44
2111200,772.94,878.09,1.00,1,1,1,1861.38,-2.92,369339.96,1054.59,3.07,131333.10,392.39,-0.05,51124.98,479.08,2.95,38166.15,343.37,0.21,38636.60
2125900,769.52,886.79,1.00,1,1,1,636.07,1.95,127544.29,299.17,2.61,54334.43,1086.41,-2.87,99631.86,360.82,-0.45,56657.33,181.84,2.10,29670.71
2140300,765.45,882.52,1.00,1,1,1,410.38,-2.33,61838.12,1234.48,-2.58,78488.61,463.71,2.86,50981.37,184.77,-0.31,12469.07,259.71,0.29,24316.65
2155300,738.88,867.35,1.00,1,1,1,2039.49,-2.62,110033.81,601.50,2.95,59848.12,536.98,-2.66,25358.07,446.98,-3.07,41469.40,1064.32,-3.13,87741.73
2177700,743.36,886.80,1.00,1,1,1,890.79,1.34,121582.63,86.32,1.82,25446.71,87.23,-1.38,23154.64,463.71,2.86,7298.97,479.08,2.95,26920.77
2191900,738.10,870.41,1.00,1,1,1,1211.79,-1.88,147940.26,594.17,-0.45,45982.35,155.95,1.59,17066.60,536.98,-2.66,26786.69,360.82,-0.45,58652.31
2221400,766.77,875.57,1.00,2,2,2,987.69,0.18,64031.11,215.50,1.51,23878.76,594.17,-0.45,22995.69,87.23,-1.38,17581.83,184.77,-0.31,6086.60
2236600,738.67,880.03,1.00,2,2,2,1871.94,2.98,185749.97,1871.94,2.98,122586.67,215.50,1.51,46343.64,155.95,1.59,15943.79,446.98,-3.07,40923.75
