@RELATION gaze_labels

%@METADATA width_px 1920
%@METADATA height_px 1080
%@METADATA width_mm 540.00
%@METADATA height_mm 254.00
%@METADATA distance_mm 620.00


@ATTRIBUTE time INTEGER
@ATTRIBUTE x NUMERIC
@ATTRIBUTE y NUMERIC
@ATTRIBUTE confidence NUMERIC
@ATTRIBUTE handlabeller1 INTEGER
@ATTRIBUTE handlabeller2 INTEGER
@ATTRIBUTE handlabeller_final INTEGER
@ATTRIBUTE speed_1 numeric
@ATTRIBUTE direction_1 numeric
@ATTRIBUTE acceleration_1 numeric
@ATTRIBUTE speed_2 numeric
@ATTRIBUTE direction_2 numeric
@ATTRIBUTE acceleration_2 numeric
@ATTRIBUTE speed_4 numeric
@ATTRIBUTE direction_4 numeric
@ATTRIBUTE acceleration_4 numeric
@ATTRIBUTE speed_8 numeric
@ATTRIBUTE direction_8 numeric
@ATTRIBUTE acceleration_8 numeric
@ATTRIBUTE speed_16 numeric
@ATTRIBUTE direction_16 numeric
@ATTRIBUTE acceleration_16 numeric

%The number after speed, direction denotes the step size that was used for the calculation.
%Acceleration was calculated between two adjacent samples of the already low pass filtered velocity

@DATA
0,807.99,827.71,1.00,1,1,1,0.00,0.00,0.00,848.72,2.40,0.00,1453.64,3.00,0.00,753.24,2.97,0.00,314.06,2.93,0.00
15000,798.60,836.31,1.00,1,1,1,848.72,2.40,56581.56,1453.64,3.00,59299.18,315.96,-3.08,76440.04,424.89,0.06,78020.01,113.58,0.04,28337.18
44300,744.28,837.06,1.00,1,1,1,1854.31,3.13,45899.55,315.96,-3.08,39133.13,753.24,2.97,15450.05,1353.70,0.03,31716.50,312.67,0.04,6794.81
66400,782.40,835.25,1.00,1,1,1,1726.86,-0.05,162021.20,95.09,0.39,18421.41,424.89,0.06,52954.76,321.32,2.86,75239.86,63.78,2.69,16752.42
81500,747.54,838.42,1.00,1,1,1,2317.76,3.05,267794.21,1711.36,0.06,107394.83,1353.70,0.03,61542.61,314.06,2.93,1660.26,441.41,-0.12,33260.97
96000,832.95,838.53,1.00,1,1,1,5889.91,0.00,565559.88,2976.71,0.01,87678.18,321.32,2.86,114675.93,113.58,0.04,29314.32,171.95,-0.05,18636.26
110500,833.86,839.31,1.00,1,1,1,82.91,0.70,401854.25,2360.58,3.11,368020.11,237.97,-0.08,38383.63,312.67,0.04,13730.19,393.94,-3.11,39001.84
125100,764.28,840.50,1.00,1,1,1,4766.52,3.12,330760.79,1970.48,-3.11,28111.51,269.18,-3.06,34614.39,63.78,2.69,25358.12,405.34,0.19,54571.03
146500,762.96,837.15,1.00,1,1,1,168.46,-1.95,220094.57,1388.85,-0.07,156792.57,723.77,-3.13,21295.33,441.41,-0.12,23469.19,89.82,1.76,19391.72
161900,815.27,837.02,1.00,1,1,1,3397.02,-0.00,224805.95,748.48,0.07,42535.36,166.74,-0.16,57689.49,171.95,-0.05,17547.13,81.75,0.60,6112.56
177000,785.74,838.68,1.00,1,1,1,1959.16,3.09,354595.55,1354.78,3.10,139098.38,661.72,-0.14,32784.63,393.94,-3.11,37452.10,293.95,0.17,14707.20
191500,775.21,838.70,1.00,1,1,1,726.15,3.14,85148.98,608.95,-0.40,133601.61,651.80,0.01,6800.74,405.34,0.19,54947.38,104.41,2.21,24350.17
206600,802.35,831.69,1.00,1,1,1,1856.73,-0.25,169971.94,2579.25,-0.02,134247.38,29.68,-2.66,44923.07,354.86,0.34,4983.40,100.19,1.00,7678.92
222300,854.64,837.48,1.00,2,2,2,3350.73,0.11,111125.47,637.78,2.82,203335.97,679.50,0.28,45133.17,94.96,1.42,20478.54,169.20,2.85,13947.46
236700,784.17,837.85,1.00,1,1,1,4893.75,3.14,571611.73,1384.03,2.83,51833.92,322.40,1.51,44959.83,280.81,0.33,17458.15,95.71,2.75,5184.91
252400,814.96,850.19,1.00,1,1,1,2113.00,0.38,439309.25,763.25,0.61,123860.49,589.42,2.85,38342.52,154.27,2.02,21374.90,380.08,0.14,29622.09
267600,803.53,851.32,1.00,1,1,1,756.10,3.04,184572.01,67.61,-0.53,48521.39,553.91,0.34,71486.25,391.05,2.54,17715.40,149.03,0.54,16459.60
288900,817.09,848.94,1.00,1,1,1,646.59,-0.17,65807.85,436.88,-0.07,17731.31,728.19,3.01,58590.80,471.07,2.93,8573.86,120.19,2.57,10751.89
304500,819.61,850.26,1.00,1,1,1,182.62,0.48,32973.38,1680.66,2.99,135662.78,650.32,2.95,5780.94,185.79,0.43,40360.12,112.20,1.36,8485.50
319200,766.73,856.49,1.00,1,1,1,3622.29,3.02,256754.67,2006.86,2.98,22239.61,369.96,3.05,19369.05,359.26,0.09,13235.62,135.59,0.88,4307.35
334000,761.17,859.73,1.00,1,1,1,434.80,2.61,218134.71,526.49,-0.21,171134.63,123.87,-3.06,16811.43,54.75,2.10,26075.94,129.79,1.88,8606.80
363600,789.58,851.55,1.00,2,2,2,998.69,-0.28,48114.78,938.71,-0.21,13926.59,1245.34,-0.02,46240.65,199.78,2.93,5669.98,295.25,2.78,8032.32
386600,809.47,849.48,1.00,2,2,2,869.61,-0.10,9086.55,2126.13,0.04,53876.19,396.99,-0.02,36884.77,208.69,2.50,3822.96,225.86,0.38,21141.71
400500,867.96,854.88,1.00,1,1,1,4225.79,0.09,242950.28,329.35,2.40,170624.45,59.03,2.22,31374.27,220.71,0.36,27142.70,74.31,0.26,10959.62
429400,799.04,858.96,1.00,1,1,1,2389.15,3.08,228287.87,1851.23,3.14,56094.03,337.84,2.25,9648.59,189.51,0.26,1292.56,32.07,2.08,3034.06
444400,786.70,855.35,1.00,1,1,1,857.22,-2.86,107208.52,356.85,2.09,113415.21,854.58,2.94,42015.13,146.85,2.31,19273.15,78.85,2.48,3398.52
466400,792.51,870.43,1.00,1,1,1,734.67,1.20,64904.93,519.98,0.79,24852.66,176.19,2.33,32587.59,269.41,0.35,16052.11,94.90,0.22,7145.34
481400,800.28,868.98,1.00,1,1,1,527.28,-0.19,54864.80,111.00,-2.07,41812.31,254.44,2.34,5219.42,232.09,3.11,32853.01,114.66,0.18,1356.66
496300,790.93,867.51,1.00,1,1,1,635.21,-2.99,76901.45,868.64,-3.08,54733.04,890.04,-0.16,74097.72,4.74,1.68,15535.60,48.67,0.38,4541.70
510600,774.96,867.44,1.00,1,1,1,1116.55,-3.14,34801.80,1832.72,-0.10,188390.00,643.59,-0.36,20293.77,110.62,0.54,7604.15,103.64,0.17,3982.51
525800,844.74,862.24,1.00,1,1,1,4603.11,-0.07,376108.21,2100.44,-0.19,21298.28,172.41,-0.78,32319.38,443.33,-0.26,24635.59,201.86,2.79,19502.60
540000,835.60,855.75,1.00,1,1,1,789.52,-2.52,368675.68,1273.51,-3.08,235880.15,376.15,-0.19,17749.69,53.51,-1.72,31036.53,184.96,3.03,3459.96
561800,798.97,859.58,1.00,1,1,1,1689.51,3.04,55731.41,1024.25,2.95,17381.09,92.97,-1.33,15971.83,133.26,-2.99,5869.57,76.53,-0.06,11991.58
576200,799.21,862.84,1.00,1,1,1,226.79,1.50,117888.86,1588.19,-0.07,181092.30,545.88,2.96,40950.65,321.01,-0.24,31034.79,69.40,2.50,9710.53
591600,846.18,856.30,1.00,1,1,1,3079.82,-0.14,201487.68,17.45,-1.43,102898.25,413.26,2.93,8676.39,626.39,3.07,61325.77,409.36,-0.23,30768.78
607600,799.28,862.30,1.00,1,1,1,2955.06,3.01,377174.20,2307.35,3.02,144494.30,274.41,-0.31,42933.60,142.90,2.91,30365.08,351.34,-0.28,3797.06
623000,774.25,864.92,1.00,1,1,1,1634.68,3.04,85800.22,462.83,-0.28,179546.80,1195.95,3.00,95272.93,148.48,-0.09,18868.61,159.34,-0.07,12860.40
652100,819.06,856.55,1.00,1,1,1,1566.65,-0.18,109922.82,414.98,2.93,30147.78,189.88,-0.10,47619.30,196.06,3.00,11835.78,220.15,0.04,2216.04
667600,756.16,868.86,1.00,1,1,1,4134.98,2.95,367844.38,158.61,2.37,18891.76,570.72,-0.15,24596.30,382.51,-0.20,37310.71,63.98,2.02,16285.75
689700,814.79,860.71,1.00,2,2,2,2678.42,-0.14,308186.55,1771.25,-0.17,86160.85,721.78,2.93,58462.02,630.81,-0.21,11236.01,79.09,0.86,3592.79
704200,820.04,857.78,1.00,2,2,2,414.44,-0.51,158437.14,1462.14,3.00,222959.39,1868.18,-0.16,178578.20,366.55,-0.01,19340.31,294.69,-0.07,17648.56
719700,771.34,866.72,1.00,3,3,3,3194.12,2.96,231540.14,1948.71,-0.16,220044.48,1119.42,-0.23,48675.97,164.15,0.55,15703.29,227.58,-0.19,4752.47
748300,904.92,844.33,1.00,1,1,1,4735.58,-0.17,277254.09,2865.02,-0.20,32203.51,210.54,0.32,33073.14,500.81,0.13,12464.43,104.18,0.12,4634.63
764000,895.82,841.95,1.00,1,1,1,598.81,-2.89,336783.05,1316.07,2.85,266044.90,741.51,0.05,34473.89,251.87,0.35,16584.42,630.81,-0.21,33975.47
800400,839.27,864.13,1.00,1,1,1,1668.85,2.77,33964.90,1195.57,2.66,7427.15,956.94,2.67,45069.33,423.54,-0.07,6018.33,366.55,-0.01,7704.24
815000,841.91,870.44,1.00,1,1,1,468.47,1.17,119429.12,554.37,1.76,65213.83,690.06,2.52,20029.01,605.70,-0.18,13005.34,164.15,0.55,16671.30
829000,836.26,879.69,1.00,1,1,1,774.66,2.12,44836.18,348.10,0.37,42936.15,769.00,-0.22,102151.81,216.17,2.62,58011.04,500.81,0.13,25463.05
843600,851.21,873.99,1.00,1,1,1,1095.53,-0.36,121417.24,1589.66,-0.47,94639.39,499.80,-0.69,26854.79,690.06,2.52,32559.90,251.87,0.35,17833.93
865800,888.31,852.99,1.00,1,1,1,1920.58,-0.52,38444.66,790.05,-0.99,44261.40,693.37,-0.44,10885.28,769.00,-0.22,64420.06,423.54,-0.07,9867.90
880400,867.18,849.70,1.00,1,1,1,1465.04,-2.99,219256.22,447.92,2.55,83243.79,790.05,-0.99,28242.55,499.80,-0.69,26854.79,605.70,-0.18,13005.34
894800,877.52,860.23,1.00,1,1,1,1025.04,0.79,164437.50,1025.04,0.79,82785.77,447.92,2.55,84399.95,693.37,-0.44,16781.48,216.17,2.62,56399.62
