@RELATION gaze_labels

%@METADATA width_px 1920
%@METADATA height_px 1080
%@METADATA width_mm 540.00
%@METADATA height_mm 254.00
%@METADATA distance_mm 620.00


@ATTRIBUTE time INTEGER
@ATTRIBUTE x NUMERIC
@ATTRIBUTE y NUMERIC
@ATTRIBUTE confidence NUMERIC
@ATTRIBUTE handlabeller1 INTEGER
@ATTRIBUTE handlabeller2 INTEGER
@ATTRIBUTE handlabeller_final INTEGER
@ATTRIBUTE speed_1 numeric
@ATTRIBUTE direction_1 numeric
@ATTRIBUTE acceleration_1 numeric
@ATTRIBUTE speed_2 numeric
@ATTRIBUTE direction_2 numeric
@ATTRIBUTE acceleration_2 numeric
@ATTRIBUTE speed_4 numeric
@ATTRIBUTE direction_4 numeric
@ATTRIBUTE acceleration_4 numeric
@ATTRIBUTE speed_8 numeric
@ATTRIBUTE direction_8 numeric
@ATTRIBUTE acceleration_8 numeric
@ATTRIBUTE speed_16 numeric
@ATTRIBUTE direction_16 numeric
@ATTRIBUTE acceleration_16 numeric

%The number after speed, direction denotes the step size that was used for the calculation.
%Acceleration was calculated between two adjacent samples of the already low pass filtered velocity

@DATA
0,228.79,749.01,1.00,1,1,1,0.00,0.00,0.00,1208.73,2.42,0.00,212.83,-2.19,0.00,403.73,-2.41,0.00,75.54,-1.39,0.00
15300,214.95,761.27,1.00,1,1,1,1208.73,2.42,79002.15,212.83,-2.19,81700.65,608.39,-2.02,26148.33,14.80,-2.89,25536.51,288.41,-0.06,18293.01
30200,225.08,743.76,1.00,1,1,1,1357.80,-1.05,170040.09,608.39,-2.02,26850.29,403.73,-2.41,18773.42,229.54,0.68,16314.23,804.81,-2.29,67603.62
53200,204.94,740.50,1.00,1,1,1,887.04,-2.98,81200.29,560.78,-2.47,11597.68,14.80,-2.89,16987.33,832.85,3.09,44165.08,452.92,0.64,54403.97
68200,208.36,730.55,1.00,0,0,0,701.29,-1.24,81367.30,760.34,1.16,85533.73,229.54,0.68,16205.47,75.54,-1.39,56914.01,123.03,-0.78,30098.41
82700,213.98,761.02,1.00,0,0,0,2137.24,1.39,191007.65,1237.32,0.67,45933.60,832.85,3.09,70054.95,288.41,-0.06,19302.28,544.43,0.23,33774.05
98000,237.22,753.50,1.00,1,1,1,1596.19,-0.31,184919.16,2062.46,-2.84,212198.41,406.85,0.39,79328.34,804.81,-2.29,65836.20,475.82,0.56,12000.46
112200,155.87,743.01,1.00,1,1,1,5776.25,-3.01,510675.49,530.59,-2.02,122975.07,632.25,-0.05,22179.80,452.92,0.64,88119.11,3228.30,0.37,194528.08
127100,230.56,739.57,1.00,1,1,1,5018.25,-0.05,721727.93,3251.82,0.17,240489.03,1868.96,-2.31,155866.16,123.03,-0.78,30300.41,1449.26,0.30,119896.56
142000,251.42,759.11,1.00,1,1,1,1918.32,0.75,263617.11,2953.65,-2.35,396458.62,1499.13,0.32,218846.89,544.43,0.23,32867.37,1748.68,0.39,22446.55
163700,154.49,662.76,1.00,1,1,1,6298.19,-2.36,378610.86,422.62,1.64,149749.99,339.94,-2.08,81361.47,475.82,0.56,8461.15,1649.85,0.42,5001.48
178700,250.43,774.58,1.00,2,2,2,9822.49,0.86,1073906.43,2820.31,0.72,172308.07,511.62,0.53,54871.22,3228.30,0.37,184153.25,1613.59,0.36,7163.87
194300,219.39,719.64,1.00,2,2,2,4044.94,-2.08,885452.69,1009.03,0.06,135528.77,3036.25,0.74,162730.77,2847.55,0.32,26264.63,1557.13,0.37,3899.31
209100,281.04,776.46,1.00,2,2,2,5664.99,0.74,648333.57,3265.79,0.77,174405.55,4973.26,0.39,160172.91,3180.44,0.43,31204.45,1570.09,0.26,12133.54
223300,287.65,785.30,1.00,3,3,3,776.79,0.93,345306.11,8409.27,0.42,383436.58,6037.02,0.36,75630.74,3960.63,0.50,57740.14,1853.32,0.35,23054.99
244700,553.97,899.49,1.00,1,1,1,13540.48,0.41,601568.91,8514.11,0.24,71270.29,5942.56,0.42,17031.17,2630.77,0.32,68195.55,2600.03,0.01,49561.90
259700,588.43,859.99,1.00,1,1,1,3494.30,-0.85,860166.37,2945.50,0.42,375765.81,4759.54,0.39,79899.98,2739.63,0.40,17373.99,3087.94,0.03,32743.61
274000,632.85,934.50,1.00,1,1,1,6066.24,1.03,551408.97,1911.96,0.96,114863.16,768.93,-0.10,286266.02,2374.06,0.26,35873.67,2940.04,-0.07,23314.68
302000,634.65,926.36,1.00,1,1,1,297.94,-1.35,224517.55,882.71,-1.98,99388.84,512.82,0.74,20282.76,2927.12,0.33,20668.77,3284.66,0.01,15501.73
324500,615.05,893.63,1.00,2,2,2,1695.32,-2.11,66351.85,656.83,-1.86,10871.59,636.31,-1.27,43190.18,2453.07,-0.40,87748.34,2999.56,-0.06,16174.14
355200,624.75,892.85,1.00,2,2,2,316.88,-0.08,60504.69,870.83,-0.46,32451.03,1234.35,0.11,41681.48,3471.51,-0.18,39553.82,2984.54,-0.07,1585.71
370400,650.85,875.87,1.00,2,2,2,2049.02,-0.58,116887.41,4002.81,0.38,229199.65,4271.43,-0.46,217303.77,3330.33,-0.47,65956.43,2694.45,-0.17,26787.73
385400,736.95,937.82,1.00,3,3,3,7071.52,0.62,440782.25,9491.75,-0.46,496981.83,8513.70,-0.25,294983.46,3532.16,-0.49,14470.99,2734.94,-0.16,3584.23
400300,904.91,749.38,1.00,1,1,1,16941.28,-0.84,1185608.48,14061.09,-0.42,308072.79,8036.20,-0.38,76351.77,3698.81,-0.33,41623.57,2155.80,-0.43,58370.19
415300,1120.15,764.83,1.00,1,1,1,14386.11,0.07,934628.78,6653.33,-0.26,505465.56,6760.96,-0.62,147825.16,4026.12,-0.49,45904.14,2018.89,-0.28,22912.02
430000,1096.04,699.19,1.00,1,1,1,4757.03,-1.92,1150172.26,2505.87,-1.79,478191.98,3154.56,-0.12,291328.93,3630.86,-0.54,30210.97,1774.53,-0.39,22117.58
451600,1100.05,676.12,1.00,1,1,1,1084.36,-1.40,178551.89,823.83,1.01,152532.97,1798.81,-1.99,188101.67,3432.10,-0.71,29362.34,1708.85,-0.54,12364.31
466400,1111.95,724.61,1.00,1,1,1,3373.66,1.33,296520.80,1147.66,-2.53,130589.06,1191.20,-2.33,53421.46,1806.42,-0.47,116960.57,1856.38,-0.41,18597.60
480900,1072.46,656.90,1.00,1,1,1,5406.03,-2.10,599593.04,3670.68,-2.28,177693.08,717.68,-2.73,41277.08,524.10,-1.19,100197.35,2818.01,-0.54,69616.67
495800,1041.85,642.56,1.00,1,1,1,2268.61,-2.70,252863.74,383.60,2.91,235672.95,1266.53,-1.51,82044.75,305.17,0.77,46922.63,2995.96,-0.49,16308.07
510000,1061.59,659.45,1.00,1,1,1,1829.98,0.71,286042.61,2080.96,-0.01,172997.06,1298.37,0.54,154474.98,309.91,-3.07,40691.98,2724.94,-0.51,19478.74
531800,1116.76,641.92,1.00,1,1,1,2655.30,-0.31,105359.58,2548.14,0.46,53180.95,1535.72,0.79,19773.11,304.09,-1.70,17796.92,1886.89,-0.38,40693.08
546900,1146.00,700.89,1.00,1,1,1,4359.09,1.11,314381.50,2023.14,1.45,146871.35,177.56,1.89,96838.82,1801.65,-0.66,110584.02,1199.37,-0.73,57224.64
575800,1127.91,730.24,1.00,2,2,2,1192.70,2.12,133639.23,2144.97,-2.84,121405.39,492.69,1.84,10914.39,2463.83,-0.42,28535.26,1131.18,-0.65,4053.92
590300,1057.18,673.01,1.00,2,2,2,6274.75,-2.46,450679.52,1464.77,-1.98,111649.00,3047.21,-0.99,242677.56,2300.90,-0.28,26593.46,1195.89,-0.41,19584.03
612900,1106.15,680.44,1.00,3,3,3,2191.62,0.15,364638.75,7643.29,-0.67,327807.17,5067.67,-0.77,97033.11,1965.55,-0.31,15132.78,1113.59,-0.55,8323.85
627800,1282.09,495.34,1.00,1,1,1,17139.44,-0.81,1072897.76,10836.29,-0.61,217133.53,4613.67,-0.31,151678.93,1826.15,-0.62,40674.26,1347.89,-0.18,34406.07
642900,1372.37,493.87,1.00,1,1,1,5979.27,-0.02,902927.21,3369.99,0.41,630288.59,4378.09,-0.41,34099.58,2112.59,-0.77,27486.66,1534.52,-0.21,12678.05
673700,1424.01,556.87,1.00,1,1,1,2644.98,0.88,156042.50,1459.02,0.96,73367.35,1383.20,0.40,115739.58,2443.56,-0.36,32246.71,1440.74,-0.38,8806.93
688700,1410.70,548.61,1.00,1,1,1,1044.82,-2.59,243301.17,1761.98,-2.71,207299.58,68.16,-1.01,91568.03,2059.13,-0.43,27651.58,1245.57,-0.39,13017.82
702700,1377.56,535.59,1.00,1,1,1,2543.11,-2.77,109074.00,1362.56,-2.09,73099.63,317.35,-1.24,17969.64,1356.92,0.43,111681.63,1327.11,-0.57,18215.04
739800,1375.91,488.29,1.00,2,2,2,1275.48,-1.61,63283.38,1064.31,-0.05,55923.07,155.57,-3.04,10357.83,862.07,0.40,13373.50,1446.50,-0.61,3448.16
754200,1432.30,532.71,1.00,2,2,2,4984.63,0.67,408986.89,2179.16,1.21,146793.78,1334.06,0.47,102782.67,560.15,-0.88,61564.68,1519.64,-0.43,19314.34
768800,1398.30,547.39,1.00,3,3,3,2536.74,2.73,450789.62,2277.24,0.90,47461.01,2281.58,0.45,64938.47,502.22,-0.72,7116.13,1370.27,-0.45,10618.26
783000,1473.09,584.06,1.00,1,1,1,5866.16,0.46,546331.09,3327.16,-0.01,186130.95,893.36,-0.73,148748.41,802.44,-0.46,24123.00,683.37,-0.05,55444.49
798000,1495.44,546.13,1.00,1,1,1,2935.30,-1.04,423700.50,2466.30,-1.54,270350.26,1258.59,-0.61,25819.15,808.89,-0.07,20708.88,319.61,-0.13,24363.99
819700,1475.82,493.59,1.00,1,1,1,2584.51,-1.93,110457.68,1523.41,-2.15,69110.36,1535.10,-1.48,55240.74,483.65,-0.84,26219.53,361.83,-0.95,12625.48
833900,1465.42,500.41,1.00,1,1,1,875.38,2.56,204689.80,420.86,-0.99,99430.19,820.00,-1.68,52820.71,645.19,-0.55,16150.39,341.95,-0.80,3998.39
848900,1482.61,483.35,1.00,1,1,1,1614.39,-0.78,165220.90,677.83,-0.73,19405.89,151.92,-1.42,44948.61,687.08,-1.42,37635.45,414.96,-0.20,15487.00
879100,1488.28,480.01,1.00,1,1,1,218.02,-0.53,46497.35,114.92,-2.96,24970.56,174.36,-0.17,6359.74,475.76,-1.97,12415.56,475.11,0.46,9782.94
894000,1477.51,482.43,1.00,4,4,4,741.31,2.92,63841.36,538.92,2.02,34891.35,71.69,0.14,7263.25,160.67,-1.18,25484.22,451.42,-0.11,17423.28
916200,1479.57,498.01,1.00,4,4,4,707.88,1.44,44077.84,304.77,0.16,31153.80,301.15,3.07,16739.08,181.76,-1.01,1604.96,1419.56,0.27,45650.73
930100,1488.37,484.16,1.00,4,4,4,1180.75,-1.00,128215.69,683.74,-2.17,66141.30,180.09,-0.95,31502.82,211.01,1.09,24530.36,1057.93,-0.06,38906.93
945600,1468.30,481.36,1.00,4,4,4,1307.27,-3.00,135076.37,406.38,-1.91,19902.14,331.75,-1.60,14053.64,495.42,1.52,20400.73,923.64,0.39,29685.83
959800,1484.37,472.77,1.00,4,4,4,1283.01,-0.49,173454.41,382.26,-0.24,41192.18,422.62,1.25,52604.47,644.88,0.45,41850.44,1156.74,0.58,21349.67
974200,1478.93,478.78,1.00,4,4,4,562.98,2.31,126594.68,1086.22,1.25,77840.33,1031.53,1.22,42313.37,2503.05,0.47,129053.35,1037.54,0.79,18015.55
996900,1497.14,510.99,1.00,4,4,4,1630.20,1.06,68200.49,1800.97,1.38,32531.80,1257.12,0.59,32770.61,2138.96,0.28,25374.38,864.87,0.73,8025.78
1012100,1491.80,545.81,1.00,4,4,4,2317.65,1.72,95153.67,1926.80,0.15,141646.95,4403.44,0.52,207276.39,2104.37,0.54,36204.64,755.34,1.65,47633.33
1027200,1554.86,519.79,1.00,4,4,4,4517.87,-0.39,400736.84,7310.40,0.35,360096.17,3888.19,0.20,94356.81,2196.47,0.64,15940.62,1749.42,2.52,92095.99
1055700,1790.65,656.60,1.00,4,4,4,9565.40,0.53,270309.68,5275.21,0.21,78296.67,3060.01,0.39,37114.22,1982.83,0.87,18117.79,2670.10,2.50,32324.20
1070100,1776.31,566.41,1.00,4,4,4,6341.81,-1.73,1002340.38,632.19,-3.08,409823.39,2877.46,0.66,57115.51,1509.95,0.68,39732.84,2940.27,2.51,18849.71
1106300,1758.73,654.61,1.00,4,4,4,2484.32,1.77,240730.20,2341.32,1.65,66712.70,1554.33,2.58,102542.72,975.07,1.70,35859.87,3095.12,2.60,8590.01
1120400,1767.03,683.81,1.00,4,4,4,2153.23,1.29,80460.79,3424.89,2.39,164783.56,1670.25,2.40,22051.14,3485.50,2.65,214801.99,2995.81,2.68,18823.33
1135400,1685.75,722.48,1.00,4,4,4,6000.59,2.70,401899.26,3124.03,-2.85,217809.76,4365.44,2.98,206970.80,6607.89,2.83,215734.48,3093.28,2.61,16550.55
1150400,1677.27,656.85,1.00,4,4,4,4411.64,-1.70,565296.51,5733.95,-3.04,182312.00,10563.98,3.00,413364.78,7157.46,2.74,56178.16,3166.36,2.68,15292.11
1172900,1471.77,701.32,1.00,4,4,4,9344.74,2.93,474028.14,16759.70,2.94,506954.03,12640.22,2.87,115658.26,8626.72,2.88,81771.37,3298.36,2.69,6035.57
1188000,1059.74,782.44,1.00,1,1,1,27810.10,2.95,1223034.21,21922.07,2.75,420531.08,13822.27,2.79,105791.62,8404.64,2.98,59580.34,3671.19,2.74,27086.03
1202900,864.46,953.70,1.00,1,1,1,17432.18,2.42,1036534.30,10872.14,2.48,791257.59,13406.25,2.84,59017.82,7860.92,2.93,46007.60,4478.31,2.95,79722.04
1217800,803.98,981.32,1.00,1,1,1,4462.49,2.71,887265.81,5358.98,-3.04,531626.97,5967.70,2.94,502564.46,7675.97,2.88,26784.19,4489.45,2.89,18437.07
1232700,705.60,937.33,1.00,1,1,1,7232.41,-2.72,364943.89,5274.77,-2.20,289667.65,2604.65,-3.00,243632.97,6888.31,2.84,57428.52,4772.14,2.96,27720.54
1247700,710.75,854.11,1.00,1,1,1,5559.06,-1.51,494352.09,297.05,-0.77,349582.71,2052.49,-2.66,63568.71,3940.56,2.83,196543.37,4849.77,3.05,31399.05
1262100,711.90,931.28,1.00,1,1,1,5360.17,1.56,757722.77,1897.88,1.98,151032.51,1045.78,2.79,107882.47,2245.34,-2.91,162404.69,4497.28,3.06,24539.34
1284300,683.14,917.85,1.00,1,1,1,1429.78,-2.70,275734.89,2086.26,2.75,67765.42,2224.11,2.56,55417.07,1929.57,-2.67,26225.60,4344.71,2.95,22535.14
1299400,640.02,961.09,1.00,1,1,1,4044.77,2.35,251945.84,3278.25,2.97,87435.48,1947.09,-2.80,124194.71,1133.36,-2.71,52847.53,3697.23,2.97,43302.49
1313900,587.60,934.80,1.00,1,1,1,4044.40,-2.68,326814.14,3033.38,-2.17,236403.79,1791.39,-2.69,18060.65,1554.49,-2.86,32141.07,2215.93,3.07,103956.12
1328800,589.63,887.52,1.00,1,1,1,3176.38,-1.53,267783.03,2161.67,-1.56,118807.13,1783.98,-2.22,55377.62,1655.95,-2.62,26654.95,1533.12,-2.85,63683.29
1343300,588.28,871.25,1.00,2,2,2,1125.57,-1.65,142379.15,565.29,-2.48,129159.93,2379.60,-2.06,46768.06,1272.38,-2.95,42609.37,1326.50,-2.77,16512.87
1358400,576.45,877.21,1.00,1,1,1,877.26,2.68,110335.09,2891.77,-2.35,154423.94,1439.66,-2.37,72703.70,1203.87,-2.55,32702.13,562.12,-2.96,51734.97
1379900,513.55,796.30,1.00,1,1,1,4766.49,-2.23,217533.20,2144.28,-2.35,34779.49,1002.12,2.98,54141.35,1141.54,-2.39,9637.43,568.33,2.84,12733.29
1395300,521.04,820.72,1.00,1,1,1,1658.76,1.27,411976.09,1969.87,1.64,243939.05,954.73,-3.02,18301.69,987.66,-2.76,27766.82,575.17,0.16,72304.90
1424600,507.83,884.17,1.00,1,1,1,2211.74,1.78,37598.00,1159.81,2.00,33473.12,687.63,2.55,21376.76,880.29,-2.94,6645.43,1636.50,-0.53,42443.95
1439700,499.44,867.47,1.00,1,1,1,1237.71,-2.04,216745.25,2347.36,-2.13,207846.94,842.78,3.05,26775.96,262.16,2.35,51047.05,2349.26,-0.68,51406.66
1454400,470.94,824.74,1.00,1,1,1,3494.17,-2.16,154471.79,1372.47,-2.55,84192.10,897.63,-2.53,41062.46,736.32,1.20,45694.30,2625.30,-0.56,28249.12
1491300,440.48,828.24,1.00,2,2,2,830.85,3.03,86763.26,558.91,2.48,35410.69,770.11,0.70,45151.02,2452.17,0.37,55077.59,2439.76,-0.42,10808.88
1505700,448.28,842.30,1.00,2,2,2,1117.01,1.06,112977.42,4588.04,0.64,331104.48,1419.39,0.75,45223.99,4184.46,-0.33,194516.36,2456.97,-0.45,5537.40
1520200,546.77,907.51,1.00,2,2,2,8146.07,0.58,494742.97,4155.77,0.52,47644.02,7703.99,0.29,445859.03,5039.34,-0.46,71798.80,2483.16,-0.40,9194.44
1535200,554.83,902.94,1.00,2,2,2,617.95,-0.52,525696.27,11084.50,0.15,490708.43,9984.01,-0.25,343339.96,5515.72,-0.36,47141.10,2613.57,-0.20,34054.53
1550200,875.60,956.97,1.00,3,3,3,21686.15,0.17,1414020.93,15747.69,-0.39,564190.03,10746.48,-0.54,211150.01,6553.95,-0.28,77461.02,2648.89,-0.28,13250.68
1572000,1090.42,681.63,1.00,1,1,1,16019.41,-0.91,913332.27,13769.95,-0.97,395876.90,11599.83,-0.50,45021.56,6554.32,-0.34,19935.68,3074.58,-0.34,21437.01
1587400,1165.03,534.33,1.00,1,1,1,10722.08,-1.10,381333.25,6844.21,-0.82,460135.76,7539.15,-0.78,314551.21,5958.65,-0.42,49002.72,3003.44,-0.28,13370.80
1601300,1227.85,535.59,1.00,1,1,1,4520.11,0.02,695053.20,3233.69,0.79,552341.40,3018.23,-0.72,326064.25,5571.65,-0.35,38457.19,2987.89,-0.28,1474.10
1616900,1232.03,602.24,1.00,1,1,1,4280.78,1.51,382265.30,896.45,1.61,173003.06,1641.59,0.74,209021.09,3855.58,-0.74,158040.78,3478.75,-0.27,31485.37
1631900,1226.85,563.00,1.00,1,1,1,2638.38,-1.70,461022.15,198.07,-0.36,65942.73,1652.09,1.34,65237.74,1784.28,-0.37,152126.82,3230.14,-0.30,18020.51
1647100,1237.63,600.16,1.00,1,1,1,2545.29,1.29,340055.93,2311.68,1.25,153151.92,364.41,0.44,95719.57,1290.81,0.71,107732.21,2949.14,-0.41,29213.99
1668900,1253.42,644.30,1.00,1,1,1,2150.59,1.23,19250.15,567.03,0.65,85970.03,1237.90,0.46,40073.43,570.45,1.15,37191.02,2825.54,-0.40,6180.11
1682900,1253.82,612.41,1.00,1,1,1,2278.56,-1.56,311372.78,2194.03,-0.75,155156.95,974.46,0.67,24966.39,394.16,-0.15,42861.45,1805.15,-0.76,93264.65
1698700,1301.05,599.51,1.00,1,1,1,3098.36,-0.27,208960.67,1459.23,0.68,155634.41,726.71,-1.47,94717.11,269.42,1.01,23951.90,1136.89,-0.21,64588.70
1713000,1288.09,639.88,1.00,1,1,1,2964.40,1.88,372728.78,1477.22,3.10,192137.71,545.25,-0.58,40001.28,65.39,-0.02,16927.96,1644.40,0.14,49123.31
1728100,1257.66,601.49,1.00,1,1,1,3243.98,-2.24,362791.61,1577.54,-1.73,134649.32,844.62,-3.03,86800.28,319.33,-1.14,19650.58,1742.32,0.14,6492.49
1742000,1280.76,594.72,1.00,1,1,1,1731.57,-0.29,303032.08,396.33,-2.53,95687.47,871.55,-2.38,39311.30,126.08,2.97,29094.07,1886.65,-0.12,35355.96
1764400,1245.92,593.18,1.00,1,1,1,1556.88,-3.10,144825.32,935.18,2.99,31513.15,179.86,0.12,45598.72,668.28,0.14,35238.77,2026.53,0.03,14171.04
1779300,1246.28,600.00,1.00,1,1,1,458.06,1.52,111732.12,615.23,0.36,100750.36,590.77,2.71,50307.46,2135.83,-0.11,100409.49,1951.10,-0.08,14807.23
1810400,1272.36,603.28,1.00,4,4,4,845.15,0.13,28526.53,402.01,2.15,25847.66,1775.05,0.13,73828.52,2877.85,0.01,25643.21,1738.55,-0.00,8169.69
1825300,1236.13,615.46,1.00,4,4,4,2565.03,2.82,224594.43,3014.72,0.08,216598.52,3994.85,0.01,150583.20,3018.43,-0.12,26750.71,1587.22,-0.07,12495.25
1854200,1403.99,613.74,1.00,4,4,4,5808.48,-0.01,286713.44,7756.67,-0.03,165137.11,5600.10,0.01,55545.22,3614.14,-0.03,23045.93,1272.12,-0.11,11138.94
1876900,1636.17,602.59,1.00,4,4,4,10240.03,-0.05,195643.75,8608.45,-0.02,37724.54,6670.50,-0.14,62316.29,3548.18,-0.08,8847.84,1180.68,-0.20,6281.67
1892000,1729.31,606.80,1.00,4,4,4,6174.79,0.05,273648.09,5110.51,-0.44,294348.12,6107.19,-0.08,44840.54,3376.23,0.09,39137.67,890.03,0.09,27642.84
1907000,1775.49,537.38,1.00,4,4,4,5558.14,-0.98,386558.44,3007.16,-0.32,143557.86,2882.72,-0.28,221441.98,3241.76,-0.07,35567.19,423.05,-0.34,35763.87
1921500,1813.52,578.89,1.00,4,4,4,3882.74,0.83,517551.69,1058.12,0.70,180311.56,670.16,1.23,201175.10,2007.98,-0.21,88511.38,547.39,-0.46,9390.94
1935400,1798.46,556.76,1.00,4,4,4,1926.24,-2.17,416948.83,3362.34,2.40,263066.39,1168.42,2.53,84812.91,270.15,-1.95,149018.75,537.49,-0.11,13581.49
1950100,1742.30,643.50,1.00,4,4,4,7030.02,2.15,542721.98,2392.26,2.86,109089.74,2235.32,-3.00,108896.72,1697.65,3.06,111501.14,257.64,-0.98,28549.89
1972700,1712.77,581.64,1.00,4,4,4,3033.15,-2.02,398092.89,3023.07,-2.30,130363.66,2596.84,3.06,28603.37,2648.07,3.10,42287.63,464.77,-0.29,13820.14
1987900,1666.58,557.91,1.00,4,4,4,3415.90,-2.67,137726.40,2967.48,-3.02,140280.89,3327.07,-3.06,57416.02,3025.72,-3.01,40708.41,382.33,-2.29,46988.40
2003000,1623.49,570.97,1.00,4,4,4,2982.18,2.85,161110.31,5393.71,2.73,213229.23,4143.99,-3.04,54246.36,2613.18,3.08,46361.19,1153.10,-3.04,60440.62
2018600,1515.15,624.91,1.00,4,4,4,7757.50,2.68,310436.86,4938.56,-3.05,168118.12,3733.08,-3.01,27824.15,2944.42,-2.91,57045.92,1518.34,-3.10,23976.32
2047900,1402.63,551.19,1.00,4,4,4,4591.01,-2.56,229741.47,3702.26,-2.44,97451.53,2627.21,3.09,42620.54,2444.35,-3.13,26459.75,1726.24,3.07,9555.27
2062100,1392.05,521.07,1.00,1,1,1,2248.64,-1.91,219743.15,862.91,1.36,311133.66,2687.30,-2.75,82705.38,2351.61,-3.07,11797.49,1842.65,3.04,8951.14
2084600,1409.40,582.13,1.00,1,1,1,2821.37,1.29,225230.53,2149.83,2.88,101471.89,681.09,2.53,106245.26,2080.79,3.14,14017.64,2332.29,2.84,28455.08
2099600,1314.08,541.54,1.00,1,1,1,6906.83,-2.74,596843.56,1467.09,-3.03,62643.11,873.48,2.91,23252.98,1393.72,-2.98,49449.18,2896.31,2.90,39308.39
2114900,1365.21,577.31,1.00,1,1,1,4078.22,0.61,714362.57,740.74,-0.33,141236.24,1351.36,-3.01,40247.39,864.42,2.95,42772.41,3194.52,2.68,47746.39
2129300,1334.90,534.44,1.00,1,1,1,3646.19,-2.19,528480.08,1233.21,-2.99,133335.11,669.65,1.84,98745.47,1097.00,2.44,37962.95,3227.80,2.68,2831.94
2144400,1329.26,571.69,1.00,1,1,1,2494.99,1.72,378347.59,1441.20,2.12,98729.14,1084.94,-3.12,74463.91,2215.47,2.57,75261.87,2952.00,2.58,26840.91
2174500,1300.71,589.89,1.00,2,2,2,1124.92,2.57,64756.75,1013.01,3.07,39183.63,1346.80,2.23,37018.43,3409.75,2.52,39930.64,2714.99,2.58,7880.00
2197300,1275.82,575.66,1.00,2,2,2,1257.46,-2.62,54261.17,1279.15,2.34,37541.19,3002.39,2.38,73859.34,4245.19,2.44,38692.43,2663.30,2.46,14558.17
2226500,1254.61,637.83,1.00,3,3,3,2249.86,1.90,95122.42,5763.67,2.25,153798.34,6092.36,2.58,109661.05,4393.61,2.44,5133.31,2744.17,2.59,12202.70
2240600,1119.36,770.09,1.00,3,3,3,13415.92,2.37,812253.67,14801.56,2.62,684830.74,8143.14,2.34,187343.24,4093.79,2.34,35256.37,2666.94,2.53,13555.69
2255500,882.75,852.24,1.00,1,1,1,16810.10,2.81,495417.38,11654.54,2.41,278295.11,8898.21,2.48,94325.23,4581.39,2.37,33535.73,2555.09,2.58,12544.26
2270500,859.45,1002.20,1.00,1,1,1,10117.47,1.72,1000820.13,4697.36,2.15,481577.37,5664.54,2.31,229956.35,4712.85,2.37,8765.96,2359.29,2.56,13632.94
2293000,786.45,999.74,1.00,1,1,1,3245.96,-3.11,455436.60,1284.23,1.51,166272.97,3296.82,1.88,134106.92,4919.93,2.63,57293.74,2431.20,2.43,13845.73
2307700,862.12,1049.90,1.00,1,1,1,6175.43,0.59,619063.39,2359.03,1.12,86833.95,976.90,2.60,179827.12,3228.02,2.49,121525.38,4093.79,2.34,114645.23
2322000,816.47,1061.22,1.00,1,1,1,3288.97,2.90,611296.38,2039.45,-2.91,278431.87,1602.44,-2.44,111043.56,1536.11,2.76,125595.68,4581.39,2.37,34942.82
2337200,803.63,1035.81,1.00,1,1,1,1872.75,-2.04,223843.20,5294.60,-2.27,253672.17,1258.63,-2.70,33013.56,604.22,-2.50,87025.86,4712.85,2.37,8650.62
2352200,714.11,938.38,1.00,1,1,1,8820.93,-2.31,469130.64,676.39,-2.03,309295.18,2966.86,-2.27,126424.26,109.86,-0.39,44526.72,4919.93,2.63,85940.61
2367100,794.65,1017.69,1.00,1,1,1,7586.32,0.78,1100815.29,615.81,-2.28,11427.32,1219.89,-1.68,138259.17,1258.63,-2.70,89600.88,3228.02,2.49,119894.17
2382100,702.15,924.38,1.00,1,1,1,8759.36,-2.35,1089692.35,1692.55,-1.58,85656.86,1511.78,0.58,165177.61,2966.86,-2.27,126424.26,1536.11,2.76,119734.54
2404800,794.25,953.88,1.00,1,1,1,4260.55,0.31,559127.24,3187.31,0.62,193981.52,1692.55,-1.58,124527.74,1219.89,-1.68,90751.61,604.22,-2.50,58272.82
2419700,799.35,994.49,1.00,1,1,1,2746.53,1.45,267100.76,2746.53,1.45,161254.98,3187.31,0.62,295528.89,1511.78,0.58,166286.19,109.86,-0.39,44825.55
