@RELATION gaze_labels

%@METADATA width_px 1920
%@METADATA height_px 1080
%@METADATA width_mm 540.00
%@METADATA height_mm 254.00
%@METADATA distance_mm 620.00


@ATTRIBUTE time INTEGER
@ATTRIBUTE x NUMERIC
@ATTRIBUTE y NUMERIC
@ATTRIBUTE confidence NUMERIC
@ATTRIBUTE handlabeller1 INTEGER
@ATTRIBUTE handlabeller2 INTEGER
@ATTRIBUTE handlabeller_final INTEGER
@ATTRIBUTE speed_1 numeric
@ATTRIBUTE direction_1 numeric
@ATTRIBUTE acceleration_1 numeric
@ATTRIBUTE speed_2 numeric
@ATTRIBUTE direction_2 numeric
@ATTRIBUTE acceleration_2 numeric
@ATTRIBUTE speed_4 numeric
@ATTRIBUTE direction_4 numeric
@ATTRIBUTE acceleration_4 numeric
@ATTRIBUTE speed_8 numeric
@ATTRIBUTE direction_8 numeric
@ATTRIBUTE acceleration_8 numeric
@ATTRIBUTE speed_16 numeric
@ATTRIBUTE direction_16 numeric
@ATTRIBUTE acceleration_16 numeric

%The number after speed, direction denotes the step size that was used for the calculation.
%Acceleration was calculated between two adjacent samples of the already low pass filtered velocity

@DATA
0,68.51,777.59,1.00,1,1,1,0.00,0.00,0.00,1079.58,0.52,0.00,1157.90,0.06,0.00,93.04,1.16,0.00,156.44,0.49,0.00
13900,81.54,785.04,1.00,1,1,1,1079.58,0.52,77667.72,1157.90,0.06,36899.60,338.96,-0.16,59776.97,142.63,3.08,14032.35,24.82,1.29,10090.65
34900,108.84,780.10,1.00,1,1,1,1321.41,-0.18,40590.40,338.96,-0.16,39566.66,93.04,1.16,15642.31,153.22,2.80,1979.80,150.60,2.99,7410.74
63300,98.06,782.33,1.00,1,1,1,387.69,2.94,60176.33,877.67,3.03,42827.14,142.63,3.08,6867.95,737.71,-3.09,21089.94,388.94,-0.13,18996.68
77800,71.42,784.22,1.00,1,1,1,1842.11,3.07,100604.21,788.20,3.02,6207.43,153.22,2.80,2867.30,156.44,0.49,60806.40,1271.36,-0.02,61083.61
100100,69.27,785.84,1.00,1,1,1,120.78,2.49,78121.37,715.67,-0.00,67321.45,737.71,-3.09,26858.94,24.82,1.29,6289.69,1318.88,-0.05,2589.64
114100,97.40,784.13,1.00,1,1,1,2012.82,-0.06,151034.33,714.44,-2.92,101521.41,237.14,0.28,69317.49,150.60,2.99,11116.11,1410.29,0.01,8439.47
143000,39.35,779.19,1.00,1,1,1,2015.79,-3.06,139028.57,169.63,2.41,21829.07,176.17,0.23,2135.01,388.94,-0.13,18668.01,1798.20,0.02,13436.03
164000,91.09,789.77,1.00,2,2,2,2514.80,0.20,215378.32,1264.68,0.22,65240.87,153.25,-3.11,15611.97,1271.36,-0.02,42176.78,783.44,0.03,48326.09
178100,82.65,788.96,1.00,1,1,1,601.20,-3.05,220801.18,290.34,-2.33,107412.37,1782.35,-0.04,137252.59,1318.88,-0.05,4095.67,436.92,-0.11,25251.02
192700,85.36,783.72,1.00,1,1,1,403.62,-1.09,57502.25,2490.02,-0.19,181986.92,2666.74,-0.06,60645.36,1410.29,0.01,8092.64,875.66,0.01,30500.89
207100,153.53,775.14,1.00,1,1,1,4771.36,-0.13,316304.68,4951.93,-0.02,176097.51,2694.44,-0.07,2944.96,1798.20,0.02,26965.37,1295.92,-0.01,29223.19
228600,263.10,780.29,1.00,1,1,1,5102.02,0.05,42379.91,2884.74,0.02,96392.19,3300.92,0.01,30185.97,1650.48,-0.03,7795.15,1590.83,-0.02,13746.59
243300,257.93,777.19,1.00,1,1,1,409.85,-2.60,371860.43,1279.78,0.15,110561.19,1819.15,0.07,101348.61,986.15,-0.14,46269.80,1684.88,-0.02,6404.25
257700,299.90,785.97,1.00,1,1,1,2977.74,0.21,233856.70,522.96,0.46,55297.65,517.42,0.14,90519.77,2123.84,0.00,80254.90,1559.75,-0.01,8728.24
272100,271.45,783.84,1.00,1,1,1,1981.55,-3.07,343683.06,263.96,-2.95,54217.44,765.35,-3.02,89077.26,2312.44,0.02,13364.17,1864.99,0.00,21288.81
286100,292.54,784.55,1.00,2,2,2,1507.58,0.03,249171.78,1792.62,-2.94,109191.26,938.45,-0.04,121309.97,1988.00,-0.02,23811.05,1592.64,-0.01,19511.51
307600,209.10,771.09,1.00,2,2,2,3931.22,-2.98,252564.43,1879.62,-0.01,169831.31,2819.87,-0.02,87517.28,2094.74,-0.00,5124.60,1504.25,-0.01,4115.24
322200,360.39,783.75,1.00,3,3,3,10398.72,0.08,980932.18,8565.28,0.04,458126.71,3320.30,-0.04,34567.54,1728.68,-0.04,25401.44,1494.90,-0.02,1450.06
335900,451.32,780.31,1.00,3,3,3,6641.92,-0.04,283901.49,5199.39,-0.05,249802.93,4971.81,0.02,121686.59,1926.11,-0.01,14738.70,1227.53,0.01,19764.56
349900,504.20,775.87,1.00,1,1,1,3790.31,-0.08,204351.47,2114.82,-0.06,220329.68,2535.16,-0.04,174527.31,1549.85,0.00,26944.34,853.04,0.01,26749.97
371400,526.27,775.85,1.00,1,1,1,1026.30,-0.00,128783.95,463.27,0.13,77300.18,1198.93,-0.00,62217.08,1942.90,0.05,18649.74,1517.42,0.01,30902.53
385400,520.51,777.98,1.00,1,1,1,438.15,2.79,103244.52,455.90,0.23,3301.12,434.41,0.22,55731.61,973.81,-0.06,69982.14,1881.10,0.00,25983.66
414300,545.32,780.27,1.00,1,1,1,862.06,0.09,43997.35,420.14,0.27,1384.42,178.42,2.50,19633.01,445.26,-0.01,18319.08,2054.11,0.01,6024.68
450100,546.72,785.20,1.00,1,1,1,143.01,1.29,22943.77,656.88,2.97,29403.12,95.97,-2.82,4098.55,93.58,0.52,10261.11,2108.76,0.03,1785.36
464200,513.01,785.77,1.00,1,1,1,2391.35,3.12,172484.04,1283.95,-2.86,53145.65,144.70,-3.09,4112.69,1086.36,0.03,71240.99,2117.92,0.03,866.60
478200,512.07,775.15,1.00,1,1,1,761.07,-1.66,175519.41,376.05,-0.34,114623.40,358.22,-3.10,15253.93,1991.82,0.03,64675.77,1689.28,0.03,30634.96
514500,530.84,779.47,1.00,2,2,2,530.80,0.23,29035.09,222.61,0.93,10356.87,2537.13,-0.02,79746.10,2166.58,0.04,4826.17,1284.07,0.04,11167.83
528300,518.73,784.10,1.00,3,3,3,939.75,2.78,102310.41,6415.17,0.01,455262.67,4248.26,0.04,124762.72,2756.33,0.05,42795.59,1191.83,0.07,7059.79
542800,712.38,781.59,1.00,1,1,1,13356.49,-0.01,982234.22,10033.49,0.01,249540.23,5825.15,0.04,108751.09,2312.30,0.01,31484.35,1340.44,0.08,10267.70
563900,875.89,788.68,1.00,1,1,1,7756.57,0.04,266783.72,5351.28,0.06,222536.27,6585.84,0.05,36206.58,2444.84,0.07,9701.96,1266.25,0.07,3519.04
577800,899.33,793.02,1.00,1,1,1,1714.68,0.18,436207.87,2255.73,0.25,227590.24,2035.34,0.05,327375.05,2463.87,0.06,3145.80,1010.69,0.04,18607.81
591900,937.10,804.25,1.00,1,1,1,2795.02,0.29,78363.64,2095.78,-3.06,307590.24,202.83,1.63,145180.03,2739.56,0.05,19619.57,1850.46,0.04,59559.60
605900,840.65,787.98,1.00,1,1,1,6986.70,-2.97,697636.23,1761.77,-3.10,24512.54,877.28,3.07,62446.45,1685.24,0.11,75994.59,2156.34,0.02,22054.76
627100,875.15,801.48,1.00,1,1,1,1747.46,0.37,410593.75,267.91,1.27,88212.11,1076.73,-3.09,10998.51,276.28,0.52,67720.96,2441.01,0.04,13669.99
641600,843.50,797.11,1.00,1,1,1,2203.12,-3.00,270588.70,242.81,-3.03,29491.93,1351.37,0.21,166941.25,477.42,-3.11,50522.67,2251.40,0.03,13197.92
656000,868.17,800.71,1.00,1,1,1,1731.35,0.15,273224.94,2894.54,0.11,217871.87,494.09,0.15,59632.26,838.51,0.02,91383.06,2268.19,0.04,1403.79
670100,925.52,805.98,1.00,2,2,2,4084.25,0.09,167178.52,1104.18,0.14,127046.87,118.82,-2.26,41696.03,1992.13,0.04,81837.65,1508.05,0.03,53919.98
690900,906.33,806.14,1.00,2,2,2,922.85,3.13,240545.77,2536.93,-2.97,175041.18,2793.06,0.03,138126.77,2438.86,0.01,21656.81,1149.70,0.05,17273.21
704800,838.72,791.32,1.00,3,3,3,4979.35,-2.93,293865.86,4916.28,0.00,534537.04,2606.94,-0.04,19495.14,2061.96,0.01,27118.93,982.27,0.05,12047.20
718800,1043.49,806.26,1.00,3,3,3,14665.47,0.07,1400490.98,7641.09,0.03,194951.20,4394.78,-0.00,128051.82,1898.85,0.03,11965.04,913.94,0.03,5037.22
740000,1107.59,798.44,1.00,1,1,1,3045.99,-0.12,551487.83,3987.27,-0.01,172549.56,3784.45,0.03,29423.84,1378.39,-0.05,25243.71,866.71,0.04,2246.30
754500,1185.83,805.49,1.00,1,1,1,5417.98,0.09,173927.27,649.52,0.06,230290.69,1337.86,0.03,168731.37,1885.99,-0.00,35358.43,870.40,-0.02,3432.02
783300,1135.67,800.02,1.00,1,1,1,1752.13,-3.03,248954.22,147.23,2.68,27103.62,455.21,-0.08,30770.67,2115.34,0.04,8621.03,924.02,0.03,2441.55
818900,1177.36,809.75,1.00,1,1,1,1202.69,0.23,82854.72,300.16,-0.33,12539.62,166.62,-0.02,8119.00,967.58,0.04,32242.03,875.27,0.02,1413.27
833000,1149.80,795.24,1.00,1,1,1,2208.89,-2.66,240161.10,857.56,-0.19,39844.82,578.53,0.14,29408.76,11.93,-2.76,69419.00,626.84,-0.04,17901.37
847300,1201.29,805.22,1.00,1,1,1,3667.72,0.19,406818.84,1030.87,0.32,35139.43,495.81,0.07,6282.65,298.58,-2.96,20062.60,799.95,-0.02,12171.43
868400,1184.44,806.73,1.00,1,1,1,801.76,3.05,210602.99,331.03,0.46,33379.35,559.99,3.09,49938.57,66.36,2.60,11978.38,385.77,0.05,19722.42
897400,1216.19,812.52,1.00,1,1,1,1112.68,0.18,65432.73,1822.40,-3.03,73697.04,842.70,-3.00,10758.11,290.29,-3.03,8309.84,394.69,-3.14,26904.44
911900,1105.69,797.67,1.00,1,1,1,7689.10,-3.01,606944.87,2861.25,-2.94,72911.75,732.28,-3.12,9961.61,228.16,3.07,5369.79,1020.35,2.97,43848.66
926200,1135.43,796.12,1.00,1,1,1,2082.79,-0.05,681374.32,615.79,0.37,242650.21,1243.79,-3.05,36107.33,387.25,-3.08,11464.82,1078.67,1.61,92370.78
947800,1126.31,805.64,1.00,4,4,4,610.19,2.33,118598.57,250.43,1.50,25821.09,179.24,-0.01,65841.58,1573.82,-3.10,54940.68,1495.19,1.15,32998.14
962100,1136.06,805.09,1.00,4,4,4,682.61,-0.06,84134.00,428.94,-2.41,44248.19,185.36,0.49,6339.29,2268.86,-3.12,48648.50,1479.64,1.06,9039.85
976200,1117.21,797.54,1.00,4,4,4,1439.88,-2.76,147409.31,367.95,-0.33,48880.72,2602.06,-3.10,196501.96,2361.33,2.97,33403.15,1212.72,2.81,146845.10
990500,1145.95,801.73,1.00,4,4,4,2030.91,0.14,241067.50,4367.54,3.14,329898.41,3291.66,3.14,49240.56,2597.32,1.46,237718.73,1600.47,-3.09,46215.84
1012800,957.36,797.77,1.00,4,4,4,8458.83,-3.12,469830.00,6109.32,3.12,78190.12,4864.54,2.97,76697.74,3496.80,1.12,60311.66,1593.75,-3.08,385.27
1027200,921.77,805.54,1.00,4,4,4,2529.79,2.93,418634.57,5658.39,2.80,133763.32,5061.11,1.49,466010.88,3317.00,0.98,35354.43,1672.38,-3.06,5908.58
1041400,804.63,851.26,1.00,4,4,4,8855.53,2.77,448531.06,14462.03,0.91,1205667.62,9235.23,0.84,424867.30,2312.67,2.78,313308.73,1350.92,-3.06,22638.20
1055600,1173.55,1130.05,1.00,4,4,4,32563.94,0.65,2673330.61,21256.98,0.59,619304.70,8975.10,0.67,110664.32,2941.01,-3.09,87439.51,1490.17,-3.07,9817.29
1070100,1311.16,1191.28,1.00,4,4,4,10388.07,0.42,1556467.46,5668.92,0.16,1123167.72,956.34,1.01,557186.78,1618.10,-3.06,91316.95,1325.49,-3.06,11372.83
1091300,1373.40,1161.92,1.00,4,4,4,3245.94,-0.44,406921.50,15664.80,-2.60,991574.50,8321.47,-2.43,435824.51,1080.24,-2.95,26334.45,1351.14,-3.05,1371.41
1105500,837.42,903.05,1.00,4,4,4,41916.92,-2.69,3100741.11,24904.01,-2.58,650876.83,10673.05,-2.50,171484.89,737.52,-2.25,49584.64,1147.68,-3.07,14448.87
1120100,765.33,781.56,1.00,4,4,4,9676.29,-2.11,2347328.67,4954.10,-2.13,1407905.05,10893.79,-2.56,48429.35,4007.84,-2.45,225323.18,1175.16,-3.06,2093.44
1134300,761.37,782.34,1.00,4,4,4,284.28,2.95,674979.44,571.04,-0.12,367812.32,2110.61,-2.21,630170.33,4564.54,-2.49,40757.24,760.00,-3.07,29239.81
1155700,785.51,779.08,1.00,4,4,4,1138.19,-0.13,66451.48,525.67,-2.61,48528.05,482.90,-2.73,79884.25,5027.66,-2.57,27658.47,1513.11,-3.05,35200.74
1184400,738.68,768.96,1.00,1,1,1,1669.17,-2.93,96401.61,1313.73,-2.91,28835.11,88.09,-0.79,18144.68,869.75,-1.93,151844.16,1185.54,-2.93,12757.01
1198600,730.60,766.36,1.00,1,1,1,597.78,-2.83,75763.70,817.13,0.28,150015.26,217.82,-2.72,18440.11,228.35,-0.20,65792.93,2834.43,-2.69,120210.36
1220000,766.65,776.95,1.00,1,1,1,1755.84,0.29,109975.51,1115.48,0.15,15150.40,642.61,0.12,39864.30,125.21,-3.12,16425.20,3372.25,-2.71,25355.12
1234200,769.89,772.11,1.00,1,1,1,410.23,-0.98,118251.38,517.82,-0.09,43903.63,840.33,0.11,13936.19,1873.56,-3.10,123124.89,3452.06,-2.75,9826.87
1263000,788.83,774.97,1.00,2,2,2,665.07,0.15,21358.20,645.26,0.06,5362.20,334.94,2.96,40449.12,1860.84,3.10,5422.33,1175.64,-2.79,79090.38
1284100,802.03,774.11,1.00,2,2,2,626.83,-0.07,6828.24,1366.24,3.00,94900.83,3539.35,-3.12,152231.48,2002.20,3.11,6792.90,955.48,-3.13,20112.16
1298500,740.82,781.81,1.00,3,3,3,4284.54,3.02,340998.75,10763.69,-3.12,654058.94,4926.70,3.12,96872.30,2473.73,3.13,32944.33,1073.67,-3.12,8223.19
1313000,491.04,767.05,1.00,1,1,1,17255.91,-3.08,901195.98,9377.27,-3.14,96324.57,6197.46,3.14,87803.33,2155.21,3.12,22158.57,1026.04,3.12,4564.06
1327000,473.57,780.25,1.00,1,1,1,1563.82,2.49,1149830.21,1657.20,2.97,553588.19,5067.71,-3.13,80795.40,2064.15,3.10,6770.94,832.32,3.13,13852.36
1341900,443.82,775.04,1.00,1,1,1,2026.87,-2.97,100177.25,1693.51,-3.13,20536.20,520.39,2.75,308188.26,2527.88,3.13,31353.69,2002.20,3.11,78527.65
1363400,411.93,779.39,1.00,1,1,1,1496.86,3.01,35025.73,456.08,0.30,99306.72,717.61,0.10,55900.46,2270.73,-3.12,12490.21,2473.73,3.13,22065.04
1378200,459.64,779.91,1.00,1,1,1,3224.00,0.01,318237.77,3679.12,0.05,218831.32,727.12,0.06,1934.44,146.39,1.62,153500.76,2155.21,3.12,21709.41
1393000,520.68,785.07,1.00,1,1,1,4139.10,0.08,64419.05,1091.24,-0.06,175483.13,516.62,-0.10,15746.76,296.46,-0.21,24477.29,2064.15,3.10,6404.94
1407100,491.13,778.11,1.00,1,1,1,2153.54,-2.91,445201.35,2128.39,-3.02,227547.76,476.80,0.20,10896.51,727.12,0.06,31855.29,2527.88,3.13,33132.62
1428600,445.45,776.07,1.00,1,1,1,2126.67,-3.10,18594.12,221.83,1.69,99568.13,246.79,-2.19,31579.52,516.62,-0.10,10839.63,2270.73,-3.12,12490.21
1443600,490.19,786.15,1.00,1,1,1,3057.81,0.22,344322.83,2285.99,-0.06,155656.41,221.83,1.69,29142.41,476.80,0.20,10242.72,146.39,1.62,151454.08
1457500,511.40,772.14,1.00,1,1,1,1828.36,-0.58,160022.03,1828.36,-0.58,83056.42,2285.99,-0.06,167974.54,246.79,-2.19,48846.03,296.46,-0.21,26062.15
