@RELATION gaze_labels

%@METADATA width_px 1920
%@METADATA height_px 1080
%@METADATA width_mm 540.00
%@METADATA height_mm 254.00
%@METADATA distance_mm 620.00


@ATTRIBUTE time INTEGER
@ATTRIBUTE x NUMERIC
@ATTRIBUTE y NUMERIC
@ATTRIBUTE confidence NUMERIC
@ATTRIBUTE handlabeller1 INTEGER
@ATTRIBUTE handlabeller2 INTEGER
@ATTRIBUTE handlabeller_final INTEGER
@ATTRIBUTE speed_1 numeric
@ATTRIBUTE direction_1 numeric
@ATTRIBUTE acceleration_1 numeric
@ATTRIBUTE speed_2 numeric
@ATTRIBUTE direction_2 numeric
@ATTRIBUTE acceleration_2 numeric
@ATTRIBUTE speed_4 numeric
@ATTRIBUTE direction_4 numeric
@ATTRIBUTE acceleration_4 numeric
@ATTRIBUTE speed_8 numeric
@ATTRIBUTE direction_8 numeric
@ATTRIBUTE acceleration_8 numeric
@ATTRIBUTE speed_16 numeric
@ATTRIBUTE direction_16 numeric
@ATTRIBUTE acceleration_16 numeric

%The number after speed, direction denotes the step size that was used for the calculation.
%Acceleration was calculated between two adjacent samples of the already low pass filtered velocity

@DATA
0,157.61,678.33,1.00,1,1,1,0.00,0.00,0.00,795.28,1.97,0.00,601.18,1.38,0.00,436.55,0.65,0.00,83.40,-0.22,0.00
14100,153.24,688.65,1.00,1,1,1,795.28,1.97,56402.78,601.18,1.38,31571.50,772.32,0.42,46298.83,404.15,0.33,9750.71,74.13,-0.79,3179.06
28000,160.75,694.86,1.00,1,1,1,701.00,0.69,64512.33,772.32,0.42,46965.00,436.55,0.65,25963.00,327.40,-0.46,20801.99,156.99,-2.57,13467.65
42400,173.18,697.61,1.00,1,1,1,883.98,0.22,28635.38,531.04,0.02,24463.83,404.15,0.33,9547.57,196.74,-1.35,17715.30,88.31,-0.60,14456.07
63900,179.81,695.22,1.00,1,1,1,327.83,-0.35,29372.44,128.95,-0.11,18770.01,327.40,-0.46,13448.73,83.40,-0.22,8263.34,491.96,-0.30,18986.62
78300,177.78,697.08,1.00,1,1,1,191.60,2.40,35410.60,337.22,-1.58,24196.22,196.74,-1.35,17715.30,74.13,-0.79,3112.83,982.91,-0.14,35023.63
92500,179.72,685.57,1.00,1,1,1,822.02,-1.40,69039.40,320.20,-1.63,1587.06,282.04,-2.07,13146.85,156.99,-2.57,13183.13,1359.08,-0.06,27217.44
128100,176.91,681.16,1.00,1,1,1,146.91,-2.14,20215.88,287.51,-2.39,6403.99,251.39,-2.35,2237.10,88.31,-0.60,5847.40,1653.55,-0.08,8324.30
142600,169.21,675.71,1.00,1,1,1,650.00,-2.53,35650.39,359.55,-3.09,16103.52,428.81,-3.04,19652.09,491.96,-0.30,28152.57,759.48,-0.11,61690.96
171100,161.46,680.41,1.00,2,2,2,318.07,2.60,21024.50,690.99,2.95,12372.41,148.64,0.78,19379.91,982.91,-0.14,17696.15,808.02,-0.13,1837.85
185800,139.92,681.45,1.00,2,2,2,1467.14,3.09,81437.34,706.17,0.36,91384.75,1071.18,-0.04,66432.57,1359.08,-0.06,26291.67,772.17,-0.17,3351.34
207100,185.22,689.45,1.00,3,3,3,2159.80,0.17,169260.56,3178.80,-0.08,120168.40,2616.12,-0.03,72544.61,1653.55,-0.08,13912.91,693.08,-0.17,3717.83
221800,253.98,672.11,1.00,1,1,1,4823.43,-0.25,203181.07,5063.47,-0.09,128234.51,3910.71,-0.03,88086.17,1423.12,-0.10,15796.62,711.74,-0.15,1619.76
236100,331.46,676.08,1.00,1,1,1,5425.25,0.05,114330.24,4821.25,0.01,37368.02,3741.56,-0.12,26347.43,1707.51,-0.10,19887.61,924.15,-0.14,14860.77
251000,394.75,672.85,1.00,1,1,1,4253.79,-0.05,85238.93,2470.56,-0.18,163630.31,1847.74,-0.14,127141.79,1852.22,-0.10,9728.40,1272.08,-0.09,23579.37
266100,404.34,662.63,1.00,1,1,1,927.97,-0.82,241225.81,716.42,-2.41,196082.88,840.67,-0.33,68516.87,1513.60,-0.14,22704.29,1754.60,-0.08,31998.03
288000,375.10,655.06,1.00,1,1,1,1379.13,-2.89,91217.41,584.26,-2.92,16301.48,343.97,-2.31,46850.82,990.92,-0.05,24300.45,1963.15,-0.07,9558.60
302000,383.86,658.11,1.00,1,1,1,662.33,0.33,145712.66,171.83,0.25,54000.42,539.16,3.10,29620.22,852.42,-0.15,11543.21,2146.86,-0.08,13297.78
316000,379.76,656.27,1.00,1,1,1,321.07,-2.72,70183.19,541.18,2.74,48968.73,193.58,0.95,47475.97,1167.45,-0.15,22501.98,2112.79,-0.09,2671.28
330200,369.81,664.07,1.00,2,2,2,890.63,2.48,55936.35,258.15,1.30,40032.32,894.15,0.04,55751.40,1863.91,-0.08,49597.72,1988.97,-0.11,8998.52
351400,382.21,665.07,1.00,2,2,2,586.53,0.08,65099.95,2014.91,-0.06,93209.05,2572.53,-0.03,79316.31,2580.80,-0.05,33927.97,1638.46,-0.07,16857.73
365300,440.42,660.12,1.00,3,3,3,4203.51,-0.08,260881.86,5733.92,-0.09,267662.70,4289.42,-0.07,123862.60,2596.93,-0.07,4475.97,1349.55,-0.07,20785.11
379600,543.29,651.00,1.00,1,1,1,7221.53,-0.09,211054.34,7100.89,-0.08,95719.84,5036.71,-0.08,52351.69,2378.40,-0.08,15333.31,1159.76,-0.06,13305.14
393700,641.51,644.79,1.00,1,1,1,6979.68,-0.06,21346.68,4487.71,-0.07,185334.51,4271.48,-0.09,54440.95,2448.34,-0.09,5160.40,1039.70,-0.01,9366.21
415400,703.51,639.15,1.00,1,1,1,2869.16,-0.09,189510.05,2054.88,-0.14,112504.51,2192.38,-0.13,95972.85,2227.89,-0.07,10290.88,1091.24,0.02,2786.96
429900,715.16,634.34,1.00,1,1,1,868.85,-0.39,141764.60,758.39,-2.82,189942.38,631.71,-0.20,107758.19,1802.44,-0.03,29833.23,1030.31,0.02,4202.43
443900,683.01,632.30,1.00,1,1,1,2300.53,-3.08,221748.89,1213.26,3.07,42236.18,73.81,2.57,50070.60,1160.98,0.03,46217.40,1181.44,0.01,10827.16
457900,681.28,636.85,1.00,1,1,1,347.70,1.94,158736.05,371.47,0.57,109077.24,312.52,2.36,17210.25,414.64,0.24,54341.95,1405.73,-0.03,16582.88
493800,698.64,642.27,1.00,1,1,1,506.66,0.30,17603.46,441.82,0.73,2668.68,442.63,0.72,15541.01,190.50,2.24,14597.14,1789.94,-0.04,10709.55
508200,697.85,651.65,1.00,1,1,1,653.30,1.65,50999.23,582.30,0.89,11307.50,357.00,0.74,5968.12,313.82,2.47,9392.47,1855.91,-0.05,4669.51
522500,709.14,655.27,1.00,1,1,1,828.85,0.31,65208.73,271.05,0.76,22078.49,312.37,2.17,30726.30,280.56,0.69,32354.41,1626.63,-0.06,16048.40
557800,707.62,660.89,1.00,1,1,1,164.82,1.84,23726.17,510.41,2.85,19467.47,319.22,2.58,3709.22,606.99,0.13,11258.94,1250.21,-0.07,10674.35
572000,684.93,662.49,1.00,2,2,2,1602.03,3.07,109555.25,1093.65,3.01,41951.71,120.57,0.57,27207.75,1356.25,0.00,53402.45,950.50,-0.18,22809.50
586300,676.70,664.84,1.00,2,2,2,598.26,2.86,71623.06,1091.01,-0.06,152696.53,1137.56,-0.15,73425.85,1909.84,-0.07,39519.49,1005.05,0.17,23832.80
601600,717.15,660.44,1.00,2,2,2,2659.66,-0.11,212473.17,2903.81,-0.14,118833.64,3218.57,-0.09,136185.35,2097.31,-0.10,13052.61,1733.09,0.57,58691.68
622300,780.19,650.06,1.00,3,3,3,3086.08,-0.16,21950.69,5008.14,-0.10,101965.83,4546.42,-0.11,64192.64,2340.65,-0.14,12333.07,2571.76,0.80,47217.27
636800,892.58,643.03,1.00,1,1,1,7766.31,-0.06,324558.57,6589.01,-0.09,109125.09,4570.06,-0.12,4962.42,2278.51,-0.25,18224.45,3716.43,0.93,83246.82
651300,970.54,633.43,1.00,1,1,1,5417.46,-0.12,164198.52,4040.36,-0.16,177436.15,3538.28,-0.13,71218.40,2490.13,0.05,51097.79,3816.16,0.98,13941.16
665700,1007.94,624.96,1.00,1,1,1,2662.66,-0.22,193119.86,1098.82,-0.35,206278.88,1460.99,-0.59,161215.98,3518.56,0.55,124638.81,2832.85,1.02,69218.25
687100,1007.47,619.88,1.00,4,4,4,238.71,-1.66,123460.79,1414.79,-2.39,100254.82,864.59,1.05,81596.68,5263.69,0.90,106444.69,1721.08,1.10,52597.69
701500,971.02,590.29,1.00,4,4,4,3260.32,-2.46,215158.29,2180.59,1.72,222753.74,4487.88,1.24,253032.24,7039.34,1.10,150409.85,588.73,1.48,82919.13
715700,998.49,681.59,1.00,4,4,4,6714.50,1.28,675216.68,11700.31,1.17,697255.25,9245.51,1.23,335064.67,7240.92,1.23,67960.09,484.89,3.02,52918.75
730100,1101.61,898.38,1.00,4,4,4,16671.45,1.13,700377.04,15126.73,1.18,238094.63,14397.62,1.20,358626.25,5418.67,1.43,151863.36,833.69,3.07,24308.02
751400,1204.69,1180.70,1.00,4,4,4,14110.05,1.22,137957.04,16578.30,1.22,74735.83,13703.60,1.24,42900.35,3496.97,1.80,117621.53,1161.53,3.05,15434.86
765600,1303.71,1451.13,1.00,4,4,4,20280.67,1.22,434552.21,11996.49,1.35,347206.71,6489.28,1.55,547918.98,2748.25,2.46,150664.08,1463.55,3.05,21269.53
779400,1278.43,1508.40,1.00,4,4,4,4536.93,1.99,1253727.89,8467.89,-2.52,1387772.32,5048.40,-2.75,701630.89,3463.71,-3.14,160018.03,1723.08,3.04,18822.91
793900,1108.34,1312.34,1.00,4,4,4,17900.46,-2.29,1396929.42,16291.18,-2.26,580356.18,13694.38,-2.33,641740.48,4532.57,-2.79,119059.55,1833.00,3.05,7759.97
815300,906.86,1056.75,1.00,4,4,4,15208.24,-2.24,130921.81,17984.79,-2.26,79140.43,16926.45,-2.29,153731.53,6248.40,-2.55,100860.25,1850.81,3.06,977.00
829800,698.22,813.68,1.00,4,4,4,22092.30,-2.28,477687.92,17727.92,-2.33,83239.48,11145.54,-2.34,401626.07,7166.57,-2.39,94561.07,1797.61,2.99,9648.77
844500,552.37,679.53,1.00,4,4,4,13480.70,-2.40,601911.12,5695.97,-2.56,833617.97,7347.81,-2.44,264722.73,7250.24,-2.34,26878.00,1810.98,-3.13,20177.00
873400,491.13,676.60,1.00,1,1,1,2121.18,-3.09,412818.43,1741.19,3.13,151045.19,2764.19,-2.61,160984.29,5443.16,-2.35,62603.66,2192.98,-2.80,26243.32
894200,465.83,680.46,1.00,1,1,1,1230.43,2.99,45526.12,344.47,2.74,68706.06,781.59,3.08,103906.91,3664.74,-2.40,86044.32,3075.50,-2.55,52824.53
923200,475.36,683.34,1.00,1,1,1,343.12,0.29,53352.28,329.89,0.27,21958.24,234.33,-2.97,19182.39,1747.44,-2.59,68268.05,4067.40,-2.42,37496.84
937700,479.68,684.25,1.00,1,1,1,304.20,0.21,3295.48,300.33,-1.96,39009.81,260.24,-0.90,29359.96,464.80,-3.10,93764.26,4389.03,-2.41,22482.14
959700,471.20,673.20,1.00,1,1,1,633.08,-2.23,40290.99,555.29,-1.62,13187.06,297.49,-2.36,16943.12,47.11,1.22,22038.58,3821.99,-2.50,30418.05
973800,478.70,664.23,1.00,1,1,1,829.38,-0.87,65748.07,356.70,-2.79,37628.35,119.72,-1.67,15552.81,61.85,0.83,1795.89,3664.74,-2.40,28143.66
988300,461.62,669.69,1.00,1,1,1,1236.86,2.83,137079.51,426.71,1.55,44670.71,380.63,0.42,31169.82,389.78,-3.12,29981.18,1747.44,-2.59,136536.11
1002600,478.94,676.51,1.00,2,2,2,1301.97,0.38,167241.98,967.52,0.40,61784.16,367.65,1.86,34508.68,1091.94,-3.01,49335.39,464.80,-3.10,95075.65
1024200,493.59,683.26,1.00,2,2,2,746.74,0.43,25835.51,352.66,2.16,50493.87,602.14,2.81,22725.22,2059.48,-3.00,44800.16,47.11,1.22,22446.70
1038700,471.84,687.08,1.00,3,3,3,1522.93,2.97,150260.26,2410.63,-3.13,154365.75,2173.91,-3.07,112868.22,367.65,1.86,140457.80,61.85,0.83,1746.35
1052700,424.90,682.15,1.00,1,1,1,3371.52,-3.04,139462.55,4768.12,-2.98,171810.05,4500.90,-2.98,167412.44,602.14,2.81,35061.77,389.78,-3.12,31051.94
1066700,339.98,666.18,1.00,1,1,1,6171.91,-2.96,201769.98,6201.73,-2.93,104398.79,4768.12,-2.98,19211.10,2173.91,-3.07,116899.23,1091.94,-3.01,50392.57
1088300,208.94,636.22,1.00,1,1,1,6222.90,-2.92,11391.49,6222.90,-2.92,4479.80,6201.73,-2.93,67665.88,4500.90,-2.98,108508.06,2059.48,-3.00,44800.16
