@RELATION gaze_labels

%@METADATA width_px 1920
%@METADATA height_px 1080
%@METADATA width_mm 540.00
%@METADATA height_mm 254.00
%@METADATA distance_mm 620.00


@ATTRIBUTE time INTEGER
@ATTRIBUTE x NUMERIC
@ATTRIBUTE y NUMERIC
@ATTRIBUTE confidence NUMERIC
@ATTRIBUTE handlabeller1 INTEGER
@ATTRIBUTE handlabeller2 INTEGER
@ATTRIBUTE handlabeller_final INTEGER
@ATTRIBUTE speed_1 numeric
@ATTRIBUTE direction_1 numeric
@ATTRIBUTE acceleration_1 numeric
@ATTRIBUTE speed_2 numeric
@ATTRIBUTE direction_2 numeric
@ATTRIBUTE acceleration_2 numeric
@ATTRIBUTE speed_4 numeric
@ATTRIBUTE direction_4 numeric
@ATTRIBUTE acceleration_4 numeric
@ATTRIBUTE speed_8 numeric
@ATTRIBUTE direction_8 numeric
@ATTRIBUTE acceleration_8 numeric
@ATTRIBUTE speed_16 numeric
@ATTRIBUTE direction_16 numeric
@ATTRIBUTE acceleration_16 numeric

%The number after speed, direction denotes the step size that was used for the calculation.
%Acceleration was calculated between two adjacent samples of the already low pass filtered velocity

@DATA
0,204.86,582.17,1.00,1,1,1,0.00,0.00,0.00,6036.70,2.74,0.00,3367.24,2.49,0.00,1626.88,1.51,0.00,749.26,1.61,0.00
14100,126.48,615.37,1.00,1,1,1,6036.70,2.74,428134.86,3367.24,2.49,206043.67,2178.76,0.82,296112.89,1887.47,0.55,115739.74,644.00,0.93,33589.59
29300,126.66,642.32,1.00,1,1,1,1773.09,1.56,368433.27,2178.76,0.82,274683.67,1626.88,1.51,90703.54,1712.67,0.40,21130.01,714.20,0.56,16916.00
43900,170.63,662.98,1.00,1,1,1,3327.55,0.44,206950.96,3112.90,0.39,99358.20,1887.47,0.55,111776.05,736.03,0.52,67517.96,894.12,0.29,19320.55
58600,210.89,677.31,1.00,1,1,1,2907.04,0.34,35241.39,1778.96,0.28,92604.47,1712.67,0.40,21848.71,749.26,1.61,52279.03,1136.86,0.14,19595.09
80000,232.38,680.63,1.00,1,1,1,1016.06,0.15,89652.90,563.98,0.44,57281.74,736.03,0.52,46063.65,644.00,0.93,22131.46,1609.99,0.14,22110.57
94300,229.09,685.91,1.00,1,1,1,434.72,2.13,87564.71,768.59,2.87,87398.34,194.44,2.22,54913.43,714.20,0.56,17980.64,1837.21,0.11,16463.31
108100,211.60,686.52,1.00,1,1,1,1268.54,3.11,78825.64,568.72,2.98,15422.32,641.26,2.95,37109.04,894.12,0.29,20440.59,1698.83,0.10,10095.35
144900,200.71,690.66,1.00,1,1,1,316.46,2.78,26474.30,574.07,3.01,493.22,195.67,1.95,15198.31,1136.86,0.14,7827.39,994.13,0.48,23453.91
159500,182.36,690.51,1.00,2,2,2,1256.85,-3.13,66351.86,578.23,0.52,74778.25,1021.44,0.18,73816.22,1609.99,0.14,32408.64,1194.86,0.28,20642.42
187800,222.29,702.89,1.00,3,3,3,1477.21,0.30,95584.81,2911.41,0.11,84524.77,2488.29,0.06,52244.01,1837.21,0.11,8318.92,1194.86,0.18,4105.90
202300,306.27,703.73,1.00,3,3,3,5791.67,0.01,303229.79,4830.01,0.00,135062.59,3856.49,0.09,94484.60,1698.83,0.10,9607.99,1069.76,0.16,8767.46
224000,397.14,703.15,1.00,1,1,1,4187.70,-0.01,74009.34,4987.53,0.07,17607.86,4589.80,0.05,34662.49,1810.92,0.09,5170.45,855.38,0.12,10008.88
238100,484.35,716.66,1.00,1,1,1,6259.09,0.15,157951.45,4296.84,0.11,50647.34,2705.47,0.05,133645.33,1934.28,0.07,9416.69,791.64,0.11,4564.87
252200,517.55,716.66,1.00,1,1,1,2354.78,-0.00,280040.79,242.52,-2.49,319639.85,975.84,0.19,123727.47,1881.25,0.00,9670.86,950.94,0.08,11442.61
266200,478.92,712.54,1.00,1,1,1,2775.09,-3.04,365906.19,1673.60,-3.11,105927.52,434.52,-2.87,100672.78,1304.58,0.05,41490.36,1305.91,0.03,25663.79
287700,458.17,714.97,1.00,1,1,1,972.00,3.02,85565.95,602.31,-2.99,50170.26,856.07,-2.90,19621.60,491.79,0.08,37820.75,1808.62,0.01,23429.16
302100,457.55,709.23,1.00,1,1,1,401.17,-1.68,73293.96,455.54,-1.09,60017.41,86.23,-2.96,53471.99,221.07,-2.75,48994.43,2047.80,0.00,16658.62
316400,464.22,703.39,1.00,1,1,1,619.91,-0.72,35578.87,563.97,0.14,41655.76,112.41,-1.34,10114.84,147.82,-2.68,5202.40,2036.53,-0.06,8993.44
330600,473.46,711.52,1.00,1,1,1,866.88,0.72,70306.60,179.53,2.34,48219.49,51.70,-1.44,4305.10,840.65,-0.13,68110.33,1648.21,-0.07,27403.84
351800,459.81,707.96,1.00,2,2,2,665.79,-2.89,70372.05,454.16,-2.79,19558.56,569.64,0.13,26973.54,1821.54,-0.08,46339.14,1282.75,-0.06,17251.62
366800,458.01,705.91,1.00,2,2,2,181.41,-2.29,35022.08,1409.06,0.01,122891.35,1756.41,-0.11,80796.77,2182.20,-0.06,24219.53,852.52,-0.10,28807.00
380700,500.53,708.24,1.00,3,3,3,3063.51,0.05,229732.88,4492.08,-0.06,222098.78,3784.57,-0.05,146331.81,2197.06,-0.11,8182.97,749.36,-0.06,7811.53
395500,586.72,698.61,1.00,3,3,3,5860.29,-0.11,194831.54,6114.87,-0.07,109711.93,4357.87,-0.05,38743.04,2003.41,-0.15,14168.75,913.92,-0.04,11187.45
410200,680.51,696.12,1.00,1,1,1,6382.14,-0.03,49979.74,4250.69,-0.05,127022.45,3811.63,-0.15,46190.19,2113.62,-0.10,10584.51,978.91,-0.07,4933.62
431400,739.16,691.55,1.00,1,1,1,2774.98,-0.08,170451.64,1989.99,-0.36,114888.44,2252.80,-0.18,73671.35,1789.86,-0.05,15886.23,987.33,-0.04,1642.56
446300,747.76,670.86,1.00,1,1,1,1503.59,-1.18,166691.67,737.52,-1.99,145111.33,617.47,-0.36,110602.61,1531.76,-0.02,17708.40,939.96,-0.04,3186.92
460400,730.49,672.00,1.00,1,1,1,1227.71,3.08,164899.60,1145.81,2.78,94220.72,294.24,3.10,63984.01,985.19,0.03,38990.07,893.45,-0.06,3596.44
474400,717.66,682.30,1.00,1,1,1,1174.92,2.46,51744.81,500.97,2.19,55722.64,536.92,2.24,29342.48,352.24,-0.03,45276.30,948.62,-0.04,4341.90
511000,715.76,692.63,1.00,1,1,1,287.09,1.75,26662.71,438.66,1.39,10133.41,392.41,1.64,8307.45,44.25,1.30,9411.34,990.65,-0.03,1179.40
525100,721.67,704.17,1.00,1,1,1,919.63,1.10,50620.82,571.38,0.69,26217.31,240.17,0.53,25417.29,159.94,2.14,9536.39,851.96,0.01,10180.36
539200,728.23,702.84,1.00,1,1,1,474.66,-0.20,64851.85,389.93,-0.52,40164.65,329.96,0.22,8858.78,145.36,1.57,6199.76,514.66,0.10,24274.81
574800,738.46,694.49,1.00,1,1,1,370.84,-0.68,6347.80,270.05,-0.34,3749.40,220.88,-0.77,7845.33,133.07,0.79,2972.80,173.61,-0.06,9670.25
589400,741.00,698.29,1.00,1,1,1,313.03,0.98,34750.99,171.65,-2.63,27667.86,101.98,-1.29,9675.15,190.87,0.22,7379.93,127.35,-2.76,20145.93
603800,734.13,692.05,1.00,1,1,1,645.08,-2.40,66100.83,372.24,-2.84,14421.08,98.22,2.56,13055.60,175.58,0.30,1545.63,173.61,3.09,5466.66
618900,730.52,695.04,1.00,1,1,1,310.54,2.45,44718.18,167.19,1.74,28328.98,22.15,0.13,7674.45,84.88,1.09,8651.98,130.22,-2.98,3595.13
640100,733.11,698.03,1.00,1,1,1,186.85,0.86,17266.82,353.09,0.28,17606.11,352.68,1.04,16015.54,55.32,-2.98,5946.30,103.25,3.12,1613.56
654000,742.42,698.48,1.00,1,1,1,670.64,0.05,40157.99,654.64,0.83,28610.50,296.14,1.40,9191.10,319.15,-2.63,19265.18,70.25,-3.13,2381.61
668500,745.70,711.72,1.00,1,1,1,940.47,1.33,68030.37,606.32,2.09,51266.36,78.58,-1.92,25781.91,314.68,-2.67,897.12,47.30,-1.22,6679.03
682800,733.82,713.67,1.00,1,1,1,841.94,2.98,91678.32,657.99,-2.23,73612.28,661.00,-2.64,42269.90,366.54,-2.47,5841.57,45.46,-0.40,2588.43
703900,731.42,693.31,1.00,1,1,1,971.60,-1.69,62300.69,1289.68,-2.25,29947.67,956.39,-2.46,15482.50,376.02,-2.82,6118.16,124.93,0.25,4407.78
718200,705.20,678.10,1.00,1,1,1,2119.77,-2.62,120467.40,1365.59,-2.61,33395.07,971.50,-2.27,13141.33,359.23,-3.01,4958.57,91.58,-0.05,3245.41
732200,698.20,673.57,1.00,1,1,1,595.80,-2.57,108923.57,581.86,-2.33,58635.81,702.73,-2.91,41745.32,215.43,-2.36,16388.50,82.34,0.32,2376.72
747000,693.66,665.95,1.00,1,1,1,599.19,-2.11,18390.28,395.60,2.43,46367.46,259.34,2.11,45432.09,129.95,-1.22,13496.73,13.74,0.19,4643.85
768400,687.31,682.87,1.00,1,1,1,844.67,1.93,61014.78,752.48,1.46,29182.88,514.26,0.59,26367.73,306.00,0.24,14859.08,53.14,3.12,3113.03
782400,696.70,692.41,1.00,1,1,1,955.93,0.79,69520.31,1379.15,0.23,94802.45,871.58,0.61,25547.19,485.78,0.31,13000.11,88.00,2.68,3259.76
797300,726.09,692.08,1.00,1,1,1,1972.79,-0.01,99337.22,1497.84,0.13,12755.25,1324.20,0.23,40556.17,477.75,0.42,3645.51,46.61,2.76,2800.43
811300,739.62,698.01,1.00,1,1,1,1055.35,0.41,78618.00,1278.83,0.24,18800.88,1062.07,0.07,23370.96,351.26,0.63,10965.35,4.75,-2.78,3087.78
832300,769.62,702.52,1.00,1,1,1,1444.31,0.15,24148.86,709.53,-0.04,29772.75,455.64,0.23,29370.19,244.47,0.46,5639.37,57.27,1.39,2851.05
846400,764.51,697.10,1.00,1,1,1,528.13,-2.33,133898.21,558.89,-2.90,89088.33,74.73,-2.75,37555.10,183.92,0.64,5062.99,82.09,1.18,2040.45
860700,754.21,698.69,1.00,1,1,1,728.63,2.99,42754.43,693.25,-3.10,12783.27,644.31,-3.06,40115.11,163.20,1.28,7827.21,38.99,0.93,3164.59
890200,734.17,695.76,1.00,1,1,1,686.48,-3.00,7274.35,697.93,-3.13,860.25,497.61,2.87,8398.96,102.33,2.01,3728.36,84.63,1.02,1556.02
911600,718.69,698.40,1.00,1,1,1,734.05,2.97,10607.13,403.51,2.37,23328.18,295.00,2.43,12223.07,228.85,2.95,8771.02,75.01,0.48,2013.60
939500,719.91,709.62,1.00,1,1,1,404.70,1.46,29264.16,551.00,0.89,23355.32,206.55,1.67,7341.89,320.42,3.09,3551.62,47.31,0.90,1327.35
954000,733.32,716.61,1.00,1,1,1,1043.10,0.48,61036.35,370.19,0.27,22713.20,246.27,0.61,15875.59,329.62,-2.83,8245.91,115.85,2.39,8393.37
974900,732.52,713.18,1.00,1,1,1,168.69,-1.80,55504.80,206.54,-1.43,21397.23,177.86,-2.10,19832.16,193.24,-2.83,6526.38,174.80,2.70,3506.46
989300,734.35,709.39,1.00,1,1,1,291.90,-1.12,13365.35,789.42,-2.51,49702.64,690.73,-2.27,35855.74,94.69,-2.72,6924.47,204.34,3.10,5570.47
1003700,714.18,699.75,1.00,1,1,1,1552.85,-2.70,109809.19,1376.01,-2.40,41458.11,568.46,-2.35,9240.46,124.34,-2.72,2059.66,233.97,3.04,2234.44
1018300,704.84,682.53,1.00,1,1,1,1341.41,-2.07,62754.53,411.58,-2.10,67810.53,497.51,-2.61,10578.44,243.65,-3.08,9200.63,370.11,3.13,9486.77
1039600,706.66,687.03,1.00,1,1,1,227.72,1.19,73609.47,287.26,1.43,32198.85,146.28,2.79,19724.50,313.67,2.98,4386.11,568.04,3.14,9295.57
1054700,706.31,692.88,1.00,1,1,1,388.37,1.63,13703.69,538.40,1.67,17723.04,492.66,1.67,29754.57,182.53,-2.96,10246.28,770.39,3.13,13404.63
1069500,705.14,703.05,1.00,1,1,1,691.86,1.69,20601.24,764.28,1.78,16013.27,586.95,1.94,11729.70,131.70,2.90,5597.07,950.17,-3.13,12214.46
1083800,701.76,714.65,1.00,1,1,1,844.74,1.85,13978.90,673.38,2.16,20138.44,200.60,1.21,31999.90,458.50,2.84,22872.68,951.21,-3.12,639.11
1098800,694.17,719.45,1.00,1,1,1,598.71,2.58,37329.22,369.76,-0.81,69299.05,118.88,3.03,17184.06,1032.02,3.07,39613.71,903.92,3.08,6297.41
1119700,710.94,705.07,1.00,2,2,2,1057.32,-0.71,79044.90,447.15,-1.36,11297.39,857.07,-2.88,35757.61,1556.94,3.10,25193.95,798.36,3.07,5060.86
1134400,697.47,703.88,1.00,2,2,2,920.41,-3.05,124055.30,2140.79,-3.06,152647.67,1809.26,-2.94,64980.63,1822.36,3.13,18248.81,718.81,3.03,5686.83
1149500,647.34,700.19,1.00,3,3,3,3328.92,-3.07,159512.51,4034.29,-3.08,125419.17,3331.13,-3.12,104725.74,1651.43,-3.13,11895.22,666.89,2.94,5581.81
1163900,578.70,696.20,1.00,1,1,1,4774.19,-3.08,100457.76,4525.91,3.14,39387.78,3671.69,3.13,25214.41,1466.40,3.09,14536.25,673.57,2.96,1270.80
1179300,512.46,700.40,1.00,1,1,1,4309.93,3.08,46777.31,3344.04,3.04,80909.04,2482.29,3.07,77983.79,1358.20,3.04,8807.97,641.87,2.92,2793.64
1194200,477.92,706.62,1.00,1,1,1,2355.88,2.96,133415.41,823.17,2.77,171853.17,1257.61,2.74,91228.80,1248.09,3.05,7436.24,593.53,2.88,3668.87
1215000,485.12,711.16,1.00,1,1,1,409.17,0.56,128470.35,952.46,0.71,73146.00,297.39,1.47,57878.35,858.84,2.98,18976.43,605.24,2.99,3280.52
1229200,503.16,728.40,1.00,1,1,1,1757.21,0.76,95679.07,669.90,0.45,24706.38,486.95,0.36,31269.23,405.75,2.75,33366.13,764.26,3.08,11973.55
1264700,515.09,725.66,1.00,1,1,1,344.68,-0.23,44891.75,308.55,-0.49,15398.41,513.86,0.21,2142.16,218.18,1.20,12841.93,1018.09,3.09,7153.32
1279700,516.94,721.13,1.00,1,1,1,326.67,-1.18,20637.00,387.55,-0.55,5450.78,193.81,-0.44,25208.99,453.85,0.59,20210.33,1227.44,3.11,14027.71
1294000,524.79,719.77,1.00,1,1,1,556.97,-0.17,33058.81,60.09,-0.13,23323.40,166.72,0.67,13356.23,337.93,0.60,8111.89,1120.59,3.09,7634.64
1322000,519.46,720.80,1.00,1,1,1,193.81,2.95,26812.62,283.85,1.53,10539.82,448.50,0.86,10230.58,184.55,2.97,17416.72,597.17,2.96,19035.86
1343700,525.40,733.86,1.00,1,1,1,660.91,1.14,33668.93,938.55,0.92,33327.60,277.35,1.37,11389.00,680.02,-3.10,23105.84,218.18,1.20,31035.32
1358000,539.84,747.75,1.00,2,2,2,1401.58,0.77,57650.91,282.63,1.10,46293.38,720.47,2.87,52638.94,1210.96,-3.12,37149.04,453.85,0.59,21199.65
1372400,529.09,741.08,1.00,2,2,2,878.55,-2.59,157514.47,2322.88,-2.93,174460.81,1679.49,-3.03,72857.10,1393.54,-3.13,12768.85,337.93,0.60,8055.55
1386800,474.50,733.39,1.00,3,3,3,3828.45,-3.00,211488.92,3149.29,-2.97,57894.98,3076.16,-2.98,97211.46,849.93,3.09,38041.76,184.55,2.97,33865.84
1408400,417.47,721.25,1.00,1,1,1,2699.69,-2.93,53274.52,3690.45,-3.01,26172.19,3185.52,-3.03,8155.31,1679.49,-3.03,39527.26,680.02,-3.10,23212.81
1422400,344.20,716.64,1.00,1,1,1,5244.02,-3.08,185960.27,3249.44,-3.11,38781.31,1010.66,-3.04,155351.90,3076.16,-2.98,99988.93,1210.96,-3.12,37945.09
1436500,326.22,717.94,1.00,1,1,1,1278.33,3.07,282340.56,2326.23,0.15,394811.81,3249.44,-3.11,159021.37,3185.52,-3.03,12493.24,1393.54,-3.13,13040.53
1451000,409.97,726.61,1.00,1,1,1,5807.21,0.10,487551.25,5807.21,0.10,240366.17,2326.23,0.15,383920.45,1010.66,-3.04,149994.94,849.93,3.09,37779.40
