@RELATION gaze_labels

%@METADATA width_px 1920
%@METADATA height_px 1080
%@METADATA width_mm 540.00
%@METADATA height_mm 254.00
%@METADATA distance_mm 620.00


@ATTRIBUTE time INTEGER
@ATTRIBUTE x NUMERIC
@ATTRIBUTE y NUMERIC
@ATTRIBUTE confidence NUMERIC
@ATTRIBUTE handlabeller1 INTEGER
@ATTRIBUTE handlabeller2 INTEGER
@ATTRIBUTE handlabeller_final INTEGER
@ATTRIBUTE speed_1 numeric
@ATTRIBUTE direction_1 numeric
@ATTRIBUTE acceleration_1 numeric
@ATTRIBUTE speed_2 numeric
@ATTRIBUTE direction_2 numeric
@ATTRIBUTE acceleration_2 numeric
@ATTRIBUTE speed_4 numeric
@ATTRIBUTE direction_4 numeric
@ATTRIBUTE acceleration_4 numeric
@ATTRIBUTE speed_8 numeric
@ATTRIBUTE direction_8 numeric
@ATTRIBUTE acceleration_8 numeric
@ATTRIBUTE speed_16 numeric
@ATTRIBUTE direction_16 numeric
@ATTRIBUTE acceleration_16 numeric

%The number after speed, direction denotes the step size that was used for the calculation.
%Acceleration was calculated between two adjacent samples of the already low pass filtered velocity

@DATA
0,383.24,699.51,1.00,1,1,1,0.00,0.00,0.00,759.99,-0.63,0.00,763.87,-0.79,0.00,418.35,-2.04,0.00,810.53,-3.13,0.00
14400,392.11,693.10,1.00,1,1,1,759.99,-0.63,52776.94,763.87,-0.79,8419.70,697.95,-1.32,26911.68,837.41,-2.60,36757.17,843.20,3.12,2788.78
29300,399.06,683.68,1.00,1,1,1,785.58,-0.93,16001.27,697.95,-1.32,26008.60,418.35,-2.04,31915.28,1291.09,-2.93,38199.86,947.71,3.10,7161.25
43200,397.19,673.65,1.00,1,1,1,734.11,-1.75,43728.51,676.19,-2.72,64034.21,837.41,-2.60,38079.37,1433.61,3.14,23687.77,867.40,3.09,5834.58
79300,368.16,669.97,1.00,3,3,3,810.73,-3.02,25277.72,1260.40,-2.90,16821.13,1291.09,-2.93,15766.70,810.53,-3.13,17264.85,783.43,3.04,2532.10
93700,335.34,658.65,1.00,1,1,1,2411.09,-2.81,112915.60,2035.67,-3.01,55061.60,1433.61,3.14,22865.28,843.20,3.12,2788.78,502.07,2.87,20872.20
121900,282.22,658.37,1.00,1,1,1,1883.66,-3.14,30900.69,1672.23,2.95,24636.99,1482.07,2.89,12582.25,947.71,3.10,3783.78,293.84,2.22,11434.64
144100,252.54,674.41,1.00,1,1,1,1519.50,2.65,41178.33,1343.28,2.16,54125.18,1079.32,2.69,21551.49,867.40,3.09,3653.18,213.82,1.36,10114.12
157800,255.35,698.41,1.00,1,1,1,1763.78,1.45,135279.15,785.52,1.28,75822.99,698.54,2.36,34772.47,783.43,3.04,6672.16,226.90,2.99,23489.80
172400,258.91,695.71,1.00,1,1,1,306.12,-0.65,132689.95,337.45,-2.13,76340.54,116.34,1.35,44150.00,502.07,2.87,20586.28,183.55,0.64,25990.34
186500,250.22,690.19,1.00,1,1,1,729.66,-2.58,62705.21,411.84,-1.89,8121.70,264.76,-1.52,26810.22,293.84,2.22,22869.28,557.72,0.22,28189.32
208300,254.21,681.69,1.00,1,1,1,430.72,-1.13,36637.98,296.96,-0.98,15068.39,291.48,-1.21,4087.14,213.82,1.36,10299.70,838.58,0.05,13868.49
222900,256.22,681.20,1.00,1,1,1,141.67,-0.24,24593.29,406.88,-0.33,17119.55,137.62,-0.16,17385.49,492.37,0.17,31351.98,1073.04,-0.07,17802.41
237800,265.58,677.86,1.00,1,1,1,667.35,-0.34,35343.72,280.15,1.21,32544.85,322.48,1.36,23076.84,1368.39,0.16,58793.93,1033.29,-0.08,2792.28
251900,259.11,688.79,1.00,2,2,2,901.06,2.11,104764.08,827.42,1.90,45217.51,1048.50,0.42,63602.83,2353.95,0.09,70495.87,1208.74,-0.06,12547.47
265900,258.07,699.86,1.00,2,2,2,794.22,1.66,27496.91,1736.92,0.33,137349.92,2710.00,0.27,120075.84,3129.75,0.01,57495.56,1311.48,-0.07,7387.76
288100,318.59,709.18,1.00,3,3,3,2758.16,0.15,127239.44,4869.56,0.14,143304.06,4591.72,0.10,89022.74,3250.67,-0.08,13701.24,1302.36,-0.13,3937.27
302500,434.57,724.61,1.00,1,1,1,8125.22,0.13,372774.29,8266.50,0.04,240120.71,5842.88,-0.04,99369.32,2738.90,-0.12,36536.73,1252.80,-0.13,3510.89
316800,555.67,718.08,1.00,1,1,1,8480.82,-0.05,110695.93,7270.37,-0.19,139569.29,5933.07,-0.17,56354.38,2624.41,-0.14,9415.47,1388.38,-0.10,9773.87
331000,638.20,686.28,1.00,1,1,1,6228.46,-0.37,225302.43,4143.40,-0.60,272091.64,3140.95,-0.45,213845.98,2525.20,-0.15,7005.06,1415.60,-0.08,2919.56
345300,652.97,651.15,1.00,1,1,1,2664.41,-1.17,334585.46,1502.95,-1.98,288523.64,1351.34,-1.10,155347.62,2202.00,-0.20,24608.34,1273.72,-0.06,10025.83
366900,616.78,636.76,1.00,1,1,1,1802.98,-2.76,150265.07,1630.71,-2.96,68386.11,1033.58,-2.61,76304.11,1250.38,-0.41,46862.80,1163.22,-0.06,5121.75
381300,595.25,640.42,1.00,1,1,1,1516.57,2.97,65146.35,1376.52,2.73,63817.17,1138.01,3.09,44105.87,680.48,-0.74,44816.92,1159.25,-0.12,4682.71
395200,581.12,652.45,1.00,1,1,1,1334.76,2.44,55838.41,744.67,2.38,51975.67,315.05,2.43,65507.92,246.29,-1.86,44155.31,1125.84,-0.18,5702.13
409400,580.11,654.87,1.00,1,1,1,184.82,1.96,82613.61,339.22,0.03,71294.27,436.59,0.36,45664.57,203.31,2.92,21765.69,885.38,-0.21,17077.94
445300,598.11,652.93,1.00,1,1,1,504.17,-0.11,17123.70,942.68,-0.05,16855.61,603.06,0.01,6877.04,187.84,2.30,3348.90,355.40,-0.67,16362.88
459300,627.09,652.49,1.00,1,1,1,2070.50,-0.02,112082.17,1075.41,-0.01,9959.54,404.93,0.09,14477.86,74.87,2.12,8212.96,343.45,-2.59,41003.51
473300,628.22,652.68,1.00,1,1,1,81.69,0.17,142163.92,179.99,2.40,86802.43,75.08,1.72,29708.74,70.62,-1.35,10257.50,699.27,-3.11,31108.63
509400,620.44,658.57,1.00,1,1,1,270.34,2.49,9183.53,629.86,2.95,13444.10,479.92,-3.09,13260.74,85.87,3.03,3540.86,807.34,3.04,4059.78
523400,597.25,658.73,1.00,1,1,1,1656.34,3.13,103476.75,1110.99,-2.89,43350.60,531.78,-2.89,8145.65,591.39,3.03,36108.11,715.03,2.93,8860.51
538500,589.14,650.48,1.00,2,2,2,766.43,-2.35,82816.45,610.63,-2.23,48538.33,843.50,-3.10,22729.38,1091.58,3.05,33134.22,648.05,2.84,5955.31
559800,583.70,641.11,1.00,3,3,3,508.42,-2.10,14158.68,672.82,2.89,33305.18,1288.62,3.10,21250.42,1308.31,3.00,10506.70,616.85,2.88,1889.55
573900,566.07,656.42,1.00,1,1,1,1656.04,2.43,129187.78,2587.49,2.85,135843.81,1864.16,3.00,42307.79,1579.18,3.06,20117.39,604.48,2.92,1760.24
587800,514.33,661.99,1.00,1,1,1,3744.38,3.03,184607.10,3377.02,3.03,68456.51,2437.74,2.89,44823.37,1403.14,3.03,13153.60,688.45,2.89,6197.73
601900,472.11,667.03,1.00,1,1,1,3014.98,3.02,51806.44,2322.34,2.92,77881.39,2325.59,3.02,23193.63,1373.11,2.89,13925.77,787.42,2.89,7027.63
623300,433.90,680.12,1.00,1,1,1,1887.50,2.81,57680.69,1515.19,2.99,38261.23,1523.29,2.96,37774.07,1495.68,2.83,7015.36,805.53,2.88,938.97
638200,417.72,675.16,1.00,1,1,1,1135.95,-2.84,78866.42,577.34,-3.11,63974.98,930.64,2.66,46411.71,1266.56,2.91,17138.17,593.59,2.78,14959.65
652800,416.88,679.54,1.00,1,1,1,305.03,1.76,82704.85,685.85,1.54,63231.07,504.02,2.50,30164.05,807.21,2.77,32858.07,168.42,2.16,31980.37
667100,418.25,694.98,1.00,1,1,1,1083.98,1.48,55601.23,666.69,1.92,17848.30,336.80,2.08,16852.70,502.25,2.52,24024.35,291.48,0.32,26120.14
681800,410.22,697.69,1.00,1,1,1,576.75,2.82,74965.63,311.89,-3.07,44400.93,314.30,1.59,10835.44,276.06,2.14,18167.55,547.13,0.11,18298.71
702900,407.12,694.20,1.00,1,1,1,221.31,-2.30,25155.65,185.49,0.35,23359.57,154.06,1.50,7649.63,585.25,0.52,31237.48,708.58,-0.02,8554.40
717800,416.50,699.96,1.00,1,1,1,739.03,0.55,63965.12,550.95,0.74,25893.05,191.02,1.11,5083.50,1210.49,0.10,48148.87,760.94,-0.07,4491.33
731900,418.95,704.94,1.00,1,1,1,393.19,1.11,32431.73,309.94,1.67,31354.94,1283.64,0.22,83162.01,1877.24,-0.08,51167.32,835.81,-0.10,5490.53
746200,415.66,708.72,1.00,2,2,2,351.07,2.29,28918.98,2090.25,0.10,147736.99,2425.84,-0.03,85916.63,2158.70,-0.12,20405.09,1028.37,-0.15,13804.32
761400,480.32,710.94,1.00,2,2,2,4256.66,0.03,295138.16,4372.18,-0.09,154569.71,3762.90,-0.13,89907.39,2470.91,-0.12,20569.90,1060.94,-0.10,3806.68
782300,572.88,694.89,1.00,3,3,3,4495.00,-0.17,44498.47,5222.71,-0.20,48150.98,3738.07,-0.16,6137.54,2041.21,-0.17,21348.94,1124.71,-0.10,3052.40
796600,660.48,674.35,1.00,1,1,1,6291.83,-0.23,127535.32,3291.78,-0.23,135286.18,3352.91,-0.20,29119.44,1849.88,-0.21,14225.65,1320.92,-0.11,13773.20
831800,731.57,657.90,1.00,1,1,1,2073.01,-0.23,119853.10,2028.70,-0.21,35906.77,1803.27,-0.30,44511.18,1937.29,-0.23,2717.88,1601.29,-0.09,8017.95
846300,759.06,653.21,1.00,1,1,1,1923.49,-0.17,13079.37,278.62,-1.54,136524.93,648.92,-0.51,81097.78,1521.50,-0.27,29104.13,1954.01,-0.08,24377.23
874600,731.98,645.98,1.00,1,1,1,990.70,-2.88,100852.14,856.32,-2.90,29826.94,267.44,-1.82,22430.59,1090.47,-0.28,15236.07,2134.38,-0.08,6380.21
896600,717.24,642.90,1.00,1,1,1,684.13,-2.94,14084.39,281.86,-2.14,30895.17,495.21,-2.93,20331.78,864.75,-0.16,11486.74,2134.75,-0.07,631.59
910800,726.45,637.40,1.00,1,1,1,755.62,-0.54,94465.69,144.23,0.53,29271.00,95.54,0.35,41547.82,1024.77,-0.02,14776.71,1937.29,-0.23,25766.47
925300,720.82,644.99,1.00,2,2,2,652.32,2.21,95235.19,543.64,0.76,27891.00,1363.19,0.13,87601.81,1442.71,-0.01,28829.05,1521.50,-0.27,29104.13
939500,737.80,648.11,1.00,2,2,2,1216.01,0.18,113650.96,2594.35,0.10,154040.00,2365.50,0.12,70590.50,2267.85,0.02,58197.09,1090.47,-0.28,30364.84
954000,794.87,652.75,1.00,3,3,3,3948.78,0.08,189076.08,3898.76,0.05,90650.24,3803.97,0.03,101049.83,2560.90,0.05,21122.15,864.75,-0.16,17428.15
975800,879.12,655.68,1.00,1,1,1,3867.19,0.03,9129.90,4782.81,-0.01,42328.02,4462.46,0.01,30368.89,2365.50,0.12,11623.94,1024.77,-0.02,9625.20
989800,966.09,651.43,1.00,1,1,1,6219.24,-0.05,170534.06,5200.19,-0.03,31132.41,3626.08,0.03,60012.56,3803.97,0.03,104658.75,1442.71,-0.01,29858.66
1003900,1025.17,650.87,1.00,1,1,1,4190.32,-0.01,144601.86,2213.12,0.13,215385.29,5200.19,-0.03,113278.71,4462.46,0.01,46953.32,2267.85,0.02,58609.84
1018800,1029.74,659.67,1.00,1,1,1,665.46,1.09,264050.03,665.46,1.09,128382.95,2213.12,0.13,203820.98,3626.08,0.03,56387.64,2560.90,0.05,20555.11
