@RELATION gaze_labels

%@METADATA width_px 1920
%@METADATA height_px 1080
%@METADATA width_mm 540.00
%@METADATA height_mm 254.00
%@METADATA distance_mm 620.00


@ATTRIBUTE time INTEGER
@ATTRIBUTE x NUMERIC
@ATTRIBUTE y NUMERIC
@ATTRIBUTE confidence NUMERIC
@ATTRIBUTE handlabeller1 INTEGER
@ATTRIBUTE handlabeller2 INTEGER
@ATTRIBUTE handlabeller_final INTEGER
@ATTRIBUTE speed_1 numeric
@ATTRIBUTE direction_1 numeric
@ATTRIBUTE acceleration_1 numeric
@ATTRIBUTE speed_2 numeric
@ATTRIBUTE direction_2 numeric
@ATTRIBUTE acceleration_2 numeric
@ATTRIBUTE speed_4 numeric
@ATTRIBUTE direction_4 numeric
@ATTRIBUTE acceleration_4 numeric
@ATTRIBUTE speed_8 numeric
@ATTRIBUTE direction_8 numeric
@ATTRIBUTE acceleration_8 numeric
@ATTRIBUTE speed_16 numeric
@ATTRIBUTE direction_16 numeric
@ATTRIBUTE acceleration_16 numeric

%The number after speed, direction denotes the step size that was used for the calculation.
%Acceleration was calculated between two adjacent samples of the already low pass filtered velocity

@DATA
0,339.79,527.08,1.00,1,1,1,0.00,0.00,0.00,1176.10,1.60,0.00,1336.02,1.25,0.00,722.69,0.81,0.00,348.03,1.63,0.00
36500,338.50,569.99,1.00,1,1,1,1176.10,1.60,32221.96,1336.02,1.25,12755.84,1995.95,0.47,38571.90,372.18,-0.22,17013.41,393.96,2.52,8896.39
50900,361.22,591.62,1.00,1,1,1,2178.41,0.76,114286.45,1995.95,0.47,97769.05,722.69,0.81,92845.09,365.36,-0.88,16464.00,875.37,3.03,39157.15
65100,389.42,595.79,1.00,1,1,1,2007.74,0.15,89845.44,627.06,-0.40,116971.50,372.18,-0.22,43731.66,285.93,-2.64,35583.00,1273.98,2.98,28299.71
100300,389.76,579.59,1.00,1,1,1,460.36,-1.55,60095.09,797.18,-2.18,31632.59,365.36,-0.88,6735.27,348.03,1.63,15262.32,1342.93,2.76,8569.76
114500,366.80,563.55,1.00,2,2,2,1972.09,-2.53,123844.32,507.24,-2.39,22398.94,285.93,-2.64,35583.00,393.96,2.52,22867.49,1193.84,2.46,28581.73
128500,379.32,569.81,1.00,2,2,2,999.71,0.46,211763.44,774.19,1.43,86621.88,836.24,3.06,44155.43,875.37,3.03,40275.92,1168.62,2.53,6648.24
142700,369.95,585.16,1.00,2,2,2,1266.69,2.12,118240.70,1266.68,2.82,95931.23,1311.73,2.66,44480.85,1273.98,2.98,28299.71,1159.32,2.62,7571.44
164000,336.68,584.08,1.00,1,1,1,1562.58,-3.11,67920.75,2231.21,2.92,46011.66,2277.12,2.89,49176.91,1342.93,2.76,14162.24,625.32,2.23,29542.27
178000,293.07,602.31,1.00,1,1,1,3375.99,2.75,147117.01,3542.08,2.93,93638.45,2553.95,2.90,19782.15,1193.84,2.46,28990.04,377.51,1.92,20627.55
192500,238.06,605.61,1.00,1,1,1,3801.28,3.08,87675.55,2952.61,2.87,42363.73,1897.59,2.63,61144.24,1168.62,2.53,6418.99,359.78,0.88,25327.83
206700,211.37,624.78,1.00,1,1,1,2313.87,2.52,156310.03,1101.74,1.77,186676.90,1134.06,2.23,67494.79,1159.32,2.62,7571.44,629.95,0.35,25922.03
228400,230.41,644.42,1.00,1,1,1,1260.65,0.80,128690.52,1414.25,0.77,56551.95,826.75,1.23,45140.70,1112.20,2.47,8259.07,1047.01,0.21,19966.86
243000,248.06,660.68,1.00,1,1,1,1643.92,0.74,26829.93,980.65,0.42,41174.95,689.70,0.87,20382.10,497.13,1.42,66378.75,1262.88,0.20,14794.66
257100,256.12,655.87,1.00,1,1,1,665.74,-0.54,112677.34,284.09,-2.95,89305.94,416.95,1.58,32780.32,1506.05,0.32,95964.89,1056.52,0.20,14638.20
271600,240.09,659.11,1.00,2,2,2,1127.90,2.94,122046.06,992.22,2.69,54117.62,850.03,0.10,63057.75,2621.83,0.09,83246.48,980.17,0.11,8228.93
286300,230.07,668.56,1.00,2,2,2,936.69,2.39,40570.43,1740.23,0.11,179081.29,2579.98,0.07,117731.12,3392.75,-0.03,57325.94,1152.47,0.11,11728.93
308000,303.04,666.16,1.00,2,2,2,3364.39,-0.03,189563.89,5409.78,-0.01,169950.73,4788.23,-0.01,102604.31,3507.44,-0.08,9914.16,1187.06,0.03,4566.75
322000,423.20,666.93,1.00,3,3,3,8582.64,0.01,373036.80,8731.04,-0.05,237995.81,6445.39,-0.08,121528.66,3000.34,-0.08,36221.76,1349.12,0.01,11684.60
336300,549.86,654.50,1.00,1,1,1,8899.82,-0.10,67458.84,7746.79,-0.15,90358.42,6502.93,-0.11,10369.33,2748.10,-0.11,18722.64,1454.03,-0.03,8208.20
351200,646.90,633.35,1.00,1,1,1,6665.73,-0.21,161628.19,4420.49,-0.22,224741.74,3458.73,-0.18,205832.49,2874.54,-0.12,8941.95,1406.79,-0.04,3461.11
366000,678.12,626.49,1.00,1,1,1,2160.08,-0.22,304436.30,224.91,-1.44,293906.14,1184.81,-0.42,157023.92,2124.87,-0.16,51044.15,1324.06,-0.08,6467.28
388100,647.96,625.12,1.00,1,1,1,1366.02,-3.10,158257.63,836.58,-2.88,37867.09,213.22,-1.83,52931.42,1333.37,-0.28,36832.16,1330.27,-0.06,1335.32
416900,637.00,615.44,1.00,1,1,1,507.82,-2.42,35461.24,229.79,-2.16,23650.99,449.55,-2.81,13012.08,567.54,-0.48,27284.35,1327.35,-0.09,1379.89
430900,642.52,616.93,1.00,1,1,1,408.28,0.26,63735.82,80.90,-1.98,10779.15,286.54,-2.51,13920.58,83.40,-2.70,44382.26,1448.65,-0.11,8932.65
466500,635.41,611.75,1.00,1,1,1,246.89,-2.51,18114.91,354.42,-2.71,8396.65,100.39,-2.85,5477.60,304.58,3.05,6658.04,1397.99,-0.13,1626.79
480500,626.58,609.50,1.00,1,1,1,650.78,-2.89,30803.73,217.28,2.89,16513.96,155.24,2.22,10841.37,85.96,2.36,17442.21,1317.98,-0.11,5934.98
494400,629.53,613.24,1.00,1,1,1,342.76,0.90,68074.22,553.39,1.15,45148.43,323.00,1.93,12959.72,140.05,2.55,4167.74,1083.74,-0.10,16859.67
515900,634.51,627.42,1.00,1,1,1,698.72,1.23,18170.25,494.56,1.65,12226.93,430.68,1.13,14372.88,50.58,1.30,6191.13,937.65,-0.02,7811.93
530900,628.12,631.24,1.00,1,1,1,496.14,2.60,51444.55,281.50,1.08,19989.72,248.60,2.17,24824.66,514.77,0.05,33399.90,871.16,0.01,4742.46
544900,638.38,634.60,1.00,2,2,2,771.48,0.32,82784.59,317.84,-2.59,41338.03,181.57,-0.34,29243.44,1348.14,0.09,59567.89,1048.59,-0.00,12681.26
559200,620.45,626.54,1.00,2,2,2,1375.06,-2.72,149915.19,422.67,-1.05,36393.43,1166.05,-0.21,68962.07,1781.37,0.04,30803.33,929.93,-0.04,8767.04
574000,644.45,623.90,1.00,2,2,2,1631.87,-0.11,196085.21,2260.68,-0.14,137247.05,2499.37,-0.06,91853.06,2302.24,-0.00,35584.06,481.07,-0.24,31630.85
595500,701.73,615.23,1.00,3,3,3,2694.19,-0.15,49570.46,4358.95,0.01,99890.92,3712.94,-0.02,56727.62,2372.46,-0.01,3460.76,279.21,-2.45,31896.58
609700,800.06,625.10,1.00,1,1,1,6960.00,0.10,309909.29,5620.63,0.04,89708.04,4234.14,0.01,37749.18,2393.37,-0.03,3736.52,723.11,-2.91,34362.63
623600,859.52,622.04,1.00,1,1,1,4282.93,-0.05,201541.27,4077.41,0.02,111318.04,3614.49,0.05,46117.63,2082.79,-0.08,23684.81,706.01,-3.08,8749.93
638100,915.84,627.37,1.00,1,1,1,3901.59,0.09,48720.88,2062.44,0.08,139473.09,2289.20,-0.00,92066.21,1014.98,-0.30,76746.69,2302.24,-0.00,207387.50
659900,934.15,627.96,1.00,1,1,1,840.36,0.03,140517.30,893.27,-0.07,54480.46,531.54,-0.52,84635.65,1018.96,-2.76,87965.74,2372.46,-0.01,3413.14
674400,948.17,624.95,1.00,2,2,2,989.40,-0.21,18468.09,1725.66,-2.66,174460.51,2346.50,-2.86,189367.88,2798.44,-2.98,125352.27,2393.37,-0.03,3659.21
688900,889.72,604.94,1.00,2,2,2,4261.05,-2.81,354077.87,6415.14,-2.93,328925.21,5560.88,-2.97,223195.21,3202.78,-3.09,36485.80,2082.79,-0.08,22704.75
702900,769.60,585.74,1.00,3,3,3,8689.09,-2.98,324918.99,8751.20,-3.02,173839.89,7935.52,-3.03,171781.47,2346.50,-2.86,75610.13,1014.98,-0.30,79487.65
724600,579.74,566.00,1.00,1,1,1,8796.41,-3.04,22627.49,9203.68,-3.08,34193.54,6970.05,-3.13,57880.03,5560.88,-2.97,149139.66,1018.96,-2.76,88371.11
738200,445.28,566.45,1.00,1,1,1,9886.69,3.14,108641.06,4931.63,2.88,352098.79,9203.68,-3.08,167034.38,7935.52,-3.03,176833.87,2798.44,-2.98,133647.65
752300,447.83,601.52,1.00,1,1,1,2494.03,1.50,734925.98,2494.03,1.50,360830.09,4931.63,2.88,339613.02,6970.05,-3.13,89077.77,3202.78,-3.09,37520.86
