@RELATION gaze_labels

%@METADATA width_px 1920
%@METADATA height_px 1080
%@METADATA width_mm 540.00
%@METADATA height_mm 254.00
%@METADATA distance_mm 620.00


@ATTRIBUTE time INTEGER
@ATTRIBUTE x NUMERIC
@ATTRIBUTE y NUMERIC
@ATTRIBUTE confidence NUMERIC
@ATTRIBUTE handlabeller1 INTEGER
@ATTRIBUTE handlabeller2 INTEGER
@ATTRIBUTE handlabeller_final INTEGER
@ATTRIBUTE speed_1 numeric
@ATTRIBUTE direction_1 numeric
@ATTRIBUTE acceleration_1 numeric
@ATTRIBUTE speed_2 numeric
@ATTRIBUTE direction_2 numeric
@ATTRIBUTE acceleration_2 numeric
@ATTRIBUTE speed_4 numeric
@ATTRIBUTE direction_4 numeric
@ATTRIBUTE acceleration_4 numeric
@ATTRIBUTE speed_8 numeric
@ATTRIBUTE direction_8 numeric
@ATTRIBUTE acceleration_8 numeric
@ATTRIBUTE speed_16 numeric
@ATTRIBUTE direction_16 numeric
@ATTRIBUTE acceleration_16 numeric

%The number after speed, direction denotes the step size that was used for the calculation.
%Acceleration was calculated between two adjacent samples of the already low pass filtered velocity

@DATA
0,208.41,896.87,1.00,1,1,1,0.00,0.00,0.00,2904.56,-0.16,0.00,649.04,-2.65,0.00,290.01,3.12,0.00,319.89,-0.07,0.00
14800,250.82,889.83,1.00,1,1,1,2904.56,-0.16,196254.09,649.04,-2.65,232495.44,1647.01,3.09,77346.68,189.18,2.38,13225.82,237.35,2.97,37602.39
28900,191.90,887.98,1.00,1,1,1,4181.00,-3.11,500190.89,1647.01,3.09,81186.58,290.01,3.12,96252.26,412.67,0.22,38421.66,304.40,0.19,37793.01
65400,167.61,894.44,1.00,1,1,1,688.60,2.88,96630.63,227.38,2.18,41591.44,189.18,2.38,5362.80,577.21,-0.08,6005.92,58.54,-2.98,9942.99
79600,185.33,897.45,1.00,1,1,1,1266.24,0.17,134794.36,2527.54,0.08,186561.84,412.67,0.22,38151.09,319.89,-0.07,18121.78,139.70,0.01,13929.66
94100,239.92,900.14,1.00,1,1,1,3769.38,0.05,173561.08,942.60,-0.01,109710.52,577.21,-0.08,15118.36,237.35,2.97,38380.37,229.06,-0.09,6286.02
129600,232.46,897.00,1.00,1,1,1,228.13,-2.74,112237.84,580.58,-2.81,42331.09,934.99,-0.06,10087.86,304.40,0.19,15010.74,550.83,0.13,9326.68
143700,212.66,890.87,1.00,1,1,1,1469.98,-2.84,88168.45,927.03,-0.14,104133.59,333.38,-3.00,89610.65,58.54,-2.98,25738.95,628.53,0.17,5698.52
158500,258.98,893.19,1.00,1,1,1,3133.58,0.05,308940.15,191.78,1.37,63249.63,140.01,0.05,31960.09,139.70,0.01,13364.94,713.82,0.04,7976.48
173300,213.78,896.43,1.00,1,1,1,3061.83,3.07,417833.84,485.31,2.90,34717.36,816.65,3.10,64602.29,229.06,-0.09,6158.60,899.53,0.07,12647.57
195300,241.65,897.49,1.00,2,2,2,1267.50,0.04,196543.15,1524.67,-3.08,48705.48,826.68,3.06,1626.62,550.83,0.13,15049.87,1513.83,0.05,27950.61
209100,159.30,893.11,1.00,1,1,1,5975.59,-3.09,524852.99,1284.13,3.14,18683.80,912.64,0.01,125889.02,628.53,0.17,5822.40,1568.30,0.00,6817.57
223500,205.44,897.69,1.00,1,1,1,3219.55,0.10,638399.11,3941.24,0.04,362814.27,974.38,0.14,9501.33,1149.95,0.08,36565.62,1654.56,0.03,6628.56
237900,272.73,897.23,1.00,1,1,1,4673.59,-0.01,104909.37,2756.34,0.09,83145.62,1809.71,0.09,58219.62,2146.34,0.04,69308.28,1612.55,0.02,3036.54
259100,303.18,906.35,1.00,2,2,2,1499.16,0.29,154257.86,611.35,0.29,101891.68,2765.31,0.04,45375.15,2925.97,0.03,36794.19,1630.02,0.02,876.89
288500,302.42,905.93,1.00,2,2,2,29.54,-2.64,51974.07,2777.41,0.00,74738.92,3154.29,0.05,13273.04,3197.84,0.00,9765.08,1642.83,0.02,435.67
302700,424.27,906.45,1.00,1,1,1,8581.41,0.00,606149.61,7703.01,0.02,346917.82,4505.60,0.01,95644.17,3175.78,0.03,5416.06,2047.05,0.09,29804.60
317000,521.92,909.84,1.00,1,1,1,6832.52,0.03,123381.63,6628.60,0.02,75156.43,4932.05,-0.04,34102.98,3002.28,0.03,12132.79,2480.00,0.09,30276.91
338200,659.53,911.51,1.00,1,1,1,6491.74,0.01,17572.47,2736.41,-0.16,187051.75,3683.53,0.01,59732.62,2600.68,0.00,19226.55,2226.12,0.05,12894.69
352500,617.87,894.66,1.00,1,1,1,3142.97,-2.76,663538.71,68.23,-1.13,188717.88,2817.63,-0.01,60725.87,2783.40,-0.01,13101.13,2268.41,0.04,2970.05
366800,660.37,909.74,1.00,4,4,4,3153.46,0.34,440206.79,2999.64,0.16,208515.15,305.23,-0.23,176280.65,2943.00,0.09,24443.24,2106.54,0.04,11382.40
381200,702.81,908.68,1.00,4,4,4,2948.35,-0.02,78386.17,511.28,-0.15,174842.54,702.68,0.14,29979.30,2815.96,0.12,10534.64,1968.78,0.03,9640.66
403600,678.98,906.98,1.00,4,4,4,1066.61,-3.07,179077.22,1075.16,-2.95,69923.77,2373.50,0.20,74665.79,1595.70,0.07,54743.64,1792.11,0.01,8027.21
418300,663.67,900.98,1.00,4,4,4,1118.41,-2.77,22656.79,3976.70,0.23,343623.08,2848.80,0.23,32804.10,1440.00,0.13,12228.97,1995.28,-0.00,13901.63
447100,847.33,946.76,1.00,4,4,4,6572.12,0.24,266754.72,6226.08,0.22,78122.89,2512.28,0.09,17153.52,1147.60,0.06,10556.51,1515.24,-0.01,16669.59
461400,925.43,960.05,1.00,4,4,4,5540.39,0.17,78912.40,1353.62,-0.28,355218.49,1957.82,0.12,39081.96,1080.89,0.03,5209.94,1439.11,-0.00,5324.82
496700,911.89,928.34,1.00,1,1,1,976.61,-1.97,173497.63,1732.87,-2.71,82101.67,329.17,-1.73,58710.19,1057.55,0.03,664.21,604.82,-0.06,23678.47
512000,845.73,923.50,1.00,1,1,1,4335.88,-3.07,260350.85,2315.33,-3.03,56703.56,720.19,-2.32,31606.81,1351.55,0.02,19231.55,996.59,0.03,25980.74
526500,843.29,920.94,1.00,1,1,1,243.83,-2.33,286802.16,1066.47,-0.24,230176.49,1015.02,-2.89,39108.87,311.83,-1.24,89047.64,611.77,-0.03,26735.92
548000,883.01,914.33,1.00,1,1,1,1872.75,-0.16,93935.24,271.12,-1.18,43322.81,573.80,-0.51,69017.05,370.32,-1.33,3090.83,661.20,-0.03,2301.83
562600,847.05,911.90,1.00,1,1,1,2468.44,-3.07,295376.46,355.82,-2.05,18874.06,385.24,-0.73,14737.44,631.17,-2.81,47879.76,1106.49,0.02,30608.51
577100,878.26,905.13,1.00,1,1,1,2201.91,-0.21,318928.04,578.64,-0.48,46741.54,952.13,-0.12,46654.64,536.09,-0.27,76850.95,1581.59,0.03,32814.08
591500,861.87,904.14,1.00,1,1,1,1139.99,-3.08,230125.68,2061.09,0.05,110331.27,260.56,-2.45,79700.87,121.58,-1.44,34837.24,1081.90,-0.15,38342.75
606100,937.96,907.95,1.00,1,1,1,5218.24,0.05,435492.17,780.78,-3.03,194576.86,531.43,-0.05,50970.82,190.96,-0.44,11131.18,943.58,-0.21,10512.98
627300,834.08,901.14,1.00,1,1,1,4910.56,-3.08,477759.34,374.88,-2.87,19605.28,209.57,-3.11,34929.72,1160.89,0.00,46755.62,681.78,-0.13,12693.18
655800,920.02,902.92,1.00,2,2,2,3016.12,0.02,278063.54,276.79,0.22,22857.41,358.51,-2.97,5402.50,1834.89,0.05,23767.74,1033.43,-0.09,12420.06
669600,845.51,903.68,1.00,2,2,2,5399.74,3.13,609777.99,342.62,-3.13,44651.51,2280.04,0.06,191063.01,2044.47,-0.01,17067.93,956.45,-0.01,7587.62
691400,907.83,902.75,1.00,1,1,1,2858.88,-0.01,378835.14,4593.25,0.05,226406.48,3400.03,0.07,51380.07,1767.21,-0.02,12751.35,678.05,0.07,13101.05
706300,1013.87,912.03,1.00,1,1,1,7144.56,0.09,289295.72,7826.04,0.06,217034.43,4723.76,-0.01,90941.28,1835.44,0.01,5699.30,1261.39,0.27,41094.66
721500,1142.92,917.60,1.00,1,1,1,8497.80,0.04,91857.96,4908.86,-0.07,199752.84,4885.03,0.00,10897.23,1599.18,-0.02,15813.35,790.07,0.44,32944.26
735300,1155.85,901.67,1.00,1,1,1,1487.08,-0.89,558288.69,1804.95,-0.29,229784.39,1300.08,-0.10,260464.83,1893.68,0.05,22911.48,788.55,0.42,1111.88
749400,1191.16,903.14,1.00,1,1,1,2505.97,0.04,142537.79,1675.51,3.11,244763.76,375.26,-2.28,109649.15,1190.10,0.14,50869.28,625.68,0.56,13449.33
770500,1096.91,903.53,1.00,1,1,1,4466.97,3.14,330391.82,1778.26,-3.08,8760.59,523.90,2.75,25503.30,1418.14,0.46,22529.99,1144.59,0.33,26171.27
785400,1127.25,899.46,1.00,4,4,4,2054.54,-0.13,436897.04,580.06,0.58,154365.28,1350.90,2.93,56420.34,644.56,2.08,106304.82,489.97,0.27,44035.31
813600,1117.87,917.15,1.00,4,4,4,710.18,2.06,89869.79,1138.36,2.64,53210.89,1708.62,0.75,96474.52,755.76,2.19,4803.41,913.73,0.10,15591.72
835400,1077.47,927.06,1.00,4,4,4,1908.02,2.90,70197.67,2688.38,0.78,146706.71,1202.67,1.88,73968.10,846.60,2.27,5097.25,511.06,0.13,18497.89
863700,1213.41,1012.08,1.00,4,4,4,5665.82,0.56,251889.16,1883.78,1.37,53958.57,1072.40,1.95,5478.74,802.20,1.05,33356.78,130.11,-2.90,22632.68
878000,1093.69,1005.65,1.00,4,4,4,8383.94,-3.09,952503.47,3651.58,-3.07,317779.72,1096.20,1.29,49420.98,526.82,2.62,66978.16,463.68,-2.98,23365.06
899300,1083.77,1002.50,1.00,4,4,4,488.89,-2.83,371440.31,242.73,0.46,182058.83,842.06,3.12,72553.80,112.00,2.30,19812.43,476.26,3.13,3960.24
913700,1101.47,1009.47,1.00,4,4,4,1321.29,0.37,125650.54,2669.84,0.14,169456.90,1164.44,-2.10,73015.31,172.46,-2.92,10673.20,673.10,3.14,13680.58
927900,1159.36,1013.26,1.00,4,4,4,4085.53,0.07,201091.00,2852.29,-2.16,355229.71,1327.11,-1.26,72446.27,2008.70,-2.71,129601.25,205.80,-3.04,33025.58
942700,1055.41,940.76,1.00,1,1,1,8563.54,-2.53,827302.00,3366.94,-2.13,35541.57,1543.73,-2.07,77540.56,983.86,-2.24,81932.82,337.50,-3.12,9027.02
957300,1107.15,929.16,1.00,1,1,1,3632.27,-0.22,776526.87,537.59,-1.68,198121.92,3264.07,-2.60,142326.68,861.11,-2.22,8577.74,342.81,-2.95,4032.09
978600,1053.39,921.57,1.00,1,1,1,2549.16,-3.00,285643.23,3700.10,-2.94,167913.14,855.85,-2.40,114122.37,1101.04,-2.41,14271.90,279.64,-2.72,4421.07
993000,977.66,903.10,1.00,1,1,1,5413.39,-2.90,200531.17,1266.05,-2.63,175264.16,1180.33,-2.89,40592.71,1174.88,-2.39,5339.11,909.42,-2.65,43807.37
1021900,1005.49,894.90,1.00,1,1,1,1004.17,-0.29,218067.80,635.73,0.02,64069.99,911.19,-2.88,9313.06,365.45,-2.17,28430.86,464.75,-2.14,19082.69
1042900,1009.37,903.72,1.00,1,1,1,458.92,1.16,49978.48,652.84,2.78,60253.29,723.20,-0.11,76562.59,635.82,-2.80,19069.88,754.42,-2.61,18986.24
1057900,983.51,903.20,1.00,1,1,1,1724.80,-3.12,130840.58,887.70,-0.26,102568.83,311.35,0.12,28398.84,391.27,-2.64,17139.45,812.79,-2.62,3922.72
1072800,1035.04,896.96,1.00,1,1,1,3483.90,-0.12,348812.07,1468.56,-0.14,40053.36,223.79,-0.43,11374.95,131.88,-0.43,32331.79,1078.83,-2.77,20133.38
1086800,1025.55,897.39,1.00,1,1,1,678.73,3.10,297213.08,493.93,3.05,140152.49,350.48,-0.40,9074.52,156.88,0.22,6792.88,748.94,-2.95,26221.54
1101000,1021.17,898.26,1.00,1,1,1,314.24,2.94,26143.57,609.59,-3.00,12055.08,634.53,-3.10,67823.23,786.39,-3.04,66356.35,913.77,-3.01,12166.57
1122100,1004.23,894.44,1.00,2,2,2,823.01,-2.92,26112.68,752.66,-3.03,6826.60,31.48,1.78,29855.50,594.02,-3.02,9136.54,573.41,-3.05,16174.80
1136200,994.84,895.28,1.00,2,2,2,668.28,3.05,19639.36,763.73,0.23,107360.66,1450.76,-3.10,102542.78,1153.98,3.12,40515.64,261.05,-3.04,22154.87
1150200,1025.13,899.34,1.00,3,3,3,2182.21,0.13,202705.09,1936.94,-3.11,192099.99,1338.48,-3.13,8740.75,1199.40,-3.14,3892.42,344.83,3.09,6878.00
1186900,896.68,892.62,1.00,1,1,1,3504.71,-3.09,154836.98,2506.67,-3.09,15572.42,1573.20,3.10,6701.10,1175.75,-3.11,1044.68,487.68,-3.09,4075.93
1200400,899.43,893.35,1.00,1,1,1,211.22,0.26,274932.23,954.27,2.85,121235.12,1953.55,-3.13,29086.16,782.31,3.06,30299.74,1266.49,-3.13,57738.81
1215000,870.98,900.26,1.00,1,1,1,2005.69,2.90,150234.59,1402.95,3.10,36414.62,874.13,-3.14,73939.14,604.97,-3.14,12881.65,2116.27,-3.13,58209.66
1250500,829.21,896.31,1.00,1,1,1,1181.86,-3.05,27289.16,866.11,-2.96,16673.25,267.18,2.56,18844.73,730.20,3.13,3535.15,1967.67,3.14,4267.32
1265100,828.32,892.30,1.00,1,1,1,281.24,-1.79,77248.35,1874.95,0.16,187734.13,371.07,-0.19,42878.84,191.74,3.02,36990.41,1676.09,3.13,19978.32
1279000,881.94,904.97,1.00,1,1,1,3963.44,0.23,294493.82,2503.37,0.03,49401.99,1155.84,0.05,57577.92,1933.58,3.13,125392.46,1844.35,3.13,12112.66
1293600,899.62,894.79,1.00,2,2,2,1397.74,-0.52,212081.57,626.22,-0.21,130269.47,629.48,0.09,36109.86,2982.88,-3.12,72077.45,1744.19,3.13,6861.16
1315600,904.35,900.19,1.00,2,2,2,326.18,0.85,62348.28,821.33,3.11,65551.08,3975.33,-3.11,209267.13,2842.41,3.13,7516.78,1785.68,-3.13,2776.14
1330500,869.34,895.86,1.00,2,2,2,2368.02,-3.02,175868.91,9703.05,-3.13,596146.73,6295.68,-3.14,155904.69,2252.10,3.11,39813.19,1292.84,3.12,33238.87
1344900,620.06,897.69,1.00,3,3,3,17310.99,3.13,1039321.08,11049.35,-3.13,93493.24,6148.10,3.14,10828.76,3005.16,-3.14,52840.44,1550.45,3.14,17965.19
1373000,399.76,891.93,1.00,1,1,1,7842.87,-3.12,337229.78,4040.46,3.12,249506.86,4677.16,3.12,52475.82,2995.64,3.12,2528.20,1493.77,3.13,2044.49
1394300,420.50,901.33,1.00,1,1,1,1069.29,0.43,414918.02,3058.90,0.11,332631.27,2187.43,3.12,116890.85,3011.83,-3.12,4979.88,1328.66,3.12,7777.98
1408100,506.47,903.71,1.00,1,1,1,6232.44,0.03,381377.95,1014.60,0.03,148495.29,1117.12,0.14,238692.83,2304.74,3.13,51561.95,1136.26,3.13,13951.11
1422900,449.50,902.18,1.00,1,1,1,3850.67,-3.11,681291.30,1253.43,-3.10,153241.06,875.02,-0.16,25898.22,1196.14,-3.13,74970.34,1456.54,-3.12,21813.73
1436900,470.41,902.09,1.00,1,1,1,1493.36,-0.00,381680.02,791.11,-0.36,143273.25,53.18,-0.95,59899.73,119.68,0.78,91789.76,1347.19,3.13,8261.24
1458000,475.54,892.52,1.00,1,1,1,514.79,-1.08,62946.14,770.65,-0.05,11425.04,227.25,-2.71,11511.81,204.03,0.07,6501.72,1574.20,-3.12,10945.41
1486900,508.90,900.30,1.00,1,1,1,1185.50,0.23,40262.82,982.07,3.09,60647.26,682.15,3.10,16975.47,128.03,-2.79,11388.82,1546.93,-3.13,1130.14
1501000,433.37,894.79,1.00,1,1,1,5371.20,-3.07,464173.40,2751.65,3.10,125508.41,361.47,2.74,25947.86,98.72,-2.80,2080.45,221.20,3.13,94027.65
1522000,412.41,904.49,1.00,1,1,1,1099.81,2.71,211503.80,515.67,0.50,152606.41,276.41,-2.98,9222.13,28.38,-2.37,3521.49,110.13,0.30,15613.22
1536400,449.41,903.50,1.00,1,1,1,2570.45,-0.03,250477.10,1757.32,-0.10,94626.84,26.29,1.16,20243.61,379.17,-3.10,24903.27,128.08,-2.96,16515.94
1565000,487.59,896.87,1.00,1,1,1,1354.89,-0.17,43543.40,330.76,-2.73,71735.21,588.82,-0.11,20330.70,826.93,-3.08,15665.70,80.10,-0.00,7250.35
1586400,434.27,896.84,1.00,1,1,1,2491.49,-3.14,179128.06,418.22,3.06,9460.59,441.64,-2.81,47010.90,704.78,0.03,71565.63,305.92,-0.02,10553.38
1614900,466.79,898.57,1.00,1,1,1,1142.62,0.05,127474.39,573.02,-2.86,8199.51,1327.63,-3.09,32010.90,125.93,-0.14,20389.15,1001.69,0.13,24581.29
1629300,410.63,890.10,1.00,1,1,1,3944.07,-2.99,352956.01,2587.09,-3.07,140896.02,1454.64,0.01,193186.69,426.73,-3.01,38124.33,1703.00,0.19,48996.06
1651100,373.41,891.45,1.00,1,1,1,1708.51,3.11,104899.04,3844.87,0.06,295035.43,541.00,3.05,91442.59,302.44,0.16,33446.12,1633.64,0.18,3184.08
1665400,549.18,898.51,1.00,4,4,4,12301.29,0.04,979401.52,2103.46,0.17,123841.10,435.45,2.99,7664.35,758.32,0.03,32163.47,1909.07,0.15,19772.00
1679400,432.04,901.74,1.00,4,4,4,8370.05,3.11,1475707.11,5801.03,-3.12,563383.16,2727.29,0.08,225204.89,2400.10,0.14,117713.40,1585.18,0.03,27484.68
1694100,382.74,894.37,1.00,4,4,4,3391.17,-2.99,344642.02,3340.64,0.02,621880.22,88.49,2.85,191149.74,4443.88,0.17,139221.96,1155.53,-0.01,29400.84
1708900,530.57,903.71,1.00,4,4,4,10008.51,0.06,904760.44,4399.28,0.04,71652.17,5266.42,0.11,361334.32,4558.00,0.16,8347.64,1388.46,0.06,16819.33
1730700,543.65,900.18,1.00,4,4,4,621.28,-0.26,432207.40,6843.80,0.15,115798.13,9279.58,0.15,184550.09,3277.39,0.18,58827.39,1427.62,0.03,2816.83
1745300,776.85,941.18,1.00,4,4,4,16217.72,0.17,1072404.47,15600.74,0.20,600683.77,5887.61,0.19,232863.77,3162.53,0.04,31937.55,1399.77,0.03,1934.07
1759200,979.64,987.32,1.00,4,4,4,14962.53,0.22,106112.62,5098.44,0.22,755763.74,6013.59,0.17,11048.29,2865.38,0.02,21766.44,1577.57,0.05,12988.55
1789000,994.06,990.78,1.00,4,4,4,497.43,0.24,485407.42,756.15,-0.13,147592.60,1479.67,-0.19,156440.18,2466.99,0.05,13729.51,1633.32,0.04,2100.99
1810800,1018.31,982.13,1.00,4,4,4,1181.41,-0.34,37239.94,3439.22,-2.52,184557.87,2474.80,-2.70,172776.61,2093.24,0.03,17302.64,1288.10,0.02,15871.83
1825200,892.84,918.29,1.00,4,4,4,9776.27,-2.67,737682.18,8057.31,-2.79,335219.54,1941.42,-2.57,41828.24,557.06,-0.38,110930.61,1275.88,-0.03,4700.15
1839700,799.88,901.46,1.00,1,1,1,6515.50,-2.96,275911.50,217.64,2.44,548412.26,2861.06,-2.74,69192.05,1068.40,-2.65,102634.52,1807.56,0.01,36877.87
1854000,888.04,922.33,1.00,1,1,1,6336.05,0.23,898390.95,1329.44,0.16,103521.92,641.42,-2.97,156806.07,1139.33,-2.64,4969.95,833.36,-0.02,68164.53
1875800,847.24,909.20,1.00,1,1,1,1966.31,-2.83,380627.77,1049.24,-2.85,108878.89,703.31,0.27,61601.77,871.23,-2.48,14263.72,1144.81,0.01,14367.97
1890100,851.79,911.35,1.00,1,1,1,352.19,0.44,161955.35,204.05,2.27,68963.24,542.83,-2.84,87133.93,676.23,-2.85,23703.88,552.54,-0.21,43229.07
1904100,843.51,913.61,1.00,1,1,1,613.22,2.88,65009.93,171.36,-2.81,15250.17,939.40,-0.04,104428.41,728.37,-0.04,98938.45,426.24,-2.37,61872.34
1939300,843.82,908.62,1.00,1,1,1,142.03,-1.51,19105.29,1560.46,-0.10,48801.49,712.76,-2.75,45856.91,622.27,-2.91,38013.00,459.32,-2.39,967.13
1953400,920.07,906.08,1.00,1,1,1,5411.00,-0.03,382933.85,1635.09,-2.74,219593.84,796.30,-0.26,101398.57,270.37,-0.10,62540.23,2030.70,-3.00,118820.08
1968200,800.33,890.13,1.00,1,1,1,8162.02,-3.01,914079.90,640.26,-2.66,67439.12,710.05,-2.96,99288.39,562.24,-0.06,19758.85,1294.24,-3.08,50469.74
1982300,903.67,897.52,1.00,1,1,1,7347.46,0.07,1099453.01,286.53,2.53,40290.86,385.83,-3.10,23586.66,289.06,-0.36,21222.93,728.37,-0.04,143283.77
2018500,788.52,898.39,1.00,1,1,1,3180.91,3.13,290647.99,316.21,2.67,1394.59,1759.73,0.11,59246.03,392.18,-0.15,3467.40,622.27,-2.91,36962.92
2032800,889.46,904.81,1.00,1,1,1,7073.14,0.06,716678.45,5079.78,0.05,374512.30,212.94,-3.13,137872.68,3315.42,-3.13,258969.62,270.37,-0.10,61665.54
2048500,940.71,906.30,1.00,2,2,2,3265.47,0.03,242758.24,265.07,-1.95,330996.93,1858.72,0.02,131951.56,1932.99,3.12,88172.48,562.24,-0.06,18626.18
2063000,886.48,897.38,1.00,2,2,2,3789.92,-2.98,485493.25,1538.30,-3.01,98457.56,6883.29,-3.13,602887.92,212.94,-3.13,118630.03,289.06,-0.36,20637.47
2077000,897.23,900.65,1.00,2,2,2,802.52,0.30,327618.42,12737.70,3.13,801153.66,6582.15,-3.12,23321.61,1858.72,0.02,147974.25,392.18,-0.15,8965.70
2098000,440.68,901.59,1.00,1,1,1,21740.47,3.14,1071858.47,10685.00,-3.13,98601.91,12737.70,3.13,293526.50,6883.29,-3.13,416279.75,3315.42,-3.13,176345.98
2112100,522.22,895.45,1.00,1,1,1,5799.48,-0.08,1952319.50,5799.48,-0.08,1168054.40,10685.00,-3.13,146853.90,6582.15,-3.12,23156.21,1932.99,3.12,98177.87
