@RELATION gaze_labels

%@METADATA width_px 1920
%@METADATA height_px 1080
%@METADATA width_mm 540.00
%@METADATA height_mm 254.00
%@METADATA distance_mm 620.00


@ATTRIBUTE time INTEGER
@ATTRIBUTE x NUMERIC
@ATTRIBUTE y NUMERIC
@ATTRIBUTE confidence NUMERIC
@ATTRIBUTE handlabeller1 INTEGER
@ATTRIBUTE handlabeller2 INTEGER
@ATTRIBUTE handlabeller_final INTEGER
@ATTRIBUTE speed_1 numeric
@ATTRIBUTE direction_1 numeric
@ATTRIBUTE acceleration_1 numeric
@ATTRIBUTE speed_2 numeric
@ATTRIBUTE direction_2 numeric
@ATTRIBUTE acceleration_2 numeric
@ATTRIBUTE speed_4 numeric
@ATTRIBUTE direction_4 numeric
@ATTRIBUTE acceleration_4 numeric
@ATTRIBUTE speed_8 numeric
@ATTRIBUTE direction_8 numeric
@ATTRIBUTE acceleration_8 numeric
@ATTRIBUTE speed_16 numeric
@ATTRIBUTE direction_16 numeric
@ATTRIBUTE acceleration_16 numeric

%The number after speed, direction denotes the step size that was used for the calculation.
%Acceleration was calculated between two adjacent samples of the already low pass filtered velocity

@DATA
0,226.28,890.37,1.00,1,1,1,0.00,0.00,0.00,3562.66,0.06,0.00,2854.91,0.05,0.00,1496.29,0.02,0.00,417.36,-0.03,0.00
14400,277.49,893.30,1.00,1,1,1,3562.66,0.06,247406.77,2854.91,0.05,49212.57,1201.79,0.00,114920.93,604.84,-0.06,62152.88,82.04,-0.39,23737.49
28300,306.98,894.08,1.00,1,1,1,2122.35,0.03,103799.52,1201.79,0.00,119054.77,1496.29,0.02,21235.69,58.24,-1.44,42916.28,91.15,-2.80,11630.49
49900,320.16,893.52,1.00,1,1,1,610.39,-0.04,70092.28,421.24,-0.12,36375.28,604.84,-0.06,41435.26,282.58,-2.92,13103.25,110.99,-2.95,1146.73
63900,321.87,892.26,1.00,1,1,1,151.64,-0.63,35112.81,158.90,-2.51,39171.33,58.24,-1.44,42609.73,417.36,-0.03,49604.29,5.06,-2.00,7724.01
78900,316.43,890.81,1.00,1,1,1,375.59,-2.88,32355.30,335.58,-2.95,13543.89,282.58,-2.92,18868.68,82.04,-0.39,22787.99,181.64,0.09,12278.10
107300,307.57,889.52,1.00,1,1,1,315.27,-3.00,2542.86,364.09,-3.02,1305.04,327.05,-3.01,1833.29,91.15,-2.80,5692.39,488.90,0.07,10820.49
128600,298.47,888.61,1.00,1,1,1,429.41,-3.04,5416.95,320.48,-3.06,2146.90,294.66,-3.05,1648.81,110.99,-2.95,1162.89,880.80,0.06,18399.68
156900,291.72,888.22,1.00,1,1,1,238.61,-3.08,6758.21,214.13,-3.12,3793.88,171.94,-3.11,4360.99,5.06,-2.00,3821.07,736.15,0.02,5253.04
171100,289.37,888.38,1.00,1,1,1,166.32,3.07,5387.71,38.56,0.64,17365.80,60.58,0.33,16237.18,181.64,0.09,12969.83,610.09,0.00,8932.43
193000,292.84,889.05,1.00,1,1,1,161.45,0.19,14840.80,377.42,0.13,15723.57,462.25,0.11,18414.99,488.90,0.07,14032.05,545.70,-0.01,2948.61
207500,302.99,890.14,1.00,2,2,2,704.25,0.11,37485.70,1000.29,0.09,42994.96,860.39,0.09,27475.63,880.80,0.06,27028.50,549.53,0.00,483.23
221800,321.54,891.53,1.00,2,2,2,1300.72,0.07,41767.72,1482.13,0.07,33709.38,1373.67,0.06,35946.84,1086.89,0.04,14474.98,587.17,0.02,2707.54
235800,344.82,893.27,1.00,3,3,3,1667.42,0.07,26192.71,1679.50,0.05,14354.41,1897.82,0.05,37452.59,1169.49,0.03,6033.01,696.01,0.04,7816.48
257000,380.58,894.52,1.00,1,1,1,1688.00,0.04,3255.97,2229.60,0.04,25957.82,1607.01,0.03,13876.02,1276.93,0.02,5090.58,875.60,0.05,8489.18
271300,423.90,896.65,1.00,1,1,1,3032.66,0.05,94058.39,1548.17,0.01,47858.47,1406.19,0.00,14334.33,1277.01,0.02,60.04,1041.16,0.06,11584.35
299900,447.00,895.09,1.00,1,1,1,809.48,-0.07,77993.67,820.93,-0.08,25666.50,1199.78,-0.02,7274.30,1240.21,0.02,1289.49,1292.98,0.06,8804.73
320900,464.49,893.39,1.00,1,1,1,836.74,-0.10,1746.43,780.01,-0.09,1959.38,777.46,-0.04,20142.44,1235.39,0.03,417.51,1462.30,0.06,8064.40
335300,474.51,892.74,1.00,1,1,1,697.50,-0.07,9815.68,706.59,0.03,7737.86,795.48,0.01,3154.46,1280.80,0.04,3447.02,1642.59,0.06,12525.81
350200,485.18,893.96,1.00,1,1,1,720.97,0.11,8670.55,823.55,0.12,9132.25,1012.41,0.08,15161.01,1201.23,0.05,5377.19,1781.41,0.05,9321.40
364300,498.22,895.57,1.00,1,1,1,931.96,0.12,14971.23,1267.41,0.10,31498.76,1385.06,0.11,26565.75,1521.29,0.07,22756.30,1851.38,0.05,5067.78
385500,529.68,898.58,1.00,1,1,1,1490.67,0.10,26396.43,1842.49,0.11,27129.11,1729.67,0.11,16262.06,1801.68,0.08,13279.75,1749.62,0.04,4808.83
399900,563.43,902.70,1.00,2,2,2,2360.81,0.12,60519.43,2296.27,0.11,31515.00,2244.52,0.09,35813.76,2005.33,0.08,14152.78,1719.44,0.04,2289.18
414300,595.44,905.61,1.00,2,2,2,2232.27,0.09,10173.69,2735.41,0.07,30996.62,2584.90,0.09,23646.29,2285.53,0.07,19485.71,1574.32,0.02,10233.01
429100,643.08,908.65,1.00,2,2,2,3225.41,0.06,67283.16,2814.51,0.07,5352.68,2510.79,0.07,6086.94,2459.24,0.06,11974.88,1523.61,0.00,3803.54
450600,697.33,913.06,1.00,2,2,2,2531.84,0.08,32343.62,2380.23,0.06,20256.56,2737.63,0.06,10611.75,2235.48,0.05,10442.20,1358.46,-0.01,7707.01
479300,762.35,915.86,1.00,3,3,3,2267.41,0.04,9752.05,2672.87,0.04,10321.27,2637.84,0.04,3975.42,2113.99,0.03,4500.34,1258.68,-0.01,3476.81
493300,811.37,917.88,1.00,3,3,3,3504.08,0.04,88334.77,3096.12,0.00,31272.08,1994.11,0.02,46072.62,1910.54,0.00,15106.92,1217.82,0.00,3002.17
507700,850.28,916.14,1.00,1,1,1,2705.03,-0.04,58435.17,1424.10,-0.02,116158.76,1721.60,-0.02,19609.73,1530.19,-0.05,27069.98,1171.30,0.02,3500.86
544000,883.55,916.49,1.00,1,1,1,916.71,0.01,49322.74,959.16,-0.07,12896.75,1108.92,-0.13,17401.49,1012.24,-0.14,14576.75,1170.92,0.04,620.02
558800,899.19,912.91,1.00,1,1,1,1083.55,-0.23,19440.39,644.56,-0.58,34360.35,505.70,-0.49,44604.50,550.25,-0.32,32597.88,1140.74,0.05,2135.70
573400,899.41,906.11,1.00,1,1,1,466.00,-1.54,72928.24,705.67,-2.26,68812.39,552.21,-2.38,58665.56,232.68,-0.76,24170.53,1123.73,0.05,1257.53
588100,886.10,896.91,1.00,1,1,1,1100.93,-2.54,63572.65,1221.77,-2.80,48996.93,1000.13,-2.79,36912.55,89.31,-1.38,11475.65,1045.50,0.06,5349.51
610000,857.21,891.31,1.00,1,1,1,1343.48,-2.95,25355.92,1354.14,-3.01,13664.12,995.35,-2.96,7790.57,31.84,-1.35,2625.50,941.30,0.06,4757.97
624000,837.88,890.68,1.00,1,1,1,1381.33,-3.11,15690.71,765.19,2.98,47009.72,424.26,2.98,43610.27,76.83,0.54,6555.94,822.32,0.06,8501.38
638200,835.91,894.77,1.00,1,1,1,319.70,2.02,90540.78,438.40,0.65,78398.22,435.27,0.65,55699.37,279.77,0.44,14324.71,682.26,0.04,9893.68
667200,852.95,902.15,1.00,1,1,1,640.31,0.41,25069.74,1020.07,0.34,21287.90,964.69,0.38,19238.50,550.30,0.40,9347.97,573.25,0.03,3771.65
688800,884.57,912.00,1.00,4,4,4,1533.09,0.30,41623.50,1628.02,0.29,28330.87,1308.25,0.28,16682.63,910.04,0.30,16945.55,492.16,-0.03,3985.23
702900,908.71,918.56,1.00,4,4,4,1774.12,0.27,17616.25,1819.64,0.22,15978.23,1686.55,0.23,27233.65,1153.11,0.23,17910.65,404.42,-0.07,6396.44
717700,935.92,923.34,1.00,4,4,4,1866.73,0.17,12892.76,1764.45,0.17,6383.23,1532.42,0.18,11814.44,1169.06,0.17,4952.44,351.15,-0.10,3639.70
731900,959.10,927.44,1.00,4,4,4,1657.86,0.18,14710.45,1301.16,0.14,32798.71,1403.18,0.12,11391.46,1169.67,0.11,5377.81,313.60,-0.08,2662.21
753300,981.77,929.94,1.00,4,4,4,1065.64,0.11,27973.85,1117.64,0.04,10293.42,1044.84,0.04,17326.21,983.40,0.00,10108.37,400.60,-0.06,4075.79
767900,999.30,929.13,1.00,4,4,4,1202.09,-0.05,15251.92,845.38,-0.10,20837.05,805.99,-0.09,18339.73,717.72,-0.13,19775.28,457.52,-0.07,3900.41
796100,1017.78,926.41,1.00,1,1,1,662.33,-0.15,19402.51,597.99,-0.28,9896.20,595.22,-0.38,10241.65,471.16,-0.38,10111.48,519.31,-0.06,2195.33
817600,1027.86,920.93,1.00,1,1,1,533.93,-0.50,11357.25,438.75,-1.08,20051.16,358.75,-0.86,15067.81,267.45,-0.95,13325.32,545.62,-0.09,1372.10
831700,1025.09,912.61,1.00,1,1,1,621.99,-1.89,52863.06,430.01,-1.96,26165.05,417.94,-1.97,29202.17,273.31,-1.55,11214.90,487.49,-0.16,4876.46
860500,1020.86,903.86,1.00,1,1,1,337.36,-2.02,10094.28,602.78,-2.45,10530.25,566.25,-2.48,9867.59,298.85,-1.91,3737.20,349.39,-0.31,5261.70
875100,1004.87,896.02,1.00,1,1,1,1220.24,-2.69,66917.69,755.57,-2.72,16162.80,554.10,-2.53,2293.51,268.09,-1.90,2117.08,173.14,-0.78,14450.60
910000,986.71,888.63,1.00,1,1,1,561.82,-2.75,18937.35,514.52,-2.61,7184.25,569.88,-2.60,1256.73,215.01,-1.78,1725.54,169.18,-2.23,6479.41
924500,982.94,883.16,1.00,1,1,1,457.61,-2.17,21270.00,307.40,-2.11,19788.99,134.20,-1.70,34336.12,151.74,-1.37,6705.71,366.49,-2.75,16279.44
939800,982.03,880.75,1.00,1,1,1,168.63,-1.93,19392.57,557.21,0.07,50613.22,516.93,-0.03,35788.22,145.53,-2.17,7557.33,576.37,-2.91,14513.61
961200,1003.34,884.57,1.00,1,1,1,1011.74,0.18,51759.36,1093.29,0.18,25367.25,715.97,0.12,10235.43,231.74,-2.85,7002.55,853.77,-2.99,13240.09
975700,1020.66,887.71,1.00,1,1,1,1213.65,0.18,13925.86,916.68,0.17,12213.68,428.55,0.21,20114.45,456.44,-3.10,16458.88,1079.50,-3.04,15920.78
990500,1029.83,888.98,1.00,1,1,1,626.08,0.14,39776.51,407.81,-3.05,89447.01,526.39,3.08,63920.01,751.10,3.11,20106.93,1216.18,-3.08,9664.36
1004300,1009.05,886.59,1.00,1,1,1,1516.31,-3.03,155236.94,1986.77,-3.10,114466.93,1444.05,-3.12,66685.87,1089.30,3.10,24513.61,1417.71,-3.11,14884.75
1019200,972.87,886.46,1.00,1,1,1,2427.97,-3.14,62829.96,2266.15,-3.14,19525.26,1987.59,-3.12,36479.41,1718.70,3.13,42301.20,1480.07,-3.13,4575.34
1040400,927.24,886.10,1.00,2,2,2,2152.42,-3.13,13006.07,1988.72,-3.14,13091.99,2223.06,3.14,11264.10,2207.14,3.14,23050.44,1578.83,3.14,4812.57
1068500,874.83,886.26,1.00,2,2,2,1865.27,3.14,10248.24,2191.77,3.13,7256.36,2532.78,3.14,11029.16,2597.16,3.14,13880.16,1571.46,3.12,719.21
1090000,818.53,886.85,1.00,1,1,1,2618.53,3.13,35043.63,3284.26,3.13,50818.72,2833.31,3.13,14018.50,2756.85,3.13,7505.18,1467.72,3.12,4838.03
1104200,757.59,887.76,1.00,1,1,1,4292.25,3.13,117872.08,3919.54,3.12,44796.11,3331.86,3.12,35126.57,2692.67,3.13,4523.26,1496.89,3.13,2321.84
1119300,703.72,889.36,1.00,1,1,1,3569.25,3.11,48035.88,3390.47,3.11,35067.78,3551.47,3.12,14568.01,2607.91,3.13,5620.20,1501.03,3.14,852.36
1133300,658.96,890.50,1.00,1,1,1,3197.66,3.12,26560.61,3170.40,3.12,15729.68,2903.50,3.12,46296.84,2485.16,3.13,8768.37,1402.09,3.14,7074.56
1147600,614.02,891.63,1.00,1,1,1,3143.72,3.12,3773.34,2503.45,3.13,46763.34,2327.42,3.13,40303.90,1882.21,3.13,42164.63,1259.57,3.13,9987.41
1168700,570.34,891.22,1.00,1,1,1,2070.15,-3.13,51050.77,1648.35,-3.13,40560.70,1634.69,3.14,32842.13,1276.61,3.13,28701.91,1130.44,3.13,6123.10
1182700,556.17,891.09,1.00,1,1,1,1012.64,-3.13,75535.86,578.16,-3.11,76452.71,674.93,-3.12,68584.92,791.46,3.14,34661.18,1027.22,3.12,7394.63
1197800,553.53,890.75,1.00,1,1,1,176.37,-3.01,55480.81,94.88,-0.19,44445.91,46.46,-0.38,47535.40,326.17,-3.12,30823.63,968.86,3.11,3914.92
1227200,560.31,890.30,1.00,1,1,1,231.42,-0.07,13806.37,402.04,-0.05,10490.91,433.79,-0.05,13274.18,37.11,-0.32,12289.29,933.76,3.10,1247.62
1248200,573.77,889.83,1.00,1,1,1,641.01,-0.03,19513.07,866.07,-0.03,22103.19,571.06,-0.03,6556.01,342.15,-0.01,14619.77,1276.61,3.13,16391.79
1262200,590.62,889.49,1.00,1,1,1,1203.72,-0.02,40203.41,766.15,-0.01,7180.39,691.53,-0.01,8631.24,387.63,0.01,3325.18,791.46,3.14,34661.18
1291900,607.24,889.39,1.00,1,1,1,559.91,-0.01,21680.99,572.14,0.01,6546.98,642.73,0.01,1723.71,268.69,0.08,4068.50,326.17,-3.12,15671.28
1313300,619.85,889.68,1.00,1,1,1,589.26,0.02,1572.79,491.32,0.06,4027.79,343.25,0.09,14096.51,55.75,2.10,13889.56,37.11,-0.32,16883.42
1327300,624.60,890.48,1.00,1,1,1,344.25,0.17,18114.11,107.64,2.31,40350.48,189.27,2.74,36995.29,642.73,0.01,48004.95,342.15,-0.01,21929.66
1341700,617.79,891.94,1.00,1,1,1,483.52,2.93,56486.94,990.85,3.01,63300.42,1107.99,3.02,64425.85,343.25,0.09,20948.98,387.63,0.01,3232.81
1356400,596.00,894.15,1.00,1,1,1,1489.96,3.04,68753.82,2100.84,3.06,75621.82,990.85,3.01,7997.73,189.27,2.74,35233.61,268.69,0.08,8220.02
1371100,556.25,897.22,1.00,2,2,2,2712.01,3.06,83198.67,2712.01,3.06,41599.34,2100.84,3.06,75621.82,1107.99,3.02,63111.04,55.75,2.10,20220.18
