@RELATION gaze_labels

%@METADATA width_px 1920
%@METADATA height_px 1080
%@METADATA width_mm 540.00
%@METADATA height_mm 254.00
%@METADATA distance_mm 620.00


@ATTRIBUTE time INTEGER
@ATTRIBUTE x NUMERIC
@ATTRIBUTE y NUMERIC
@ATTRIBUTE confidence NUMERIC
@ATTRIBUTE handlabeller1 INTEGER
@ATTRIBUTE handlabeller2 INTEGER
@ATTRIBUTE handlabeller_final INTEGER
@ATTRIBUTE speed_1 numeric
@ATTRIBUTE direction_1 numeric
@ATTRIBUTE acceleration_1 numeric
@ATTRIBUTE speed_2 numeric
@ATTRIBUTE direction_2 numeric
@ATTRIBUTE acceleration_2 numeric
@ATTRIBUTE speed_4 numeric
@ATTRIBUTE direction_4 numeric
@ATTRIBUTE acceleration_4 numeric
@ATTRIBUTE speed_8 numeric
@ATTRIBUTE direction_8 numeric
@ATTRIBUTE acceleration_8 numeric
@ATTRIBUTE speed_16 numeric
@ATTRIBUTE direction_16 numeric
@ATTRIBUTE acceleration_16 numeric

%The number after speed, direction denotes the step size that was used for the calculation.
%Acceleration was calculated between two adjacent samples of the already low pass filtered velocity

@DATA
0,281.52,879.65,1.00,1,1,1,0.00,0.00,0.00,6084.62,0.07,0.00,3376.79,0.07,0.00,1306.96,0.07,0.00,254.97,0.11,0.00
14800,371.34,886.09,1.00,1,1,1,6084.62,0.07,411122.68,3376.79,0.07,182962.85,670.02,0.05,182896.27,169.39,-3.04,99747.61,257.05,-3.12,34560.63
36900,405.83,888.25,1.00,1,1,1,1563.45,0.06,204581.55,670.02,0.05,122482.57,1306.96,0.07,28824.79,937.49,-3.08,34760.87,266.39,-3.13,433.18
64700,404.73,887.90,1.00,1,1,1,41.55,-2.83,57688.85,520.33,-3.06,42812.81,169.39,-3.04,53103.04,1342.08,-3.09,14558.73,79.38,0.25,12376.28
78700,384.16,886.37,1.00,1,1,1,1473.25,-3.07,102349.96,1335.86,-3.07,58262.97,937.49,-3.08,54872.51,254.97,0.11,114051.74,658.54,0.08,41462.75
100600,356.88,884.66,1.00,1,1,1,1248.07,-3.08,10306.09,1415.41,-3.08,3691.00,1342.08,-3.09,18480.94,257.05,-3.12,23356.04,1353.37,0.07,31730.25
115200,332.58,883.42,1.00,1,1,1,1666.49,-3.09,28682.74,1350.10,-3.10,4710.23,1011.84,-3.10,22652.35,266.39,-3.13,655.70,2039.06,0.05,46996.98
129300,318.16,883.05,1.00,1,1,1,1022.69,-3.12,45717.74,503.28,3.12,60161.57,387.97,3.11,44356.15,79.38,0.25,24401.46,2548.45,0.04,36187.63
144100,318.04,883.70,1.00,2,2,2,44.56,1.76,68661.14,559.10,0.14,71557.56,535.15,0.12,62193.65,658.54,0.08,39221.52,1589.62,0.04,64787.46
158600,334.39,885.33,1.00,2,2,2,1133.14,0.10,78496.92,1347.81,0.08,54502.79,1216.31,0.08,47044.25,1353.37,0.07,47923.63,1424.25,0.03,11457.50
180900,367.47,887.77,1.00,1,1,1,1487.56,0.07,15965.01,1592.39,0.07,11017.71,2027.16,0.06,36378.03,2039.06,0.05,30769.32,1397.22,0.03,1213.26
209900,415.90,890.74,1.00,2,2,2,1673.05,0.06,6431.78,2608.87,0.05,35061.41,2523.92,0.06,17133.08,2548.45,0.04,17594.67,1568.44,0.04,5943.52
223900,479.49,893.84,1.00,2,2,2,4547.50,0.05,205332.84,3893.30,0.05,91745.36,3291.04,0.04,54878.95,2924.10,0.03,26902.45,1761.82,0.05,13862.02
244800,551.58,898.01,1.00,1,1,1,3455.15,0.06,52295.14,4106.16,0.04,10751.10,4219.81,0.03,44544.81,3096.24,0.03,8263.23,1899.94,0.06,6695.58
259900,627.22,899.09,1.00,1,1,1,5009.56,0.01,103642.35,4610.83,-0.00,35041.60,4037.68,0.01,12861.00,3064.28,0.02,2137.91,2029.39,0.06,8576.35
274200,687.14,897.88,1.00,1,1,1,4191.18,-0.02,58281.83,3954.80,-0.02,46373.10,3944.88,-0.01,7770.77,3245.22,0.03,12799.24,2083.28,0.06,3799.45
288300,739.50,896.43,1.00,1,1,1,3715.13,-0.03,33826.80,3269.86,-0.01,48676.24,2789.26,-0.00,81960.07,2996.41,0.04,17739.30,2235.48,0.06,10812.23
303200,781.96,896.79,1.00,1,1,1,2849.51,0.01,58624.17,1878.97,0.03,93587.31,2278.41,0.04,35263.40,2471.13,0.06,35361.98,2400.83,0.06,11101.62
324600,807.68,898.39,1.00,1,1,1,1204.30,0.06,77019.66,1487.00,0.15,20459.29,1976.85,0.10,15247.31,2019.86,0.07,21154.34,2623.44,0.07,10471.10
339000,834.63,904.50,1.00,1,1,1,1919.12,0.22,52462.57,2112.83,0.19,43756.34,1406.67,0.18,40651.15,1658.52,0.09,25155.33,2823.21,0.08,14043.25
353700,868.09,909.80,1.00,1,1,1,2304.84,0.16,27887.60,1342.65,0.22,52509.05,1410.17,0.20,1200.32,1610.80,0.10,3441.92,2784.18,0.09,3770.61
382800,892.06,917.17,1.00,2,2,2,861.53,0.30,50067.17,1003.76,0.21,11654.24,1232.00,0.14,6627.59,1792.95,0.10,6278.60,2629.67,0.11,5459.30
404000,917.52,920.12,1.00,2,2,2,1209.00,0.12,18602.06,1141.79,0.06,9875.37,1353.45,0.09,6488.87,2228.10,0.12,20584.88,2313.10,0.13,15173.93
432500,948.71,920.50,1.00,2,2,2,1094.42,0.01,5789.26,1778.72,0.01,22470.54,2161.61,0.06,28421.85,2483.76,0.13,8987.17,1949.10,0.16,12965.20
446700,993.46,921.02,1.00,1,1,1,3152.13,0.01,144909.10,3601.53,0.06,128613.31,3061.12,0.09,63575.14,2615.41,0.14,9600.25,1457.26,0.21,35104.87
467700,1075.28,927.66,1.00,1,1,1,3908.71,0.08,37838.66,4599.42,0.12,49161.37,4304.13,0.12,59523.38,2781.78,0.15,7960.34,963.50,0.29,23916.10
482500,1156.91,940.99,1.00,1,1,1,5588.60,0.16,116345.46,5171.90,0.18,43142.32,4447.39,0.17,15693.69,2617.13,0.17,12149.97,609.66,0.42,24949.55
496800,1223.36,954.54,1.00,1,1,1,4742.64,0.20,60821.24,4268.71,0.22,64845.18,3624.27,0.22,59557.89,2319.73,0.22,22506.60,249.78,0.94,28782.53
510900,1275.10,967.95,1.00,4,4,4,3790.97,0.25,69315.09,2347.30,0.29,137140.29,2107.57,0.33,109849.47,1305.87,0.37,74078.45,277.66,2.63,28035.40
531800,1302.01,978.26,1.00,4,4,4,1378.99,0.37,116058.30,528.60,1.13,97203.63,551.10,1.15,85091.39,372.35,1.74,61429.75,582.08,3.04,16469.67
545800,1282.98,984.63,1.00,4,4,4,1434.02,2.82,189133.96,2290.37,3.01,178902.20,1668.35,3.00,135254.59,1290.42,2.96,86863.08,881.16,3.14,22011.38
560200,1237.49,986.49,1.00,4,4,4,3161.29,3.10,126942.45,3471.41,3.14,85673.08,2978.35,3.13,93284.76,2408.23,3.11,79690.41,1199.68,-3.10,22306.20
581800,1158.00,984.67,1.00,4,4,4,3680.87,-3.12,26077.78,3376.12,-3.11,7316.59,3856.27,-3.11,41216.66,3209.95,-3.11,38061.29,1362.75,-3.09,7609.79
610900,1066.44,980.24,1.00,4,4,4,3150.39,-3.09,18470.86,4174.89,-3.08,27608.17,4507.06,-3.08,22626.68,3724.84,-3.07,18233.57,1682.11,-3.08,10978.14
625700,975.05,973.78,1.00,4,4,4,6190.06,-3.07,205490.78,6487.16,-3.06,156399.10,4620.58,-3.05,12482.14,3995.54,-3.04,19833.51,1764.94,-3.07,5780.25
639900,878.91,965.23,1.00,4,4,4,6797.35,-3.05,43557.98,5180.06,-3.02,93712.36,4487.13,-3.02,14239.09,4007.02,-3.02,6598.66,1855.42,-3.06,6408.56
661000,793.57,951.36,1.00,1,1,1,4097.33,-2.98,129241.03,3337.38,-2.97,87926.01,4153.55,-2.98,17656.10,3409.98,-2.99,28567.48,1911.44,-3.05,2931.32
690000,714.25,936.16,1.00,1,1,1,2785.02,-2.95,45370.54,3324.37,-2.93,4503.54,3526.88,-2.93,22396.16,3180.59,-2.98,8165.52,2006.22,-3.04,3415.57
704300,652.91,920.82,1.00,1,1,1,4422.00,-2.90,115288.23,3858.52,-2.89,38822.45,2404.63,-2.91,78702.16,2188.94,-2.95,69481.68,1943.91,-3.02,5188.76
719300,604.88,907.53,1.00,1,1,1,3321.91,-2.87,73614.83,1619.61,-2.86,149299.65,1895.80,-2.88,34063.68,1444.83,-2.92,49748.57,1729.27,-3.00,14459.45
754900,574.07,898.44,1.00,1,1,1,902.43,-2.85,67967.76,754.80,-2.88,24295.01,673.43,-2.83,34372.12,816.45,-2.86,17756.79,1430.10,-2.98,8447.76
769700,568.17,897.55,1.00,1,1,1,402.90,-2.99,34215.40,271.10,0.12,69177.59,180.34,0.04,57332.45,330.89,-2.64,33653.34,1178.13,-2.95,17231.97
805800,587.77,900.11,1.00,1,1,1,547.38,0.13,26322.39,1089.17,0.19,22685.37,1029.80,0.16,23575.33,137.82,-0.69,11184.95,818.48,-2.89,10092.15
821200,623.25,908.19,1.00,1,1,1,2362.91,0.22,118097.45,2313.15,0.16,79525.86,1256.55,0.13,14822.89,458.91,-0.02,23448.39,451.95,-2.74,24491.56
835900,656.46,911.49,1.00,1,1,1,2270.24,0.10,20652.36,1566.18,0.06,52492.46,1423.61,0.08,12284.04,730.02,0.08,18836.41,169.34,-2.19,21765.68
849700,667.80,910.98,1.00,1,1,1,822.59,-0.05,105869.60,511.28,-0.33,80473.23,902.25,-0.03,38944.20,838.14,0.08,7836.25,255.18,-0.39,24475.52
863700,669.91,906.92,1.00,1,1,1,327.23,-1.09,51194.40,394.73,-0.34,8332.06,428.77,-0.11,33992.32,995.82,0.07,11328.02,494.98,-0.10,18618.81
885300,681.05,906.31,1.00,1,1,1,516.42,-0.05,20789.34,394.49,0.05,7003.05,415.59,-0.07,969.66,841.49,0.00,7650.20,715.39,-0.01,10490.56
913700,689.61,907.85,1.00,1,1,1,306.35,0.18,8072.99,453.44,0.12,2366.44,682.67,0.04,9628.42,740.27,-0.04,3711.07,917.65,0.02,7172.92
927700,700.13,908.68,1.00,1,1,1,753.48,0.08,32114.87,1179.59,0.03,52074.79,793.03,0.03,7892.56,825.72,-0.03,6105.85,1019.38,0.02,7276.19
942700,723.80,909.03,1.00,1,1,1,1578.30,0.01,55186.93,1188.54,-0.01,3460.10,1114.54,-0.00,21541.91,921.34,-0.01,6576.07,1101.70,-0.00,5637.85
964400,743.75,908.31,1.00,2,2,2,919.77,-0.04,30478.33,1063.53,-0.04,5930.34,1318.36,-0.02,9435.74,1011.49,-0.01,4154.34,956.92,-0.04,6887.47
978800,762.17,907.66,1.00,2,2,2,1280.16,-0.04,25026.92,1486.88,-0.03,29404.98,1215.07,-0.04,7331.26,1126.06,-0.02,8050.98,896.58,-0.06,4385.96
992700,785.81,907.08,1.00,3,3,3,1701.08,-0.02,30303.21,1407.69,-0.04,5742.20,1279.76,-0.03,4657.91,1220.50,-0.04,6892.57,830.65,-0.07,4772.60
1007200,802.12,906.21,1.00,3,3,3,1126.70,-0.05,39704.18,1118.76,-0.04,19927.64,1135.80,-0.04,9933.72,1205.86,-0.06,1983.22,701.48,-0.06,8923.03
1029100,826.50,905.50,1.00,1,1,1,1113.62,-0.03,1345.05,984.99,-0.04,6107.95,1141.40,-0.05,780.07,1062.25,-0.07,6583.72,598.99,-0.07,4684.71
1058400,852.52,904.23,1.00,1,1,1,888.94,-0.05,7696.78,1160.41,-0.06,6048.02,1198.82,-0.07,2130.28,1037.52,-0.07,872.94,489.46,-0.09,3767.65
1072800,877.11,902.32,1.00,1,1,1,1713.17,-0.08,57291.87,1579.73,-0.11,29458.07,913.21,-0.10,19933.31,835.92,-0.10,14090.02,322.46,-0.14,11666.40
1087300,897.89,899.21,1.00,1,1,1,1449.17,-0.15,19762.60,699.32,-0.15,60802.87,940.38,-0.12,2174.62,528.55,-0.13,21252.67,120.99,-0.36,14232.57
1122900,911.73,896.92,1.00,1,1,1,393.94,-0.16,29643.26,573.10,-0.13,3574.11,530.92,-0.20,11615.99,261.70,-0.26,7612.45,89.41,-2.68,5424.45
1137600,926.48,895.49,1.00,1,1,1,1008.11,-0.10,41880.33,248.18,-0.42,23313.88,56.89,-1.84,36588.62,116.60,-2.58,23922.94,257.81,-3.00,11921.89
1152000,918.33,893.98,1.00,1,1,1,575.89,-2.96,109005.49,608.98,-3.08,58138.73,528.81,-3.07,35600.05,478.14,-3.05,26241.85,408.69,-3.06,10569.04
1187100,896.39,893.74,1.00,2,2,2,625.10,-3.13,3256.77,969.02,-3.14,10334.18,1141.81,-3.13,17514.27,846.10,-3.12,10553.78,499.99,-3.08,2615.87
1201700,870.17,893.94,1.00,2,2,2,1795.98,3.13,80209.47,2056.13,3.13,74469.68,1404.66,3.13,18095.33,1345.16,-3.14,34219.29,543.82,-3.10,3034.08
1216000,836.97,894.43,1.00,1,1,1,2321.76,3.13,36781.48,2018.12,3.13,2723.64,2127.46,3.13,50549.76,1694.73,3.14,24461.11,538.47,-3.11,570.42
1237000,798.93,895.07,1.00,1,1,1,1811.37,3.12,24304.94,2185.06,3.13,7949.31,2352.23,3.13,10703.77,1727.97,3.13,1670.70,416.92,-3.13,5803.71
1251800,758.75,895.72,1.00,1,1,1,2715.29,3.13,61075.87,2763.16,3.13,39061.65,2373.44,3.13,1437.53,1936.13,3.13,14067.92,846.10,-3.12,29000.52
1265700,719.64,896.28,1.00,1,1,1,2814.13,3.13,7121.79,2613.45,3.13,10778.51,2154.06,3.13,15784.22,1511.25,3.12,30569.56,1345.16,-3.14,35942.57
1279900,685.32,896.69,1.00,1,1,1,2417.01,3.13,27970.20,1665.76,3.13,66738.95,1740.88,3.13,29096.85,1001.48,3.11,35909.27,1694.73,3.14,24633.37
1301500,660.01,896.95,1.00,1,1,1,1171.89,3.13,57644.34,1046.29,3.13,28679.44,821.22,3.12,42578.71,350.60,3.04,30207.57,1727.97,3.13,1624.29
1315200,648.39,897.18,1.00,1,1,1,848.29,3.12,23628.99,105.54,3.00,68733.95,29.96,0.75,61531.30,1740.88,3.13,101612.22,1936.13,3.13,15197.46
1343700,655.60,897.56,1.00,1,1,1,253.26,0.05,38632.87,770.42,0.03,30688.64,1140.98,0.04,39245.42,821.22,3.12,32270.18,1511.25,3.12,14909.36
1365600,687.20,898.44,1.00,1,1,1,1443.53,0.03,54354.92,2600.39,0.03,83560.35,770.42,0.03,16921.65,29.96,0.75,38492.18,1001.48,3.11,23283.64
1379700,749.17,900.27,1.00,1,1,1,4397.21,0.03,209481.05,4397.21,0.03,127434.31,2600.39,0.03,129785.23,1140.98,0.04,79325.85,350.60,3.04,46275.42
