@RELATION gaze_labels

%@METADATA width_px 1920
%@METADATA height_px 1080
%@METADATA width_mm 540.00
%@METADATA height_mm 254.00
%@METADATA distance_mm 620.00


@ATTRIBUTE time INTEGER
@ATTRIBUTE x NUMERIC
@ATTRIBUTE y NUMERIC
@ATTRIBUTE confidence NUMERIC
@ATTRIBUTE handlabeller1 INTEGER
@ATTRIBUTE handlabeller2 INTEGER
@ATTRIBUTE handlabeller_final INTEGER
@ATTRIBUTE speed_1 numeric
@ATTRIBUTE direction_1 numeric
@ATTRIBUTE acceleration_1 numeric
@ATTRIBUTE speed_2 numeric
@ATTRIBUTE direction_2 numeric
@ATTRIBUTE acceleration_2 numeric
@ATTRIBUTE speed_4 numeric
@ATTRIBUTE direction_4 numeric
@ATTRIBUTE acceleration_4 numeric
@ATTRIBUTE speed_8 numeric
@ATTRIBUTE direction_8 numeric
@ATTRIBUTE acceleration_8 numeric
@ATTRIBUTE speed_16 numeric
@ATTRIBUTE direction_16 numeric
@ATTRIBUTE acceleration_16 numeric

%The number after speed, direction denotes the step size that was used for the calculation.
%Acceleration was calculated between two adjacent samples of the already low pass filtered velocity

@DATA
0,213.87,893.33,1.00,1,1,1,0.00,0.00,0.00,620.71,2.82,0.00,526.47,2.84,0.00,439.19,2.93,0.00,403.74,3.00,0.00
14000,205.64,896.11,1.00,1,1,1,620.71,2.82,44336.09,526.47,2.84,6814.46,426.83,2.93,7769.44,428.67,3.01,2651.72,314.66,3.01,6373.18
28400,199.58,897.75,1.00,1,1,1,435.34,2.88,13066.31,426.83,2.93,7553.62,439.19,2.93,864.16,460.26,3.06,2656.53,211.52,2.98,7186.84
43200,193.44,898.69,1.00,1,1,1,419.88,2.99,3409.14,373.78,3.03,4409.82,428.67,3.01,2508.39,387.21,3.08,4953.44,54.77,2.51,11121.77
64400,186.21,899.26,1.00,1,1,1,342.00,3.06,3892.03,432.10,3.08,2890.00,460.26,3.06,1804.44,403.74,3.00,1669.03,277.08,0.11,15066.95
79100,177.96,899.71,1.00,1,1,1,562.12,3.09,14992.71,566.58,3.09,9156.47,387.21,3.08,4987.13,314.66,3.01,6069.69,667.98,0.04,26674.40
93800,169.58,900.17,1.00,1,1,1,571.05,3.09,609.51,350.59,3.08,14697.42,374.36,3.06,919.94,211.52,2.98,7040.17,1057.32,0.02,26505.82
123100,162.57,900.72,1.00,1,1,1,240.02,3.06,11301.92,246.15,3.03,3593.18,221.88,3.01,5234.24,54.77,2.51,5617.82,1388.05,0.01,11299.08
137800,158.82,901.37,1.00,1,1,1,259.10,2.97,2040.55,71.80,2.59,12507.31,32.89,1.71,14655.24,277.08,0.11,21729.21,700.65,0.04,46809.62
159100,160.37,902.08,1.00,1,1,1,80.23,0.43,15420.78,290.87,0.13,16399.58,382.15,0.11,18051.69,667.98,0.04,18409.09,820.72,0.01,5719.09
173900,169.22,902.78,1.00,1,1,1,599.90,0.08,35489.44,938.09,0.05,43836.52,1012.83,0.03,42728.44,1057.32,0.02,26326.73,1011.69,0.01,12909.34
187600,187.07,903.38,1.00,1,1,1,1303.88,0.03,51468.74,1929.56,0.01,72449.52,1759.67,0.01,54547.66,1388.05,0.01,24165.19,1131.21,0.00,8740.95
202400,224.21,903.56,1.00,2,2,2,2509.08,0.00,81508.36,2401.76,0.00,31944.79,2375.35,0.01,41615.26,1742.82,0.00,23990.82,1311.31,-0.00,12179.31
224100,274.74,903.66,1.00,2,2,2,2328.58,0.00,8323.38,2728.35,0.00,15052.79,2197.68,-0.00,8240.06,1849.72,-0.01,4979.44,1401.89,-0.02,4227.00
238400,322.43,903.63,1.00,2,2,2,3335.01,-0.00,70381.86,2027.70,-0.01,49026.96,2327.74,-0.01,9158.93,2126.32,-0.01,19342.61,1500.93,-0.02,6943.83
267900,363.55,902.80,1.00,1,1,1,1394.13,-0.02,65808.28,2005.38,-0.02,1133.82,1911.98,-0.02,14115.92,2097.81,-0.01,1009.09,1661.33,-0.02,5439.11
283100,412.05,901.65,1.00,1,1,1,3191.70,-0.02,118262.10,1812.63,-0.03,12745.51,1957.11,-0.02,3009.83,2123.42,-0.02,1837.20,1777.71,-0.00,7787.10
318800,455.76,899.82,1.00,1,1,1,1225.57,-0.04,55082.91,1914.09,-0.01,3016.07,2013.77,-0.02,1587.74,2008.31,-0.03,3325.54,1934.42,0.01,4463.22
333200,507.94,900.42,1.00,1,1,1,3623.37,0.01,166696.58,2244.75,-0.01,22990.19,1950.65,-0.02,4425.78,1866.55,-0.04,9925.39,2094.09,0.03,11325.82
363200,555.43,899.31,1.00,1,1,1,1583.51,-0.02,68051.79,1991.29,-0.03,8672.83,2120.99,-0.04,5800.68,1908.68,-0.04,1429.60,2197.94,0.04,3649.14
378500,598.09,897.45,1.00,2,2,2,2791.15,-0.04,78979.78,1975.20,-0.09,7245.38,1762.15,-0.07,23735.83,1809.49,-0.01,7185.23,2166.04,0.06,3067.78
399900,627.64,892.92,1.00,2,2,2,1396.65,-0.15,65925.00,1477.43,-0.13,23502.54,1756.26,-0.06,448.42,2027.81,0.03,10785.10,2147.76,0.07,1584.52
414400,650.68,890.55,1.00,3,3,3,1597.75,-0.10,14772.41,1476.23,-0.02,10816.91,1601.03,0.01,13947.07,2061.70,0.07,5693.55,2085.68,0.08,4606.59
428400,669.70,891.91,1.00,1,1,1,1361.65,0.07,24875.66,1795.42,0.16,31332.35,1926.30,0.12,27133.04,2342.80,0.11,21207.86,2136.67,0.09,3779.23
442900,701.19,898.75,1.00,1,1,1,2222.65,0.21,61795.62,2298.84,0.20,35127.76,2478.32,0.19,39216.66,2234.49,0.15,9569.96,2067.30,0.09,4786.75
464700,751.50,908.41,1.00,1,1,1,2349.78,0.19,6359.85,3022.67,0.20,33203.32,2978.44,0.21,23167.38,2345.21,0.18,6147.74,2129.91,0.09,2916.72
478700,807.26,920.16,1.00,1,1,1,4070.76,0.21,122990.69,3853.74,0.22,59652.82,2768.25,0.21,15020.18,2388.78,0.20,4910.26,2043.78,0.07,6494.65
492900,857.47,932.47,1.00,4,4,4,3640.81,0.24,31567.51,2557.74,0.22,91268.38,2694.07,0.21,5246.75,2424.47,0.20,2515.08,1944.20,0.06,7318.98
521900,915.05,944.47,1.00,4,4,4,2027.99,0.21,55711.89,2046.71,0.20,17687.44,2316.56,0.22,13020.54,2374.82,0.18,2595.93,1657.32,0.04,9929.61
543400,958.72,953.26,1.00,4,4,4,2072.00,0.20,2145.04,2027.27,0.21,1064.26,1970.19,0.19,16339.59,2240.89,0.14,7492.13,1527.60,0.04,6065.32
557900,986.45,959.57,1.00,4,4,4,1961.32,0.22,8388.12,1833.65,0.16,14702.64,1894.08,0.12,10493.45,2025.66,0.08,17280.32,1290.11,0.02,16412.39
571500,1009.57,961.58,1.00,4,4,4,1706.35,0.09,26280.22,1747.75,-0.01,23487.59,1709.85,-0.00,21217.36,1620.80,-0.00,31783.90,979.71,0.01,22859.80
585900,1035.39,959.08,1.00,4,4,4,1801.10,-0.10,23204.23,1649.28,-0.15,17412.66,1736.75,-0.15,17480.86,1178.53,-0.13,32968.72,714.40,-0.01,18463.18
607400,1068.15,952.97,1.00,1,1,1,1550.22,-0.18,13525.09,1751.21,-0.26,9863.25,1361.31,-0.29,20047.35,859.21,-0.33,17664.41,418.19,-0.08,13875.93
621800,1096.22,943.20,1.00,1,1,1,2063.67,-0.33,40254.52,1148.70,-0.46,46234.22,813.31,-0.51,41393.98,501.63,-0.86,34328.93,121.92,-0.48,21499.93
650000,1112.10,931.45,1.00,1,1,1,700.66,-0.64,50009.05,400.74,-1.18,31528.62,509.99,-1.19,18577.02,397.29,-1.92,16431.26,230.64,-2.73,11410.51
685200,1105.90,919.71,1.00,1,1,1,376.94,-2.06,21133.10,685.97,-2.44,19293.45,784.05,-2.51,23375.46,680.89,-2.60,12707.95,575.71,-2.91,9971.48
700100,1085.93,909.17,1.00,1,1,1,1515.76,-2.66,82085.54,2421.66,-2.86,122062.29,1313.95,-2.86,42897.00,1128.36,-2.86,33618.29,860.05,-2.95,19180.59
714500,1037.73,900.06,1.00,2,2,2,3406.95,-2.95,139501.53,2018.11,-3.00,35171.03,2215.53,-3.01,64986.42,1445.59,-2.98,24702.33,1013.21,-2.96,10670.84
750500,985.25,894.75,1.00,2,2,2,1465.19,-3.04,54201.61,2120.50,-3.10,6658.20,2585.22,-3.09,11606.13,1974.28,-3.05,15066.89,1076.73,-2.97,1801.75
764800,931.14,896.07,1.00,1,1,1,3784.85,3.12,163514.97,3619.90,3.11,105786.60,2291.47,3.13,23243.56,2533.86,-3.10,39719.88,1159.18,-2.99,5930.39
778900,882.51,898.35,1.00,1,1,1,3453.06,3.09,24230.53,2544.21,3.07,76626.34,3084.09,3.10,56513.61,2672.78,-3.13,11372.70,1233.94,-3.01,5658.31
799900,842.05,902.17,1.00,1,1,1,1935.15,3.05,72514.32,2650.69,3.09,5613.52,2953.91,3.10,6206.33,2386.86,3.13,13946.52,1278.37,-3.04,2651.19
814000,789.58,902.90,1.00,1,1,1,3721.62,3.13,127614.65,3460.98,3.13,57970.80,2787.47,3.11,11918.88,2232.02,3.11,11367.76,1357.21,-3.07,6147.13
828400,743.42,903.49,1.00,1,1,1,3205.78,3.13,35823.13,2960.01,3.13,34791.23,2514.54,3.13,19300.30,1860.37,3.11,25808.48,1454.26,-3.09,7151.19
842000,706.70,903.87,1.00,1,1,1,2699.80,3.13,37207.70,1750.43,3.13,88941.40,1540.63,3.13,71612.32,1388.18,3.12,34726.36,1473.19,-3.11,2656.18
863700,681.63,904.03,1.00,1,1,1,1155.44,3.14,71169.36,748.96,3.14,46151.78,965.75,3.14,26494.39,1077.58,3.14,14366.28,2386.86,3.13,42233.56
892200,669.11,903.95,1.00,1,1,1,439.49,-3.14,25122.78,312.64,-3.11,15317.77,352.31,-3.12,21531.01,648.30,-3.12,15072.65,2232.02,3.11,5624.05
906100,668.38,903.66,1.00,1,1,1,56.29,-2.76,27892.79,218.06,-0.11,38098.02,95.46,-0.22,32051.97,370.98,-3.07,20039.32,1860.37,3.11,26736.84
927200,676.69,903.15,1.00,1,1,1,394.83,-0.06,21152.30,573.35,-0.06,16854.29,439.02,-0.09,16328.85,346.90,-3.02,1434.04,1388.18,3.12,22382.87
942000,688.92,902.39,1.00,1,1,1,827.85,-0.06,29257.59,702.99,-0.09,8840.69,347.27,-0.17,6547.81,95.46,-0.22,29593.59,1077.58,3.14,21064.07
956500,697.21,901.30,1.00,1,1,1,576.34,-0.13,17645.83,107.52,-1.00,44326.47,344.94,-2.89,46664.57,439.02,-0.09,23761.29,648.30,-3.12,29625.55
971100,690.61,899.75,1.00,1,1,1,464.20,-2.91,70126.78,1171.28,-3.05,83886.94,107.52,-1.00,26860.70,347.27,-0.17,6637.51,370.98,-3.07,19078.53
992900,654.74,897.52,1.00,1,1,1,1648.54,-3.08,54744.80,1648.54,-3.08,21958.08,1171.28,-3.05,56181.16,344.94,-2.89,31038.36,346.90,-3.02,1387.99
