@RELATION gaze_labels

%@METADATA width_px 1920
%@METADATA height_px 1080
%@METADATA width_mm 540.00
%@METADATA height_mm 254.00
%@METADATA distance_mm 620.00


@ATTRIBUTE time INTEGER
@ATTRIBUTE x NUMERIC
@ATTRIBUTE y NUMERIC
@ATTRIBUTE confidence NUMERIC
@ATTRIBUTE handlabeller1 INTEGER
@ATTRIBUTE handlabeller2 INTEGER
@ATTRIBUTE handlabeller_final INTEGER
@ATTRIBUTE speed_1 numeric
@ATTRIBUTE direction_1 numeric
@ATTRIBUTE acceleration_1 numeric
@ATTRIBUTE speed_2 numeric
@ATTRIBUTE direction_2 numeric
@ATTRIBUTE acceleration_2 numeric
@ATTRIBUTE speed_4 numeric
@ATTRIBUTE direction_4 numeric
@ATTRIBUTE acceleration_4 numeric
@ATTRIBUTE speed_8 numeric
@ATTRIBUTE direction_8 numeric
@ATTRIBUTE acceleration_8 numeric
@ATTRIBUTE speed_16 numeric
@ATTRIBUTE direction_16 numeric
@ATTRIBUTE acceleration_16 numeric

%The number after speed, direction denotes the step size that was used for the calculation.
%Acceleration was calculated between two adjacent samples of the already low pass filtered velocity

@DATA
0,41.56,902.25,1.00,1,1,1,0.00,0.00,0.00,3257.15,0.02,0.00,2395.41,0.01,0.00,1020.59,-0.01,0.00,271.14,-0.03,0.00
28400,134.05,903.98,1.00,1,1,1,3257.15,0.02,114688.53,2395.41,0.01,30348.80,456.83,-0.08,68346.58,657.78,-3.05,59029.13,125.60,-3.06,13950.02
50100,161.56,903.77,1.00,2,2,2,1267.94,-0.01,91701.85,456.83,-0.08,89448.97,1020.59,-0.01,26070.32,1413.77,-3.10,34892.82,53.65,0.06,8259.89
64800,150.62,902.63,1.00,2,2,2,748.14,-3.04,136951.74,1373.55,-3.08,124277.69,657.78,-3.05,114042.67,1313.06,-3.11,6961.79,560.26,0.04,34463.71
78900,122.08,901.31,1.00,1,1,1,2026.49,-3.10,90798.98,2085.49,-3.10,50563.44,1413.77,-3.10,53700.30,271.14,-0.03,112324.73,1198.52,0.03,45269.75
93100,91.65,900.28,1.00,1,1,1,2144.16,-3.11,8496.42,1446.58,-3.11,45015.38,1313.06,-3.11,7206.93,125.60,-3.06,27900.04,1650.29,0.02,31823.53
114600,70.46,899.85,1.00,1,1,1,985.91,-3.12,53879.04,714.43,-3.13,34068.81,638.80,-3.13,31376.20,53.65,0.06,8336.73,2290.21,0.02,29763.84
129600,65.58,900.11,1.00,1,1,1,326.03,3.09,44080.36,347.12,0.12,70675.67,307.52,0.09,63039.59,560.26,0.04,33774.44,2725.93,0.02,29049.80
143900,80.56,901.03,1.00,1,1,1,1049.88,0.06,96103.01,1173.96,0.05,57905.09,1061.63,0.04,52766.82,1198.52,0.03,44636.61,1756.87,0.01,67774.70
172600,116.00,902.48,1.00,1,1,1,1235.87,0.04,6532.41,1386.16,0.04,7410.26,1865.52,0.03,28014.48,1650.29,0.02,15745.44,1625.78,0.00,4608.16
208500,170.05,904.25,1.00,2,2,2,1506.33,0.03,7540.36,2460.38,0.03,29924.54,2479.82,0.03,17119.17,2290.21,0.02,17825.14,1673.02,0.00,1315.65
222600,238.97,906.07,1.00,2,2,2,4889.52,0.03,239945.59,4950.38,0.02,176612.64,2715.21,0.02,16785.72,2725.93,0.02,30904.04,1773.68,0.01,7162.75
237100,311.60,906.97,1.00,2,2,2,5009.79,0.01,9565.17,2968.90,0.01,136701.38,3752.82,0.01,71561.90,2998.66,0.02,18823.10,1845.00,0.01,4987.13
272900,388.30,906.90,1.00,1,1,1,2142.38,-0.00,80104.80,3072.00,0.01,2884.77,3737.94,0.01,530.76,3163.50,0.00,4697.68,1901.34,0.02,1651.78
287400,466.12,908.15,1.00,1,1,1,5367.57,0.02,222462.74,5081.19,0.01,138577.85,3611.04,0.01,8786.65,3474.42,0.00,21459.62,2053.98,0.03,10618.49
301700,534.62,909.03,1.00,1,1,1,4790.81,0.01,40348.73,4555.79,0.01,36850.79,3867.75,-0.01,18393.55,3121.55,0.00,24676.78,2189.20,0.04,9542.63
316100,596.87,908.95,1.00,1,1,1,4322.63,-0.00,32821.59,2874.81,-0.04,117352.18,3129.39,-0.02,51323.27,2532.12,0.00,40942.78,2289.26,0.05,6969.75
336800,635.44,904.82,1.00,1,1,1,1874.02,-0.11,119171.15,1956.12,-0.06,44449.40,2348.34,-0.02,37733.31,2219.00,0.02,15272.23,2414.53,0.04,6061.73
350900,664.81,904.64,1.00,1,1,1,2082.65,-0.01,20425.38,1688.72,0.03,22241.94,1312.77,-0.00,73476.95,1768.43,0.05,32206.72,2503.93,0.04,6454.31
364700,682.54,906.09,1.00,1,1,1,1289.28,0.08,58417.93,688.71,0.17,73319.70,878.95,0.14,33236.93,1544.05,0.09,16883.48,2310.94,0.03,14031.20
386000,688.63,908.73,1.00,2,2,2,311.79,0.41,46910.36,447.27,0.37,12443.52,704.98,0.30,10168.63,1475.08,0.11,3699.96,2020.83,0.03,13621.36
415000,703.54,914.17,1.00,2,2,2,547.06,0.35,8157.48,726.11,0.40,9635.37,940.81,0.31,8134.20,1560.09,0.13,3033.60,1972.33,0.05,1971.97
430100,718.14,921.17,1.00,2,2,2,1072.50,0.45,35147.13,1790.07,0.28,71015.78,1631.91,0.20,46636.41,1540.09,0.11,2215.32,1653.96,0.07,21244.11
444300,753.92,928.74,1.00,2,2,2,2575.62,0.21,109465.02,2794.25,0.13,74486.56,2388.52,0.13,54192.92,1545.50,0.08,3212.02,1494.68,0.10,11834.31
465200,815.35,934.16,1.00,2,2,2,2950.75,0.09,23956.06,2916.54,0.05,13022.00,2607.42,0.05,13991.15,1538.53,0.07,1027.17,1315.10,0.14,9041.82
479300,855.88,933.60,1.00,2,2,2,2874.83,-0.01,21719.76,2404.02,-0.07,42773.63,2270.24,-0.02,26835.96,1727.78,0.07,13429.50,1309.95,0.18,3854.50
493300,882.73,929.26,1.00,2,2,2,1942.25,-0.16,71022.63,1646.75,-0.14,55018.11,1472.56,-0.07,57392.25,1554.23,0.08,12436.70,1362.72,0.20,4130.17
514500,913.26,925.32,1.00,4,4,4,1451.95,-0.13,23260.47,948.03,-0.08,33192.15,1192.44,-0.01,13752.46,1451.80,0.11,5262.32,1425.73,0.20,2976.01
543200,929.90,925.64,1.00,4,4,4,579.94,0.02,30750.69,850.87,0.19,9079.72,891.24,0.14,11919.16,1177.33,0.17,9971.31,1572.38,0.19,5133.98
557600,949.24,932.37,1.00,4,4,4,1422.39,0.33,61753.42,882.22,0.38,11477.09,880.98,0.37,14049.81,1114.83,0.25,7139.50,1713.45,0.18,10014.10
593300,970.93,942.08,1.00,4,4,4,665.49,0.42,21332.94,927.76,0.51,3596.08,1014.92,0.47,4621.62,1231.83,0.29,3604.36,1705.11,0.15,1519.48
607800,989.81,955.25,1.00,4,4,4,1587.73,0.61,64982.56,1175.31,0.56,17334.32,1110.78,0.46,6700.50,1341.53,0.33,8155.43,1596.42,0.10,8934.52
637000,1014.57,969.16,1.00,4,4,4,972.59,0.51,21472.01,1294.65,0.42,6971.82,1679.71,0.39,19768.43,1628.92,0.31,9866.59,1538.19,0.06,2913.00
658400,1049.58,982.06,1.00,4,4,4,1743.57,0.35,37294.89,2325.78,0.29,49420.76,1883.83,0.30,12083.44,1716.15,0.27,5234.41,1417.14,0.03,6206.46
672900,1094.67,992.71,1.00,4,4,4,3195.50,0.23,102052.54,2945.43,0.20,45164.34,2549.87,0.22,47555.85,1882.67,0.20,14085.99,1316.30,-0.01,7563.10
687300,1132.92,999.39,1.00,4,4,4,2696.20,0.17,36711.45,2842.88,0.15,13492.42,2836.60,0.14,24714.89,1746.21,0.09,16723.11,1191.90,-0.03,8961.74
701700,1175.65,1004.78,1.00,4,4,4,2991.14,0.13,22499.35,2740.05,0.07,17095.17,2201.57,0.03,48004.77,1987.60,-0.02,22026.83,1054.07,-0.06,9818.69
715900,1211.10,1004.70,1.00,4,4,4,2496.64,-0.00,42643.92,1721.51,-0.13,77691.75,1691.90,-0.14,42468.66,1855.24,-0.14,19026.38,856.22,-0.10,14145.99
737400,1236.61,996.96,1.00,4,4,4,1239.73,-0.29,63130.51,1168.71,-0.41,31888.45,1653.19,-0.32,14104.12,1557.90,-0.30,18845.05,655.48,-0.17,9650.78
765800,1264.48,981.21,1.00,1,1,1,1127.28,-0.51,9948.20,1644.59,-0.48,17103.27,1371.39,-0.53,15101.81,1251.75,-0.51,14783.55,405.16,-0.37,9572.85
779700,1298.16,964.54,1.00,1,1,1,2703.39,-0.46,113596.91,1680.67,-0.65,19731.37,1270.73,-0.78,24959.19,844.81,-0.90,41368.80,215.14,-1.24,22403.35
801100,1311.77,945.38,1.00,1,1,1,1098.28,-0.95,84704.55,1080.84,-1.34,51301.65,1135.98,-1.23,25649.88,658.33,-1.57,24416.27,390.23,-2.44,17417.06
815500,1306.83,926.83,1.00,1,1,1,1332.61,-1.83,73195.87,1400.19,-2.19,73479.67,1040.01,-2.22,72053.38,725.23,-2.26,32494.36,738.55,-2.73,26481.98
829600,1288.62,912.87,1.00,1,1,1,1627.69,-2.49,70568.97,1630.96,-2.77,63136.70,1694.28,-2.77,69250.30,1240.85,-2.73,48394.26,969.65,-2.83,17389.90
850700,1253.42,905.80,1.00,1,1,1,1701.70,-2.94,35806.66,2211.54,-3.06,38194.04,1830.08,-3.02,21227.21,1797.81,-2.94,30131.17,1242.13,-2.89,13224.90
864800,1211.02,906.67,1.00,1,1,1,3007.47,3.12,99012.35,2062.50,3.10,20747.00,2374.47,-3.13,42054.79,2255.39,-3.03,35250.95,1386.02,-2.92,10680.64
893600,1165.00,909.18,1.00,2,2,2,1600.29,3.09,48928.48,2515.19,3.10,15718.45,2783.77,3.12,14450.63,2655.16,-3.09,14690.72,1521.40,-2.95,4958.97
907800,1102.95,910.84,1.00,2,2,2,4371.47,3.11,195222.38,3656.22,3.14,80676.56,2693.47,3.14,7177.90,2540.96,-3.12,10144.86,1687.30,-2.99,12590.82
929100,1035.20,909.80,1.00,3,3,3,3180.72,-3.13,56381.16,2848.82,-3.11,38214.61,3484.20,-3.13,37193.68,2706.19,-3.14,7976.40,1712.91,-3.03,3140.30
958000,959.99,906.95,1.00,1,1,1,2604.53,-3.10,20066.18,3342.96,-3.11,17107.18,2672.17,-3.12,28113.50,2481.25,-3.14,7783.41,1744.18,-3.07,2451.23
972000,891.87,905.15,1.00,1,1,1,4867.46,-3.12,161665.52,2491.60,-3.12,60871.14,2641.34,-3.12,2209.45,2481.91,-3.13,1228.03,1623.59,-3.10,9656.27
1007100,837.67,904.58,1.00,1,1,1,1544.07,-3.13,94691.61,2032.37,-3.13,13101.35,2248.66,-3.13,11217.43,2128.43,-3.12,10081.56,1586.75,-3.13,1642.63
1021400,791.47,904.28,1.00,1,1,1,3230.94,-3.14,117965.14,1916.74,3.14,8282.78,1560.77,-3.14,48114.37,1647.19,-3.12,33654.07,1476.09,3.14,7857.67
1043000,768.86,904.88,1.00,1,1,1,1047.06,3.12,101144.04,912.00,3.13,46519.11,1295.46,-3.14,12283.90,1188.95,-3.13,21223.08,1380.48,-3.14,4430.99
1057300,758.73,904.72,1.00,1,1,1,708.41,-3.13,23815.40,523.88,-3.12,27203.55,238.71,3.07,73955.97,553.61,3.12,44463.25,1274.77,-3.13,7422.38
1071900,753.73,904.50,1.00,1,1,1,343.23,-3.10,25030.08,590.92,0.04,76353.61,353.58,0.04,40507.50,284.82,3.08,18447.42,1111.20,-3.12,11232.17
1086500,775.97,905.43,1.00,1,1,1,1525.07,0.04,127965.75,1213.16,0.03,42622.61,761.18,0.05,27920.86,29.02,2.68,17689.67,929.96,-3.12,12414.21
1101400,789.50,905.64,1.00,1,1,1,907.72,0.02,41484.50,898.54,0.05,21156.17,721.89,0.05,2655.65,45.48,0.13,4791.60,720.77,-3.13,14044.88
1122700,808.46,907.07,1.00,1,1,1,892.78,0.08,2626.64,316.91,0.12,27365.23,147.50,0.06,26966.92,93.82,0.06,2281.77,462.27,-3.13,12136.88
1137100,800.73,907.01,1.00,1,1,1,537.00,-3.13,99235.38,477.53,-3.10,55129.73,182.23,3.14,22885.28,47.30,-0.04,3260.32,300.00,3.13,11277.57
1166200,787.71,906.15,1.00,1,1,1,448.40,-3.08,3205.88,590.69,-3.09,3890.52,458.67,-3.10,9511.90,143.49,-3.07,6548.44,126.08,3.12,5977.07
1180600,775.07,905.71,1.00,1,1,1,878.47,-3.11,29898.27,435.55,-3.10,10777.31,510.58,-3.07,3703.55,250.44,-3.10,7438.16,0.48,0.84,8777.19
1201700,772.26,905.49,1.00,1,1,1,133.39,-3.06,35319.98,412.47,-3.04,1598.91,506.99,-3.07,173.79,367.40,-3.08,5547.67,52.55,-0.04,2475.82
1216000,760.54,904.24,1.00,1,1,1,824.30,-3.04,48319.07,596.99,-3.05,12905.11,336.00,-3.06,11959.70,314.50,-3.10,3731.08,106.20,-0.03,3752.54
1230000,755.44,903.88,1.00,1,1,1,364.96,-3.07,32838.13,240.07,-3.11,25554.37,256.56,-3.04,5687.59,238.40,-3.10,5435.83,47.49,-0.17,4255.33
1244100,753.80,904.04,1.00,1,1,1,117.31,3.05,17733.86,6.73,-0.05,17502.37,79.11,2.96,12904.12,42.90,-3.02,13876.64,22.16,-0.51,1961.40
1266600,755.69,903.87,1.00,1,1,1,84.46,-0.09,8967.27,55.16,0.60,2220.74,27.59,0.60,4468.93,14.68,-0.70,2399.58,47.78,-2.74,2835.10
1281100,755.48,905.19,1.00,1,1,1,92.69,1.73,9646.31,56.05,0.69,341.85,189.84,0.06,11498.35,165.15,-0.02,10619.18,42.66,-2.65,454.19
1295400,756.93,904.90,1.00,1,1,1,103.95,-0.20,11318.37,313.46,-0.02,19109.50,229.97,0.01,2891.21,218.37,-0.02,3722.21,39.92,-2.67,196.87
1324100,768.95,904.98,1.00,1,1,1,418.86,0.01,11077.10,337.21,-0.05,891.07,365.97,-0.05,4785.67,251.34,-0.04,1157.49,54.58,-2.87,608.11
1345700,773.88,904.13,1.00,1,1,1,231.30,-0.17,9052.06,429.32,-0.08,4315.70,355.62,-0.06,485.13,251.31,-0.06,219.69,125.42,-3.06,3356.84
1360000,784.31,903.70,1.00,1,1,1,730.42,-0.04,35102.45,377.12,-0.07,3675.09,310.12,-0.10,3347.52,217.81,-0.12,2562.33,177.28,-3.13,3716.44
1388900,790.13,903.02,1.00,1,1,1,202.66,-0.12,18288.65,224.66,-0.13,5307.75,274.05,-0.12,1270.02,133.37,-0.19,2948.34,255.83,3.12,2726.10
1410000,795.46,902.28,1.00,1,1,1,254.81,-0.14,2481.88,150.60,-0.30,3819.73,74.12,-0.49,9795.42,66.52,-2.77,9147.81,335.90,3.11,3796.03
1424100,795.20,901.46,1.00,1,1,1,61.54,-1.88,19287.02,220.39,-2.92,25470.92,199.76,-2.98,18599.62,262.84,-3.10,14243.64,402.84,3.11,4747.70
1438100,789.41,900.95,1.00,1,1,1,414.94,-3.05,28252.37,615.41,-3.11,28634.31,558.12,-3.12,25818.68,522.05,3.14,18557.93,392.00,3.14,993.43
1452800,777.54,900.90,1.00,2,2,2,807.25,-3.14,26887.66,824.82,3.13,14419.23,916.41,3.13,24455.16,841.30,3.12,21736.69,331.18,-3.11,4224.54
1474200,759.64,901.39,1.00,2,2,2,837.05,3.11,1836.33,1161.25,3.11,15752.39,1229.60,3.11,14667.83,1130.52,3.11,13522.57,66.52,-2.77,12587.04
1488200,736.46,902.40,1.00,1,1,1,1656.91,3.10,58578.36,1737.35,3.09,41168.24,1477.87,3.09,17765.19,1194.64,3.10,4597.59,262.84,-3.10,14345.38
1503000,709.66,903.82,1.00,1,1,1,1813.47,3.09,10633.05,1859.25,3.09,8270.20,1761.10,3.09,19143.82,1052.83,3.11,9585.66,522.05,3.14,17554.80
1517600,681.88,905.39,1.00,1,1,1,1905.66,3.09,6331.72,1784.22,3.09,5139.05,1465.16,3.09,20271.42,835.71,3.13,14946.33,841.30,3.12,21885.57
1532600,656.93,906.70,1.00,1,1,1,1666.02,3.09,15983.06,1148.65,3.10,42388.24,908.91,3.11,37114.26,1761.10,3.09,61785.81,1130.52,3.11,19292.21
1554200,639.88,907.16,1.00,1,1,1,789.51,3.11,40601.86,392.97,-3.10,35072.60,315.01,-3.01,27788.88,1465.16,3.09,13701.98,1194.64,3.10,2979.92
1582700,637.25,905.96,1.00,1,1,1,101.30,-2.71,24558.89,421.06,-0.29,28187.97,392.97,-3.10,2979.30,908.91,3.11,19533.82,1052.83,3.11,4977.82
1596900,657.12,902.07,1.00,1,1,1,1425.93,-0.19,106299.87,1425.93,-0.19,70949.56,421.06,-0.29,56574.45,315.01,-3.01,42270.41,835.71,3.13,15367.35
