@RELATION gaze_labels

%@METADATA width_px 1920
%@METADATA height_px 1080
%@METADATA width_mm 540.00
%@METADATA height_mm 254.00
%@METADATA distance_mm 620.00


@ATTRIBUTE time INTEGER
@ATTRIBUTE x NUMERIC
@ATTRIBUTE y NUMERIC
@ATTRIBUTE confidence NUMERIC
@ATTRIBUTE handlabeller1 INTEGER
@ATTRIBUTE handlabeller2 INTEGER
@ATTRIBUTE handlabeller_final INTEGER
@ATTRIBUTE speed_1 numeric
@ATTRIBUTE direction_1 numeric
@ATTRIBUTE acceleration_1 numeric
@ATTRIBUTE speed_2 numeric
@ATTRIBUTE direction_2 numeric
@ATTRIBUTE acceleration_2 numeric
@ATTRIBUTE speed_4 numeric
@ATTRIBUTE direction_4 numeric
@ATTRIBUTE acceleration_4 numeric
@ATTRIBUTE speed_8 numeric
@ATTRIBUTE direction_8 numeric
@ATTRIBUTE acceleration_8 numeric
@ATTRIBUTE speed_16 numeric
@ATTRIBUTE direction_16 numeric
@ATTRIBUTE acceleration_16 numeric

%The number after speed, direction denotes the step size that was used for the calculation.
%Acceleration was calculated between two adjacent samples of the already low pass filtered velocity

@DATA
0,228.55,892.55,1.00,1,1,1,0.00,0.00,0.00,1892.68,3.10,0.00,1135.67,3.09,0.00,204.75,3.04,0.00,65.23,2.92,0.00
14800,200.57,893.74,1.00,1,1,1,1892.68,3.10,127883.99,1135.67,3.09,51157.63,38.87,0.31,79192.66,249.86,0.02,30655.51,80.73,0.15,9694.32
28900,195.78,894.24,1.00,1,1,1,341.66,3.04,110060.57,38.87,0.31,83124.21,204.75,3.04,17075.74,280.50,-0.00,2218.72,89.94,0.16,657.50
65400,202.44,894.35,1.00,1,1,1,182.52,0.02,14337.26,326.81,0.00,7947.45,249.86,0.02,12430.18,261.83,0.00,512.75,85.06,0.29,339.07
79600,212.35,894.26,1.00,1,1,1,697.79,-0.01,36291.89,625.07,-0.01,21007.18,280.50,-0.00,2203.10,65.23,2.92,22937.09,174.47,0.16,6383.65
94100,220.38,894.16,1.00,1,1,1,553.86,-0.01,9927.74,233.54,-0.01,27002.11,261.83,0.00,1290.71,80.73,0.15,9894.90,392.16,0.14,15020.73
129600,224.02,894.18,1.00,1,1,1,102.72,0.00,12708.60,51.88,0.09,5126.31,78.07,0.10,5190.49,89.94,0.16,261.15,761.42,0.10,10417.90
143700,222.94,894.40,1.00,1,1,1,78.39,2.94,12781.23,193.37,3.02,17327.59,92.07,2.94,11936.42,85.06,0.29,877.74,1023.57,0.06,18798.86
158500,218.48,894.86,1.00,1,1,1,303.16,3.04,15217.59,330.63,3.02,9274.34,208.21,2.96,7849.13,174.47,0.16,6124.86,643.70,0.05,25669.16
173300,213.23,895.60,1.00,1,1,1,358.19,3.00,3799.15,220.24,2.93,7644.29,144.05,2.77,4891.03,392.16,0.14,14716.26,927.26,0.03,19181.85
195300,210.56,896.59,1.00,2,2,2,129.43,2.78,10613.27,67.14,1.17,10986.04,291.77,0.19,19134.10,761.42,0.10,16810.70,1128.03,0.03,9127.78
209100,214.16,897.81,1.00,1,1,1,275.55,0.33,27876.07,943.77,0.07,66345.72,980.23,0.10,50001.96,1023.57,0.06,19207.54,1410.15,0.03,20445.84
223500,237.11,898.38,1.00,1,1,1,1594.43,0.02,92630.26,2160.06,0.07,84465.06,1752.71,0.07,53729.01,1420.37,0.04,27606.16,1571.58,0.04,11223.10
237900,276.23,901.91,1.00,1,1,1,2727.83,0.09,79271.16,2393.50,0.07,16211.43,1975.27,0.03,16133.10,1861.58,0.03,30658.61,1715.93,0.04,10044.00
259100,322.13,904.04,1.00,2,2,2,2167.36,0.05,26902.40,1871.34,0.01,25315.60,2349.61,0.02,17689.09,2337.74,0.02,22464.42,1929.91,0.05,10102.85
288500,370.92,902.66,1.00,2,2,2,1660.14,-0.03,17916.33,2317.58,-0.02,15291.46,2584.20,0.00,8104.98,2740.87,0.02,13712.42,2036.79,0.05,3643.22
302700,423.16,902.19,1.00,1,1,1,3679.09,-0.01,142219.77,3849.89,-0.00,107975.84,2811.73,-0.00,16040.72,2976.07,0.03,16599.30,2059.10,0.05,1584.01
317000,480.64,902.63,1.00,1,1,1,4019.75,0.01,24228.56,3419.47,0.01,30332.41,3690.81,0.02,61619.59,3046.35,0.03,4917.52,2134.37,0.05,5265.26
338200,544.54,903.95,1.00,1,1,1,3014.68,0.02,47458.86,3564.11,0.03,7575.93,3750.28,0.04,4083.38,2978.30,0.03,3291.68,2103.40,0.05,1481.40
352500,607.09,906.99,1.00,1,1,1,4379.50,0.05,95701.47,4162.75,0.06,42277.14,3617.80,0.05,10268.54,3167.13,0.05,13535.49,2156.95,0.05,3799.65
366800,663.41,910.67,1.00,4,4,4,3946.30,0.07,30679.07,3685.77,0.07,33698.06,3184.10,0.07,30686.77,2697.23,0.06,32947.86,2140.22,0.04,1332.60
381200,712.59,914.81,1.00,4,4,4,3427.38,0.08,36351.74,2424.44,0.09,87682.97,2661.61,0.09,36446.97,2406.99,0.07,20286.36,1977.61,0.03,11424.22
403600,752.24,918.97,1.00,4,4,4,1779.91,0.10,73582.87,1870.18,0.11,24812.24,1859.08,0.10,35845.29,1893.91,0.08,22919.89,1830.19,0.02,6655.43
418300,781.53,922.60,1.00,4,4,4,2007.94,0.12,15698.78,1380.93,0.11,33282.45,1439.62,0.12,28580.09,1633.56,0.08,17712.45,1700.84,0.01,8809.38
447100,811.94,925.66,1.00,4,4,4,1061.03,0.10,32899.49,1069.02,0.12,10834.80,987.94,0.10,15690.35,1390.87,0.07,8456.54,1495.89,0.01,7128.58
461400,827.28,928.07,1.00,4,4,4,1086.22,0.16,4530.54,643.39,0.09,29814.44,911.84,0.06,6009.17,1059.44,0.03,23385.11,1292.44,0.00,14239.77
496700,843.72,928.50,1.00,1,1,1,465.90,0.03,17765.70,781.19,-0.00,4337.93,920.64,-0.00,1689.48,788.44,-0.04,7883.15,1117.89,-0.01,4948.88
512000,866.81,927.87,1.00,1,1,1,1509.54,-0.03,68275.11,1390.09,-0.07,40068.64,721.16,-0.13,14645.88,511.45,-0.16,18768.05,1005.99,0.00,7345.47
526500,885.03,925.47,1.00,1,1,1,1267.86,-0.13,19396.16,659.02,-0.33,53255.95,557.59,-0.40,16500.88,331.22,-0.44,14794.30,934.50,-0.01,5054.93
548000,889.22,920.10,1.00,1,1,1,316.73,-0.91,49555.61,378.84,-2.15,38940.26,288.73,-1.84,27606.70,255.13,-0.75,5452.72,867.15,-0.05,3466.51
562600,877.50,914.05,1.00,1,1,1,903.18,-2.67,69237.89,1009.10,-2.78,50488.93,555.39,-2.55,26236.37,271.91,-0.83,1825.59,879.04,-0.07,1808.22
577100,861.73,909.77,1.00,1,1,1,1127.04,-2.88,21325.13,831.55,-2.76,12299.40,670.18,-2.68,9836.94,343.35,-0.40,10159.16,917.56,-0.09,2775.08
591500,855.16,905.19,1.00,1,1,1,556.11,-2.53,43903.04,349.39,-2.40,36180.30,236.05,-2.27,32250.74,446.90,-0.29,7853.58,967.35,-0.10,3629.43
606100,854.29,902.90,1.00,1,1,1,168.08,-1.94,29287.12,359.66,-0.22,42962.70,641.57,-0.03,55447.28,654.11,-0.19,14617.98,1009.96,-0.09,3091.70
627300,867.72,902.32,1.00,1,1,1,634.02,-0.04,33278.88,1170.72,0.10,39483.17,1167.90,0.02,24907.85,980.30,-0.11,15739.15,1072.03,-0.05,3432.15
655800,912.21,908.46,1.00,2,2,2,1575.81,0.14,33640.58,1862.74,0.06,24339.73,1488.73,-0.01,11340.41,1366.19,-0.06,13676.91,1019.03,-0.00,2621.79
669600,946.35,907.31,1.00,2,2,2,2475.84,-0.03,69648.60,1948.39,-0.09,22317.59,1897.53,-0.02,29674.84,1628.69,-0.04,19164.49,939.05,0.07,7606.35
691400,981.27,902.08,1.00,1,1,1,1619.74,-0.15,40658.94,1953.56,-0.11,1899.34,2234.71,-0.07,16122.11,1833.28,-0.00,9757.02,905.36,0.15,3970.35
706300,1017.59,899.21,1.00,1,1,1,2444.89,-0.08,56154.86,2574.51,-0.05,42807.08,2180.47,-0.07,3724.57,1880.83,0.04,6194.92,886.51,0.23,4535.06
721500,1058.68,898.34,1.00,1,1,1,2703.71,-0.02,19646.05,2471.38,-0.04,7111.45,2340.03,0.00,15320.00,1805.25,0.08,6988.94,896.11,0.28,3014.16
735300,1089.21,896.67,1.00,1,1,1,2216.20,-0.05,35830.21,2094.81,0.07,31980.23,1869.94,0.12,38256.03,1464.01,0.17,27024.12,867.16,0.32,3279.50
749400,1117.00,902.19,1.00,1,1,1,2008.75,0.20,40212.33,1430.85,0.33,57239.07,1430.76,0.32,39236.71,1214.78,0.34,23518.75,846.41,0.33,1776.14
770500,1136.84,913.07,1.00,1,1,1,1072.46,0.50,49167.71,1052.60,0.72,28860.16,1021.89,0.63,26047.35,898.32,0.56,18509.75,793.13,0.34,2530.18
785400,1145.41,927.26,1.00,4,4,4,1112.67,1.03,38192.98,812.84,1.06,26221.85,753.49,1.10,33001.87,674.18,0.94,24834.90,619.19,0.34,11677.59
813600,1154.02,943.60,1.00,4,4,4,654.95,1.09,16326.92,654.24,1.54,13610.79,653.04,1.56,11820.76,570.42,1.36,9915.23,448.00,0.36,6076.74
835400,1146.35,959.96,1.00,4,4,4,828.91,2.01,31161.31,688.15,2.07,16027.83,660.43,1.98,12604.63,531.02,1.76,10266.39,237.26,0.49,9859.58
863700,1137.63,973.93,1.00,4,4,4,581.89,2.13,9207.75,808.13,2.39,9563.04,740.12,2.36,9840.94,514.77,2.15,7070.47,73.74,0.94,6142.84
878000,1121.13,983.39,1.00,4,4,4,1330.27,2.62,60314.66,901.29,2.68,18427.33,686.50,2.60,12181.85,493.12,2.59,15447.70,126.76,3.02,12247.10
899300,1108.86,988.13,1.00,4,4,4,617.46,2.77,34076.98,593.96,2.93,16728.53,707.73,2.98,12652.31,608.02,3.04,12783.65,240.78,-3.11,5501.19
913700,1100.40,987.84,1.00,4,4,4,588.25,-3.11,16908.48,615.10,-2.73,25883.31,684.78,-2.79,24343.97,754.43,-2.90,19031.95,314.10,-3.05,5214.39
927900,1092.76,981.05,1.00,4,4,4,719.59,-2.42,32418.32,989.05,-2.39,32269.28,947.67,-2.43,27371.70,943.69,-2.65,19910.56,404.87,-2.97,6685.32
942700,1079.51,968.18,1.00,1,1,1,1248.04,-2.37,35821.48,1308.28,-2.30,22537.54,1229.88,-2.40,19219.44,893.20,-2.47,11886.01,450.74,-2.89,3913.55
957300,1067.10,952.40,1.00,1,1,1,1375.13,-2.24,14732.78,1424.56,-2.41,12858.69,1384.65,-2.34,11949.25,923.82,-2.35,7193.27,531.40,-2.83,5878.47
978600,1041.49,933.98,1.00,1,1,1,1481.04,-2.52,19372.97,1448.90,-2.37,3033.88,1107.45,-2.30,13183.22,858.62,-2.27,4615.73,562.09,-2.75,2476.83
993000,1030.11,916.24,1.00,1,1,1,1463.48,-2.14,38326.30,860.35,-2.16,44000.29,911.09,-2.30,13639.04,808.75,-2.28,3515.36,692.61,-2.72,9171.25
1021900,1020.88,902.95,1.00,1,1,1,560.04,-2.18,31281.63,533.51,-2.17,11311.34,577.79,-2.05,13154.02,691.33,-2.29,4067.48,726.94,-2.69,1418.17
1042900,1015.19,894.19,1.00,1,1,1,497.13,-2.15,3094.00,269.67,-1.61,16011.76,346.73,-2.10,11055.22,562.19,-2.38,6684.03,685.52,-2.66,2153.65
1057900,1020.51,893.25,1.00,1,1,1,360.07,-0.18,47897.88,71.62,-1.07,14091.54,184.49,-2.19,10940.17,394.62,-2.46,11484.40,667.22,-2.64,1448.89
1072800,1016.22,892.31,1.00,1,1,1,294.72,-2.93,43119.92,229.09,-3.14,18164.73,118.40,2.79,12775.55,471.50,-2.84,12050.08,654.10,-2.67,1570.95
1086800,1013.89,893.23,1.00,1,1,1,178.73,2.77,12603.13,305.11,2.63,11086.61,368.86,2.92,17992.23,605.82,-3.06,12614.64,593.45,-2.74,5272.61
1101000,1008.73,896.55,1.00,1,1,1,432.16,2.57,18262.86,489.75,2.84,14182.49,800.72,3.06,30898.98,563.43,3.11,5704.72,611.55,-2.84,4429.71
1122100,997.40,898.44,1.00,2,2,2,544.10,2.98,10688.13,1225.04,-3.14,36671.90,1112.36,3.10,14848.56,618.74,3.11,2622.09,621.68,-2.94,3009.82
1136200,965.61,896.28,1.00,2,2,2,2260.27,-3.07,123081.00,1922.14,-3.10,49568.25,868.77,3.14,17497.01,640.17,3.10,1548.31,727.55,-3.05,9241.35
1150200,943.43,896.33,1.00,3,3,3,1583.90,3.14,49233.37,621.52,3.12,93010.57,830.69,-3.11,3495.26,626.50,3.11,1034.04,882.56,-3.12,11750.99
1186900,934.10,896.87,1.00,1,1,1,254.68,3.08,36231.21,219.90,3.14,10944.56,511.96,-3.14,8699.11,739.59,-3.14,3149.14,1058.47,3.13,4867.22
1200400,932.39,896.36,1.00,1,1,1,131.91,-2.85,10218.24,315.57,-3.06,7285.20,319.49,3.13,14266.61,885.66,-3.13,10838.51,1260.07,3.13,14933.16
1215000,925.26,896.13,1.00,1,1,1,488.54,-3.11,24821.91,419.29,3.12,7546.58,597.72,-3.13,19067.93,974.45,3.14,6183.23,1381.89,3.13,8344.39
1250500,911.39,896.76,1.00,1,1,1,391.21,3.10,2906.17,756.58,3.13,9502.40,940.75,3.13,9668.43,1098.74,3.13,3503.10,1534.05,3.13,4289.16
1265100,887.36,896.47,1.00,1,1,1,1645.95,-3.13,85998.33,1857.49,3.14,75406.54,1438.16,3.13,34069.90,1555.03,3.13,31254.62,1681.88,3.14,10157.47
1279000,858.45,896.89,1.00,1,1,1,2079.99,3.13,31418.07,2636.30,3.13,56043.59,2299.34,3.13,61955.93,1892.71,3.13,24293.04,1812.68,3.14,9413.62
1293600,812.23,897.26,1.00,2,2,2,3165.95,3.13,74389.38,2643.47,3.13,810.45,2699.83,3.13,27431.19,2049.70,3.13,10752.97,1759.32,3.13,3711.74
1315600,761.71,898.24,1.00,2,2,2,2296.81,3.12,39531.86,2748.90,3.13,4799.97,3028.13,3.13,14930.58,2567.45,3.14,23535.63,1685.62,3.13,3350.42
1330500,710.80,898.44,1.00,2,2,2,3416.61,3.14,75210.88,3508.75,3.14,51043.50,2655.09,3.14,25036.92,2763.23,3.14,13140.25,1682.88,3.13,198.00
1344900,658.90,898.37,1.00,3,3,3,3604.12,-3.14,13087.74,2573.70,3.14,64933.95,2789.26,3.14,9363.27,2823.55,3.14,4191.82,1598.54,3.13,5856.79
1373000,601.42,898.61,1.00,1,1,1,2045.68,3.14,55463.20,2362.51,3.14,7515.71,2816.73,3.14,980.66,2621.41,3.13,7194.65,1487.85,3.13,3939.33
1394300,542.20,898.57,1.00,1,1,1,2780.51,-3.14,34503.52,3111.00,3.14,35141.17,2650.71,3.14,7813.72,2367.30,3.14,11930.50,1506.48,3.13,874.64
1408100,492.23,898.61,1.00,1,1,1,3621.11,3.14,60913.80,3148.57,3.13,3446.33,2579.56,3.13,5200.09,1800.26,3.13,41090.07,1402.40,3.13,7543.69
1422900,452.15,899.41,1.00,1,1,1,2708.23,3.12,61815.57,1932.27,3.12,82226.11,1846.09,3.13,49569.35,1326.23,3.13,32028.64,1376.67,3.14,1925.27
1436900,436.59,900.03,1.00,1,1,1,1112.12,3.10,114033.42,785.04,3.11,81950.98,799.53,3.11,74765.40,892.06,3.14,31012.82,1237.02,-3.13,10026.66
1458000,424.62,900.42,1.00,1,1,1,568.02,3.11,25787.94,147.18,3.07,30234.25,7.82,2.02,37722.49,432.86,3.12,21767.96,1158.03,-3.11,3900.28
1486900,429.25,900.52,1.00,1,1,1,160.47,0.02,25200.95,634.29,-0.02,27035.35,375.10,-0.02,13104.68,162.38,3.08,9366.99,988.37,-3.11,5874.58
1501000,451.89,899.96,1.00,1,1,1,1605.76,-0.02,102516.45,1118.92,-0.03,34381.72,715.42,-0.01,24140.71,104.41,-2.99,4542.33,729.30,-3.12,18394.09
1522000,468.51,899.29,1.00,1,1,1,792.10,-0.04,38755.66,813.98,-0.00,14571.20,480.76,-0.01,11174.22,128.71,-2.83,1479.09,426.52,3.12,14456.73
1536400,480.70,899.83,1.00,1,1,1,847.68,0.04,6196.86,45.11,2.65,59311.01,197.87,-2.96,46952.01,170.06,-2.67,3273.63,55.39,2.23,27379.44
1565000,466.80,900.20,1.00,1,1,1,486.30,3.11,46614.89,910.58,-3.08,30511.03,582.09,-3.02,13455.89,229.11,-2.77,2176.62,357.84,0.22,13439.66
1586400,435.27,896.92,1.00,1,1,1,1481.47,-3.04,46791.68,1052.08,-3.00,7438.31,893.95,-2.99,14618.05,167.24,-2.90,3095.63,719.10,0.15,16967.47
1614900,414.80,892.96,1.00,1,1,1,731.34,-2.95,26512.52,883.50,-2.89,7134.29,857.69,-2.96,1538.74,17.87,0.64,6450.72,1027.54,0.13,10843.59
1629300,398.60,887.30,1.00,1,1,1,1191.46,-2.81,33297.46,593.94,-2.86,20143.07,135.29,-2.79,50325.71,334.22,0.23,22080.37,1299.09,0.12,18889.33
1651100,394.14,887.01,1.00,1,1,1,205.22,-3.08,45654.97,755.61,0.22,61878.84,876.38,0.14,46292.36,919.18,0.17,26872.65,1464.14,0.11,7580.90
1665400,425.22,893.26,1.00,4,4,4,2217.12,0.20,169276.18,2751.92,0.18,139660.68,2093.54,0.18,85194.92,1652.18,0.15,51281.82,1465.92,0.11,207.07
1679400,470.76,900.97,1.00,4,4,4,3298.82,0.17,77491.71,3777.36,0.17,73276.12,3566.00,0.17,105185.73,2603.11,0.14,67938.88,1515.69,0.10,3646.87
1694100,532.05,911.72,1.00,4,4,4,4233.15,0.17,63576.21,4347.06,0.17,38757.46,3811.64,0.16,17021.16,3223.75,0.14,42222.70,1496.63,0.09,1931.02
1708900,597.16,922.60,1.00,4,4,4,4460.27,0.17,15522.69,3838.80,0.15,34657.66,4293.16,0.14,32907.50,3472.07,0.13,16931.06,1588.38,0.07,6593.07
1730700,670.92,933.06,1.00,4,4,4,3417.37,0.14,48042.43,4251.81,0.12,19866.51,4351.29,0.12,5035.98,3310.80,0.12,7700.32,1576.25,0.05,1196.24
1745300,750.81,941.16,1.00,4,4,4,5499.85,0.10,143126.33,5014.30,0.09,53095.02,3408.49,0.10,64864.40,3135.46,0.10,12695.15,1536.49,0.04,2978.72
1759200,813.25,945.91,1.00,4,4,4,4505.10,0.08,72132.56,2708.12,0.07,166010.75,2908.72,0.07,36516.22,2759.67,0.07,27729.50,1566.36,0.03,2284.18
1789000,868.87,949.25,1.00,4,4,4,1870.05,0.06,88437.93,1747.24,0.04,32323.76,2189.81,0.03,24407.54,2259.02,0.02,17223.46,1510.80,0.03,1875.40
1810800,903.34,949.27,1.00,4,4,4,1581.10,0.00,14062.05,1573.22,-0.06,11021.80,1488.66,-0.05,32847.64,1518.23,-0.06,34687.28,1437.96,0.02,3468.08
1825200,925.71,945.69,1.00,4,4,4,1573.34,-0.16,17444.84,1079.01,-0.32,41631.02,909.16,-0.33,45803.64,635.58,-0.35,64385.29,1334.99,-0.00,7317.44
1839700,932.91,939.35,1.00,1,1,1,661.14,-0.72,74081.86,534.83,-1.63,73793.05,487.01,-1.98,73451.81,325.33,-1.23,34361.50,1195.45,-0.03,9909.65
1854000,924.85,930.31,1.00,1,1,1,846.69,-2.30,75315.86,1280.49,-2.71,79397.74,1470.42,-2.76,82138.90,422.30,-2.24,25941.44,961.56,-0.07,16591.28
1875800,890.84,920.19,1.00,1,1,1,1627.86,-2.85,46381.26,2490.96,-2.91,57809.11,1720.46,-2.79,11777.01,568.66,-2.48,8583.96,773.02,-0.13,8984.50
1890100,837.31,909.75,1.00,1,1,1,3813.74,-2.95,153779.09,2290.17,-2.85,17576.34,1175.93,-2.83,38267.12,578.91,-2.57,3451.74,485.29,-0.26,20957.89
1904100,828.81,901.41,1.00,1,1,1,850.70,-2.37,224188.92,262.29,-2.23,148662.20,715.50,-2.76,33206.32,474.70,-2.56,7449.48,201.41,-0.82,23720.27
1939300,829.37,899.57,1.00,1,1,1,54.47,-1.27,23496.18,216.34,-0.18,11662.71,270.00,-0.45,26118.38,248.79,-2.42,6563.47,363.84,-2.64,12982.62
1953400,839.31,899.52,1.00,1,1,1,704.66,-0.01,48962.88,932.50,0.04,51248.78,609.16,0.01,27431.39,129.89,-0.96,18969.59,914.50,-2.94,40950.69
1968200,856.30,900.58,1.00,1,1,1,1150.52,0.06,30401.62,1287.83,0.07,24109.49,820.10,0.06,14396.50,353.39,-0.12,19112.09,1677.21,-3.04,52210.39
1982300,876.44,902.02,1.00,1,1,1,1431.97,0.07,19978.91,755.66,0.07,37742.32,798.38,0.06,1601.18,164.16,-0.01,13555.79,474.70,-2.56,90547.51
2018500,894.22,903.17,1.00,1,1,1,492.24,0.06,25959.92,518.30,0.06,6559.78,456.04,0.06,9457.07,380.55,-3.13,15046.17,248.79,-2.42,6382.16
2032800,902.57,903.51,1.00,1,1,1,584.36,0.04,6500.80,47.34,-2.87,39485.71,267.28,-3.10,50580.40,1337.78,-3.13,66939.58,129.89,-0.96,18704.29
2048500,892.85,902.79,1.00,2,2,2,620.67,-3.07,76743.29,1580.89,-3.09,97753.14,2005.58,-3.11,110719.85,2845.32,-3.14,96023.76,353.39,-0.12,18016.50
2063000,854.89,901.07,1.00,2,2,2,2620.80,-3.10,137964.03,4068.27,-3.11,171571.35,3938.19,-3.12,133305.57,267.28,-3.10,177810.12,164.16,-0.01,13181.83
2077000,776.97,898.91,1.00,2,2,2,5567.71,-3.11,210546.57,5972.83,-3.12,136154.16,7012.75,-3.13,219671.27,2005.58,-3.11,124164.40,380.55,-3.13,38905.09
2098000,645.87,897.39,1.00,1,1,1,6243.22,-3.13,32484.44,9404.78,-3.14,163520.83,5972.83,-3.12,49573.03,3938.19,-3.12,92044.32,1337.78,-3.13,45582.67
2112100,446.87,898.25,1.00,1,1,1,14114.19,3.14,558325.16,14114.19,3.14,334040.69,9404.78,-3.14,243541.66,7012.75,-3.13,218113.32,2845.32,-3.14,106920.08
