@RELATION gaze_labels

%@METADATA width_px 1920
%@METADATA height_px 1080
%@METADATA width_mm 540.00
%@METADATA height_mm 254.00
%@METADATA distance_mm 620.00


@ATTRIBUTE time INTEGER
@ATTRIBUTE x NUMERIC
@ATTRIBUTE y NUMERIC
@ATTRIBUTE confidence NUMERIC
@ATTRIBUTE handlabeller1 INTEGER
@ATTRIBUTE handlabeller2 INTEGER
@ATTRIBUTE handlabeller_final INTEGER
@ATTRIBUTE speed_1 numeric
@ATTRIBUTE direction_1 numeric
@ATTRIBUTE acceleration_1 numeric
@ATTRIBUTE speed_2 numeric
@ATTRIBUTE direction_2 numeric
@ATTRIBUTE acceleration_2 numeric
@ATTRIBUTE speed_4 numeric
@ATTRIBUTE direction_4 numeric
@ATTRIBUTE acceleration_4 numeric
@ATTRIBUTE speed_8 numeric
@ATTRIBUTE direction_8 numeric
@ATTRIBUTE acceleration_8 numeric
@ATTRIBUTE speed_16 numeric
@ATTRIBUTE direction_16 numeric
@ATTRIBUTE acceleration_16 numeric

%The number after speed, direction denotes the step size that was used for the calculation.
%Acceleration was calculated between two adjacent samples of the already low pass filtered velocity

@DATA
0,89.65,902.83,1.00,1,1,1,0.00,0.00,0.00,241.63,-0.61,0.00,475.17,-2.89,0.00,587.91,-3.07,0.00,13.73,-2.98,0.00
15900,92.79,900.62,1.00,1,1,1,241.63,-0.61,15196.57,475.17,-2.89,41428.65,942.33,-3.10,30599.33,716.25,-3.13,8363.38,225.57,0.07,15047.26
29800,75.92,899.36,1.00,1,1,1,1217.12,-3.07,101597.87,942.33,-3.10,35002.11,587.91,-3.07,25534.70,377.58,3.12,24411.71,617.32,0.04,28192.26
57900,53.25,898.89,1.00,1,1,1,806.89,-3.12,14718.57,645.36,-3.13,10613.51,716.25,-3.13,4732.30,25.67,1.45,13557.81,1092.85,0.03,16927.36
93500,34.81,899.01,1.00,1,1,1,517.97,3.13,8131.63,526.74,3.12,3380.67,377.58,3.12,9531.54,13.73,-2.98,908.47,1579.37,0.02,13670.84
107800,26.97,899.58,1.00,1,1,1,549.39,3.07,3278.19,45.99,2.48,34305.07,25.67,1.45,26641.58,225.57,0.07,16730.87,1694.10,0.02,8034.36
143500,33.00,900.43,1.00,1,1,1,170.46,0.14,20081.63,534.18,0.07,15942.84,664.25,0.07,18484.91,617.32,0.04,10976.82,2205.49,0.01,14326.05
157700,53.56,901.43,1.00,1,1,1,1449.98,0.05,90164.41,1861.11,0.04,93473.34,1313.82,0.04,45783.50,1092.85,0.03,33497.11,2231.35,0.01,2158.09
172700,87.31,902.44,1.00,2,2,2,2250.45,0.03,53409.90,2628.80,0.03,51210.73,2563.03,0.02,83293.08,1579.37,0.02,32445.47,1062.57,0.01,77919.17
187300,131.35,903.37,1.00,2,2,2,3017.58,0.02,52568.18,3272.47,0.02,44110.72,2734.66,0.02,11826.07,1694.10,0.02,7869.27,1241.29,0.01,12242.99
201600,181.87,904.13,1.00,3,3,3,3532.74,0.01,36052.94,2820.38,0.01,31636.94,2686.87,0.01,3723.49,2205.49,0.01,35765.03,1429.38,0.00,13190.46
223900,234.57,904.64,1.00,1,1,1,2363.59,0.01,52432.64,2224.68,-0.00,26754.64,2072.82,0.01,27536.69,2231.35,0.01,1374.21,1664.57,-0.01,10595.81
238200,263.29,904.04,1.00,1,1,1,2008.65,-0.02,25248.00,1441.03,-0.00,54800.81,1945.69,0.01,8893.02,2349.61,0.01,8291.39,1896.38,-0.02,16213.78
267200,296.97,904.51,1.00,1,1,1,1161.45,0.01,29270.69,1709.95,0.01,9305.83,1809.32,-0.01,4754.96,2449.13,0.01,3459.08,2081.60,-0.01,6391.66
281500,337.32,904.96,1.00,1,1,1,2822.29,0.01,116142.87,2257.29,-0.01,38380.58,2069.65,0.01,18384.01,2398.44,-0.01,4625.47,2392.20,-0.00,21766.53
302800,377.32,903.84,1.00,1,1,1,1878.68,-0.03,44500.81,2507.15,0.01,11996.10,2916.74,0.01,39781.12,2331.14,-0.04,4266.77,2452.50,0.01,3150.87
317100,426.57,906.22,1.00,1,1,1,3447.75,0.05,110558.46,3735.17,0.01,85875.46,2962.55,-0.03,7052.50,2189.91,-0.04,9889.90,2516.86,0.02,4966.84
331500,484.51,905.45,1.00,2,2,2,4024.11,-0.01,43084.19,3534.04,-0.06,23640.64,2977.46,-0.06,7475.13,2517.20,-0.03,22748.22,2352.03,0.03,11648.29
345700,527.46,900.10,1.00,2,2,2,3047.74,-0.12,73965.71,2379.94,-0.16,83734.44,2316.89,-0.09,46805.96,2565.01,-0.02,4629.89,2287.82,0.05,4965.62
366700,567.22,892.16,1.00,1,1,1,1931.05,-0.20,53841.96,1618.37,-0.13,36401.59,2191.86,-0.08,6063.35,2657.15,0.01,5575.56,2254.01,0.06,2162.09
395400,607.26,890.02,1.00,1,1,1,1396.84,-0.05,20346.38,2049.58,-0.00,16952.87,2266.32,-0.01,6009.33,2670.88,0.03,1823.49,2111.90,0.07,5006.23
409500,654.95,892.00,1.00,1,1,1,3385.17,0.04,141772.20,3194.47,0.07,82332.57,2446.57,0.07,18446.70,2274.93,0.06,28539.51,2080.64,0.07,2315.16
431100,720.99,898.37,1.00,1,1,1,3071.91,0.10,16639.11,2793.19,0.12,19501.48,3051.61,0.12,28674.21,2204.55,0.10,5214.14,1900.85,0.07,8323.76
459600,793.94,908.22,1.00,1,1,1,2582.84,0.13,17568.20,2938.33,0.16,6774.35,2367.23,0.16,24283.19,2207.12,0.15,3693.47,1821.01,0.07,2805.00
474100,845.71,918.57,1.00,4,4,4,3641.27,0.20,74208.28,1947.07,0.22,68985.83,2171.01,0.20,15110.47,2062.96,0.18,11277.56,1593.61,0.06,15759.65
509700,889.21,929.19,1.00,4,4,4,1257.62,0.24,67004.17,1513.86,0.27,12410.67,1944.59,0.26,7145.30,1731.42,0.21,9448.39,1398.21,0.04,5525.65
523900,918.43,938.48,1.00,4,4,4,2159.26,0.31,63990.23,1947.81,0.33,31409.60,1172.69,0.33,54941.67,1298.33,0.25,30748.83,1190.04,0.03,14693.77
538300,941.96,947.10,1.00,4,4,4,1740.19,0.35,29675.58,715.57,0.52,87064.19,766.84,0.48,29771.32,927.13,0.27,25827.66,1074.91,0.03,8004.90
559700,940.62,951.28,1.00,4,4,4,205.42,1.88,81492.40,292.56,2.68,42528.76,157.43,1.55,32928.65,471.19,0.24,21326.26,1067.38,0.02,637.52
573600,932.72,951.72,1.00,4,4,4,568.75,3.09,38217.21,775.52,-3.02,39982.97,321.42,-2.97,27677.85,183.60,-0.20,22688.52,976.24,0.00,6674.75
588200,918.68,948.60,1.00,4,4,4,985.43,-2.92,31781.73,476.87,-2.51,29440.93,484.02,-2.60,14927.80,189.35,-1.90,19180.41,944.37,-0.01,2228.54
602500,921.63,943.54,1.00,1,1,1,410.04,-1.04,82316.33,397.22,-1.90,19021.40,532.51,-2.22,13934.72,360.48,-2.15,12783.62,860.79,-0.03,6090.98
623600,914.14,935.29,1.00,1,1,1,527.96,-2.31,26674.61,605.14,-2.03,10301.84,467.92,-1.82,9788.67,390.55,-1.67,8531.23,817.11,-0.08,2715.69
637700,912.22,924.43,1.00,1,1,1,782.34,-1.75,31061.56,527.24,-1.77,11689.16,498.52,-1.79,2426.31,443.90,-1.22,13855.24,885.88,-0.12,5565.67
667000,909.60,912.86,1.00,1,1,1,404.69,-1.79,12921.23,447.63,-1.56,4414.24,566.04,-1.08,12693.35,700.90,-0.55,15288.44,890.32,-0.15,726.17
688000,912.46,901.91,1.00,2,2,2,538.85,-1.32,12308.39,861.91,-0.59,33881.70,676.41,-0.65,13793.65,881.32,-0.35,11229.09,938.84,-0.17,2505.57
702500,935.00,895.80,1.00,2,2,2,1610.90,-0.26,98091.87,1517.44,-0.23,53536.39,1499.81,-0.17,65641.79,1212.26,-0.20,25147.65,1029.72,-0.17,6268.16
716600,954.75,892.19,1.00,2,2,2,1424.04,-0.18,16033.20,2428.45,0.01,72236.04,2216.76,-0.01,54654.52,1457.54,-0.11,19385.87,964.33,-0.17,4640.37
731000,1004.20,896.61,1.00,1,1,1,3448.08,0.09,146540.99,2958.93,0.09,39717.53,2318.40,0.03,9812.52,1704.54,-0.05,18505.50,903.79,-0.17,4203.99
745500,1039.91,900.00,1.00,1,1,1,2473.17,0.09,67243.60,2231.53,0.04,50909.58,2363.22,0.03,3205.49,1994.27,-0.01,20644.81,720.87,-0.19,12683.57
766900,1084.24,900.02,1.00,1,1,1,2071.90,0.00,21231.77,2021.48,-0.02,11401.17,1845.75,0.01,24272.76,1972.34,0.01,2162.42,557.79,-0.20,7630.82
795100,1140.16,898.41,1.00,1,1,1,1983.60,-0.03,3773.83,1631.39,-0.01,13836.06,1866.11,-0.01,1355.93,1590.31,0.03,13589.66,352.29,-0.21,7289.35
831200,1189.14,898.82,1.00,1,1,1,1356.75,0.01,17446.22,1712.82,0.01,2405.78,1732.90,-0.00,3690.13,1125.26,0.02,12886.57,102.42,-0.54,7123.75
845300,1226.14,898.98,1.00,1,1,1,2624.47,0.00,89910.47,1961.37,0.01,17628.63,983.04,0.02,53223.89,612.45,-0.00,36391.69,221.15,-3.02,21883.96
859800,1245.23,899.27,1.00,1,1,1,1316.62,0.02,90207.39,246.86,0.10,118324.39,205.20,0.10,53706.42,9.71,-0.11,41572.51,522.71,-3.12,20924.29
895000,1238.35,900.21,1.00,1,1,1,197.27,3.01,42953.54,805.35,3.11,29847.32,975.31,3.13,33507.37,713.49,3.13,20544.29,762.17,3.13,6838.73
909600,1205.14,900.46,1.00,1,1,1,2274.57,3.13,142400.23,3060.48,-3.14,154506.31,2037.53,3.14,72756.98,1774.84,-3.13,72717.82,1031.78,3.13,18466.93
924100,1149.29,899.73,1.00,2,2,2,3852.10,-3.13,108877.03,4198.81,-3.14,78506.14,3344.75,3.14,90155.44,2433.42,-3.13,45429.49,1189.67,3.12,10897.40
938000,1085.90,899.85,1.00,2,2,2,4560.73,3.14,51177.22,3579.16,3.14,44653.62,4203.15,-3.13,61866.58,2917.24,-3.13,34807.87,1352.96,3.11,11801.74
959400,1022.95,900.25,1.00,2,2,2,2941.62,3.14,75663.16,4206.83,-3.12,29661.87,3897.47,-3.12,14347.03,3692.07,-3.13,36224.95,1528.61,3.10,8250.74
973500,936.58,896.82,1.00,3,3,3,6129.82,-3.10,226539.17,4159.10,-3.10,6272.56,3720.49,-3.12,12620.62,3725.39,3.14,3257.32,1732.29,3.09,14476.32
1002600,843.40,893.41,1.00,1,1,1,3204.22,-3.11,100536.94,3376.65,-3.11,26907.53,3976.09,-3.13,8908.99,3432.52,3.13,10209.30,1706.31,3.09,913.03
1023700,767.15,891.70,1.00,1,1,1,3614.66,-3.12,19586.24,3757.36,3.12,19773.97,3340.09,3.13,30537.02,2973.17,3.11,21903.73,1724.37,3.09,857.73
1038200,709.66,895.78,1.00,1,1,1,3974.85,3.07,34790.89,3292.59,3.05,36886.94,2878.51,3.07,34078.36,2462.25,3.09,35454.84,1953.89,3.09,15850.94
1052600,672.41,900.54,1.00,1,1,1,2608.08,3.01,95742.46,1836.79,2.94,102830.18,1905.69,2.95,70296.17,1696.16,3.03,53879.00,1887.22,3.10,4723.00
1067600,656.77,906.68,1.00,4,4,4,1119.91,2.77,103104.69,637.12,2.43,87767.05,704.03,2.62,83960.04,930.30,2.89,52389.78,1785.41,3.11,6812.00
1081900,658.25,912.71,1.00,4,4,4,434.01,1.33,80132.67,500.67,0.72,60445.86,505.25,0.80,67429.56,437.12,2.52,38151.77,1606.27,3.11,12560.27
1102900,670.07,918.31,1.00,4,4,4,623.22,0.44,23097.60,1100.59,0.29,32237.49,785.26,0.33,19298.46,301.15,2.33,7259.05,1491.08,3.12,5528.04
1116800,695.02,923.79,1.00,4,4,4,1837.76,0.22,89093.78,1063.73,0.18,9060.50,702.77,0.26,7013.87,256.14,2.53,5134.50,1214.33,3.12,19910.64
1145500,714.65,926.49,1.00,4,4,4,690.09,0.14,40110.13,427.90,0.20,22159.18,167.97,0.72,19406.39,346.91,2.91,5051.03,929.19,3.11,9939.93
1167100,716.11,928.09,1.00,4,4,4,100.58,0.83,28516.85,973.85,3.13,64581.22,598.92,-3.14,33994.13,500.01,3.12,8139.70,578.68,3.09,16241.62
1181100,679.98,926.94,1.00,4,4,4,2582.40,-3.11,189550.52,1807.11,-3.08,59906.14,1324.01,-3.08,51921.20,679.89,-3.06,13491.82,246.61,3.07,23726.14
1209600,639.45,923.58,1.00,1,1,1,1427.14,-3.06,40680.73,1576.08,-3.05,8373.72,1591.52,-3.05,9515.01,841.26,-3.02,5800.78,104.04,0.14,12249.13
1231100,601.53,919.52,1.00,1,1,1,1773.77,-3.04,16217.12,1410.40,-3.01,8060.32,1369.85,-3.00,10821.22,964.77,-2.98,5888.65,362.68,0.01,12084.47
1259700,569.37,914.53,1.00,1,1,1,1137.93,-2.99,22357.16,1133.43,-2.93,10405.63,1112.57,-2.94,9328.81,800.95,-2.92,6082.08,484.91,-0.04,4339.08
1273800,554.24,909.22,1.00,1,1,1,1137.13,-2.80,14789.08,707.06,-2.75,32308.10,596.50,-2.75,38226.05,325.97,-2.61,35487.26,539.97,-0.08,4154.44
1294900,546.38,904.98,1.00,1,1,1,423.04,-2.65,34236.81,233.51,-1.10,36125.76,438.52,-0.53,44087.31,448.18,-0.28,33768.48,523.08,-0.13,1500.55
1309800,558.08,901.74,1.00,2,2,2,814.33,-0.27,77662.59,1637.72,-0.10,102260.13,1273.95,-0.10,60011.76,1168.32,-0.07,49394.70,538.87,-0.15,1209.40
1323900,593.64,900.28,1.00,2,2,2,2524.58,-0.04,123494.28,2738.97,-0.01,79234.50,2433.35,-0.00,83176.63,1707.72,-0.03,38433.61,598.83,-0.15,4259.35
1338200,635.86,900.94,1.00,3,3,3,2952.56,0.02,31841.69,3087.04,0.04,26525.82,3278.49,0.03,59371.40,1922.02,-0.02,15141.27,690.71,-0.13,6527.36
1359700,704.06,904.87,1.00,1,1,1,3177.54,0.06,12037.18,3711.43,0.05,29075.80,2787.31,0.03,22846.69,2202.71,-0.01,13072.36,829.13,-0.10,6513.11
1373800,767.82,907.62,1.00,1,1,1,4525.76,0.04,95696.67,2539.51,0.01,83558.86,2413.11,0.02,26612.55,2242.54,0.00,3344.56,933.07,-0.08,7511.42
1402900,813.76,906.08,1.00,1,1,1,1579.80,-0.03,101479.73,1496.84,-0.05,36033.52,2012.02,-0.02,14048.68,2096.98,0.00,5001.83,984.75,-0.06,1914.00
1424000,842.88,904.17,1.00,1,1,1,1382.86,-0.07,9600.89,1367.86,-0.09,6864.95,1404.00,-0.05,28917.46,1696.57,-0.00,18983.40,899.17,-0.04,4143.06
1438000,861.57,901.67,1.00,1,1,1,1347.10,-0.13,7042.11,1241.13,-0.06,9513.37,1249.09,-0.07,11211.35,1239.87,-0.03,32744.83,867.09,-0.02,2497.86
1452600,878.31,902.02,1.00,1,1,1,1146.70,0.02,18963.78,1105.88,-0.04,9465.90,742.52,-0.09,34731.62,698.71,-0.09,37234.48,731.05,-0.01,9347.89
1466900,893.51,900.51,1.00,1,1,1,1068.23,-0.10,10782.48,344.03,-0.19,53676.76,305.51,-0.13,30580.82,262.19,-0.20,30695.78,453.22,0.00,19433.75
1488200,890.34,899.73,1.00,1,1,1,153.25,-2.90,56984.16,348.32,-3.03,32148.44,175.09,-2.86,22122.85,85.57,-2.75,15809.11,155.88,0.02,13960.45
1502600,881.15,899.17,1.00,1,1,1,639.57,-3.08,33998.69,794.13,-3.10,31064.27,547.40,-3.10,26382.53,348.50,-3.10,18737.77,297.20,-3.12,31463.70
1517000,867.49,898.85,1.00,1,1,1,948.96,-3.12,21584.56,713.63,-3.13,5758.30,644.01,-3.13,6805.87,640.39,-3.12,20282.17,823.18,-3.12,36527.44
1545600,850.47,898.81,1.00,1,1,1,595.20,-3.14,12380.35,576.87,3.14,4795.50,802.08,3.14,5541.04,868.07,3.14,7980.35,262.19,-0.20,37792.80
1581200,830.45,899.02,1.00,1,1,1,562.17,3.13,952.90,878.73,3.13,8481.68,967.37,3.13,4649.63,1190.95,3.13,9071.82,85.57,-2.75,9458.82
1595300,806.80,899.47,1.00,2,2,2,1677.99,3.12,79138.07,1837.96,3.12,68032.52,1123.01,3.12,11043.77,1575.86,3.13,27299.70,348.50,-3.10,19136.45
1610000,777.53,900.11,1.00,2,2,2,1991.40,3.12,21323.76,1368.30,3.12,31949.87,1838.33,3.12,48661.03,2039.82,3.13,31561.90,640.39,-3.12,19868.24
1644800,739.08,900.88,1.00,1,1,1,1105.09,3.12,25468.89,1838.55,3.12,13513.92,2483.87,3.13,18551.04,1123.01,3.12,26346.72,868.07,3.14,6558.56
1659800,685.99,901.71,1.00,1,1,1,3540.19,3.13,162341.31,4355.82,3.13,167820.54,3202.26,3.13,47900.44,1838.33,3.12,47687.81,1190.95,3.13,21530.44
1674300,610.60,902.47,1.00,1,1,1,5199.60,3.13,114452.64,5088.81,3.13,50577.54,4355.82,3.13,79556.90,2483.87,3.13,44522.50,1575.86,3.13,26546.60
1695800,502.79,903.05,1.00,1,1,1,5014.11,3.14,8701.70,5014.11,3.14,3504.85,5088.81,3.13,34110.43,3202.26,3.13,33418.91,2039.82,3.13,21579.53
