%@metadata width_px 1920.0
%@metadata height_px 1080.0
%@metadata width_mm 540.0
%@metadata height_mm 254.0
%@metadata distance_mm 620.0
% The number after speed, direction denotes the step size that was used for the calculation.
% Acceleration was calculated between two adjacent samples of the already low pass filtered velocity
@RELATION gaze_labels

@ATTRIBUTE time INTEGER
@ATTRIBUTE x NUMERIC
@ATTRIBUTE y NUMERIC
@ATTRIBUTE confidence NUMERIC
@ATTRIBUTE handlabeller_final INTEGER
@ATTRIBUTE EYE_MOVEMENT_TYPE {UNKNOWN, FIX, SACCADE, SP, NOISE, BLINK, NOISE_CLUSTER, PSO}

@DATA
0,191.13,617.09,1.0,1,FIX
15200,131.19,610.17,1.0,1,FIX
45000,127.21,617.18,1.0,1,FIX
81800,189.26,665.54,1.0,1,FIX
96900,169.72,620.57,1.0,1,FIX
126500,156.46,618.2,1.0,1,FIX
142300,191.52,651.63,1.0,1,FIX
156500,159.24,628.01,1.0,1,FIX
178100,178.57,618.3,1.0,1,FIX
193200,164.24,643.03,1.0,2,FIX
207700,190.21,653.08,1.0,1,FIX
222800,128.58,570.81,1.0,1,FIX
236700,258.8,683.86,1.0,1,FIX
251300,211.51,657.46,1.0,1,FIX
273900,180.39,622.14,1.0,2,SACCADE
288100,209.43,657.88,1.0,2,SACCADE
303400,249.71,680.24,1.0,2,SACCADE
318800,477.66,755.81,1.0,2,FIX
333900,1082.28,734.81,1.0,3,FIX
348900,1140.06,734.98,1.0,1,FIX
364000,1177.33,739.98,1.0,1,FIX
386600,1179.63,766.43,1.0,1,FIX
402100,1115.29,730.65,1.0,1,FIX
416500,1170.83,767.86,1.0,1,FIX
446000,1098.76,703.52,1.0,2,SACCADE
460600,1141.55,706.03,1.0,2,SACCADE
475600,1228.69,661.92,1.0,3,FIX
512200,1375.3,557.09,1.0,1,FIX
526800,1470.45,595.79,1.0,1,FIX
540800,1534.61,598.72,1.0,1,FIX
556000,1423.5,575.69,1.0,1,FIX
577400,1457.56,569.22,1.0,2,SACCADE
592500,1472.89,572.45,1.0,2,SACCADE
608000,1491.05,582.99,1.0,3,SACCADE
623100,1294.23,672.62,1.0,3,SACCADE
637200,1071.24,819.49,1.0,1,SP
652100,843.25,856.92,1.0,1,FIX
667400,859.57,840.71,1.0,1,FIX
689900,896.68,950.86,1.0,1,FIX
704900,868.5,893.35,1.0,1,FIX
720000,875.18,876.63,1.0,1,FIX
735500,930.92,869.16,1.0,1,FIX
751300,855.17,856.22,1.0,1,FIX
765700,831.51,847.47,1.0,2,FIX
780100,910.71,867.21,1.0,2,SACCADE
795500,903.78,853.02,1.0,2,SACCADE
833000,1085.26,801.59,1.0,1,FIX
847000,1093.86,738.83,1.0,1,FIX
877000,1172.42,801.36,1.0,1,FIX
891500,1169.73,798.88,1.0,1,FIX
913900,1167.29,831.39,1.0,1,FIX
929200,1158.99,803.18,1.0,1,FIX
944200,1164.52,794.48,1.0,1,FIX
958100,1099.21,772.48,1.0,1,FIX
972600,1146.55,767.89,1.0,1,FIX
994400,1150.98,738.42,1.0,1,FIX
1008800,1208.09,794.85,1.0,1,FIX
1023900,1156.33,764.44,1.0,1,FIX
1037900,1178.16,771.01,1.0,1,FIX
1052800,1177.85,757.29,1.0,4,NOISE
1074600,1198.35,804.96,1.0,4,NOISE
1089600,1154.48,762.93,1.0,4,NOISE
1104200,1120.36,781.52,1.0,4,NOISE
1120000,1886.31,658.6,1.0,4,NOISE
1149800,1862.01,650.25,1.0,4,NOISE
1165200,1899.45,621.83,1.0,4,NOISE
1201700,1658.45,585.8,1.0,4,NOISE
1215800,1397.61,611.27,1.0,4,NOISE
1230200,1523.13,664.93,1.0,4,NOISE
1259900,1493.56,637.16,1.0,1,NOISE
1282100,1367.1,623.69,1.0,1,NOISE
1297200,1369.49,604.04,1.0,1,FIX
1312000,1412.89,669.71,1.0,1,FIX
1326900,1352.63,598.89,1.0,1,FIX
1342000,1318.06,582.33,1.0,1,FIX
1357300,1299.87,585.02,1.0,1,FIX
1371600,1313.18,589.93,1.0,1,FIX
1387800,1310.7,599.06,1.0,1,FIX
1410000,1370.47,644.61,1.0,2,FIX
1425000,1377.66,644.48,1.0,2,FIX
1439000,1334.45,607.39,1.0,1,FIX
1453900,1363.46,583.02,1.0,1,FIX
1467900,1363.46,583.02,1.0,1,FIX
1490000,1375.87,613.3,1.0,1,FIX
1505000,1396.03,581.06,1.0,1,FIX
1520000,1415.13,567.61,1.0,1,FIX
1534900,1481.74,627.58,1.0,1,FIX
1550000,1481.74,627.58,1.0,1,FIX
1580600,1422.06,589.54,1.0,1,FIX
1595400,1468.14,615.21,1.0,1,SACCADE
1632000,1400.2,566.86,1.0,2,SACCADE
1647000,1402.47,586.74,1.0,2,SACCADE
1661500,1348.03,621.68,1.0,3,SACCADE
1676300,1168.16,855.9,1.0,3,SACCADE
1697800,834.97,825.66,1.0,1,SP
1712800,752.74,825.08,1.0,1,FIX
1726900,821.18,888.07,1.0,1,FIX
1741200,819.89,883.4,1.0,1,FIX
1756500,915.64,985.27,1.0,1,FIX
1777800,856.93,931.53,1.0,1,FIX
1792000,837.16,933.86,1.0,1,FIX
1807100,846.63,878.88,1.0,1,FIX
1821600,847.87,889.41,1.0,1,FIX
1836600,844.0,889.63,1.0,1,FIX
1858100,781.87,878.35,1.0,1,FIX
1873200,773.14,833.89,1.0,2,FIX
1888800,841.53,925.48,1.0,1,FIX
1903700,808.92,870.27,1.0,1,FIX
1918900,745.64,841.4,1.0,1,FIX
1947900,734.28,852.46,1.0,1,FIX
1971000,765.75,867.1,1.0,1,FIX
2001000,721.83,771.72,1.0,1,FIX
2016500,784.69,882.3,1.0,1,FIX
2031000,786.73,886.5,1.0,4,FIX
2046100,743.96,855.41,1.0,4,SACCADE
2060300,716.14,830.99,1.0,4,SACCADE
2075800,773.5,821.85,1.0,4,NOISE
2098600,1151.59,717.95,1.0,4,NOISE
2112600,1784.77,614.46,1.0,4,NOISE
2126700,1878.94,613.38,1.0,4,NOISE
2141300,1918.53,586.45,1.0,4,NOISE
2156300,1896.15,579.5,1.0,4,SACCADE
2171400,1834.96,621.37,1.0,4,SACCADE
2194100,1782.56,574.97,1.0,4,SACCADE
2209000,1693.91,740.78,1.0,4,SACCADE
2224200,1470.39,731.33,1.0,4,NOISE
2239700,1475.03,615.56,1.0,4,FIX
2254600,1404.75,624.02,1.0,1,FIX
2269700,1401.38,642.14,1.0,1,FIX
2284000,1435.11,651.56,1.0,1,FIX
2322400,1390.31,649.2,1.0,1,FIX
2336800,1362.97,652.35,1.0,1,FIX
2351500,1350.8,606.11,1.0,1,FIX
2381300,1409.89,641.9,1.0,1,FIX
2395900,1388.96,598.6,1.0,1,FIX
2417300,1424.85,606.53,1.0,1,FIX
2431800,1412.49,662.67,1.0,1,FIX
2446900,1415.09,641.08,1.0,1,FIX
2461400,1401.1,626.23,1.0,1,FIX
2476200,1390.78,597.83,1.0,1,FIX
2491400,1354.14,605.96,1.0,1,FIX
2514000,1418.72,599.79,1.0,1,FIX
2528100,1369.08,568.72,1.0,1,FIX
2543400,1408.54,570.74,1.0,1,FIX
2557900,1400.16,600.93,1.0,1,FIX
2573100,1421.04,615.87,1.0,1,FIX
2588300,1421.04,615.87,1.0,1,FIX
2609900,1434.76,586.93,1.0,2,SACCADE
2624800,1401.45,584.21,1.0,2,SACCADE
2639900,1358.69,632.28,1.0,3,SP
2654900,1226.51,803.23,1.0,1,FIX
2669000,1099.32,833.29,1.0,1,FIX
2706600,1093.81,835.02,1.0,1,FIX
2721400,1130.54,822.71,1.0,1,FIX
2752000,1123.29,842.85,1.0,1,FIX
2767000,1122.56,840.36,1.0,2,FIX
2781800,1071.67,787.19,1.0,2,FIX
2796800,1112.21,853.44,1.0,2,NOISE
2811500,1103.85,805.54,1.0,2,NOISE
2833500,1248.08,752.73,1.0,4,NOISE
2847400,1378.09,615.25,1.0,4,NOISE
2877500,1676.29,599.58,1.0,4,NOISE
2892600,1869.18,640.94,1.0,4,NOISE
2907500,1879.31,595.3,1.0,4,NOISE
2929700,1906.74,595.61,1.0,4,NOISE
2944100,1868.83,650.44,1.0,4,NOISE
2959900,1822.46,629.9,1.0,4,NOISE
2974400,1787.34,567.98,1.0,4,FIX
2989200,1716.35,556.67,1.0,4,FIX
3003600,1707.84,631.65,1.0,4,FIX
3024900,1721.4,614.76,1.0,4,FIX
3040000,1679.31,618.17,1.0,4,FIX
3069000,1660.45,668.49,1.0,1,FIX
3083900,1607.99,659.58,1.0,1,FIX
3105000,1612.11,608.07,1.0,1,FIX
3134700,1631.07,634.46,1.0,1,FIX
3148800,1658.38,648.32,1.0,1,FIX
3163800,1579.93,636.09,1.0,1,FIX
3185100,1548.08,651.93,1.0,1,FIX
3199300,1551.12,636.72,1.0,1,FIX
3214100,1568.17,623.95,1.0,1,FIX
3228000,1606.51,629.61,1.0,1,FIX
3250700,1607.54,639.75,1.0,1,FIX
3265700,1545.38,625.83,1.0,1,FIX
3280900,1547.78,669.58,1.0,1,FIX
3295800,1568.64,630.63,1.0,1,FIX
3310400,1567.66,644.65,1.0,2,FIX
3324800,1550.34,617.75,1.0,2,SACCADE
3339900,1564.59,619.8,1.0,2,SACCADE
3362300,1528.63,623.1,1.0,2,SACCADE
3377500,1371.77,699.54,1.0,3,SP
3392100,1232.02,841.03,1.0,1,FIX
3407300,1057.62,842.87,1.0,1,FIX
3422500,1058.63,873.86,1.0,1,FIX
3452500,1031.28,882.56,1.0,1,FIX
3467400,1037.61,869.91,1.0,1,FIX
3503800,1058.54,895.62,1.0,1,FIX
3518700,1044.15,837.01,1.0,1,FIX
3533700,1043.73,862.91,1.0,2,SACCADE
3548700,1031.94,860.13,1.0,2,SACCADE
3564100,1004.17,818.19,1.0,3,SACCADE
3586300,949.62,872.81,1.0,1,FIX
3600800,753.6,847.12,1.0,1,FIX
3616100,728.56,845.35,1.0,1,FIX
3631100,794.96,912.9,1.0,1,FIX
3646000,742.68,887.88,1.0,1,FIX
3660600,782.61,832.6,1.0,1,FIX
3675600,751.51,842.34,1.0,1,FIX
3697100,737.02,845.1,1.0,1,FIX
3712700,729.22,815.25,1.0,1,FIX
3726600,739.61,864.33,1.0,1,FIX
