%@metadata width_px 1920.0
%@metadata height_px 1080.0
%@metadata width_mm 540.0
%@metadata height_mm 254.0
%@metadata distance_mm 620.0
% The number after speed, direction denotes the step size that was used for the calculation.
% Acceleration was calculated between two adjacent samples of the already low pass filtered velocity
@RELATION gaze_labels

@ATTRIBUTE time INTEGER
@ATTRIBUTE x NUMERIC
@ATTRIBUTE y NUMERIC
@ATTRIBUTE confidence NUMERIC
@ATTRIBUTE handlabeller_final INTEGER
@ATTRIBUTE EYE_MOVEMENT_TYPE {UNKNOWN, FIX, SACCADE, SP, NOISE, BLINK, NOISE_CLUSTER, PSO}

@DATA
0,365.72,1063.43,1.0,1,FIX
15200,334.49,1030.31,1.0,1,FIX
30000,339.94,1057.68,1.0,1,FIX
45400,339.94,1057.68,1.0,1,FIX
67800,303.61,1042.71,1.0,1,FIX
82800,311.76,1068.64,1.0,1,FIX
113000,277.96,1027.05,1.0,1,FIX
127800,303.34,1057.9,1.0,1,FIX
164600,332.9,1078.68,1.0,2,SACCADE
180200,287.65,1061.11,1.0,2,SACCADE
195200,322.75,1062.64,1.0,2,SACCADE
210300,407.55,1093.74,1.0,3,SP
225500,611.68,1104.98,1.0,3,FIX
240400,827.49,1025.78,1.0,1,FIX
255400,836.48,965.24,1.0,1,FIX
269900,866.15,993.91,1.0,1,FIX
292300,790.7,923.77,1.0,1,FIX
307500,830.83,903.34,1.0,1,FIX
322300,782.07,899.92,1.0,1,FIX
336600,861.27,978.81,1.0,1,FIX
351100,873.09,964.18,1.0,1,FIX
366100,759.48,910.73,1.0,1,FIX
381400,819.07,964.81,1.0,2,SACCADE
404100,851.22,969.16,1.0,2,SACCADE
419100,882.17,923.09,1.0,3,SP
434000,1009.54,804.61,1.0,3,FIX
448100,1110.87,774.85,1.0,1,FIX
477400,1137.69,762.75,1.0,1,FIX
498300,1126.36,752.43,1.0,1,FIX
513300,1134.78,753.89,1.0,1,FIX
542400,1145.75,767.34,1.0,1,FIX
557400,1140.35,733.59,1.0,1,FIX
580000,1110.23,741.93,1.0,1,FIX
594500,1181.63,771.01,1.0,1,FIX
609900,1116.72,750.0,1.0,1,FIX
625000,1191.7,786.05,1.0,1,FIX
638900,1191.7,786.05,1.0,2,FIX
654000,1167.24,763.91,1.0,2,SACCADE
676300,1103.26,707.75,1.0,2,SACCADE
691600,1097.31,816.98,1.0,1,FIX
705400,1015.11,889.01,1.0,1,FIX
720200,898.65,794.79,1.0,1,FIX
735400,966.2,860.51,1.0,1,FIX
750000,970.85,896.52,1.0,4,NOISE
772100,960.35,867.36,1.0,4,NOISE
787400,975.41,863.6,1.0,4,NOISE
801600,1440.19,976.79,1.0,4,NOISE
831500,1704.69,973.98,1.0,4,NOISE
861600,1746.03,806.53,1.0,4,NOISE
884400,1729.95,844.67,1.0,4,NOISE
914000,1655.32,917.66,1.0,4,NOISE
929100,1632.86,865.12,1.0,4,NOISE
944200,1510.12,861.89,1.0,4,NOISE
958200,1414.5,804.21,1.0,4,NOISE
973800,1371.47,775.08,1.0,4,NOISE
989600,1303.42,790.59,1.0,4,FIX
1011800,1209.55,722.06,1.0,4,FIX
1026700,1159.65,746.34,1.0,4,FIX
1042100,1140.4,734.78,1.0,4,FIX
1057000,1111.65,787.57,1.0,4,FIX
1071800,1088.04,789.22,1.0,1,FIX
1086600,1116.82,798.86,1.0,1,FIX
1108000,1108.01,778.68,1.0,1,FIX
1137200,1060.29,768.09,1.0,1,FIX
1151700,1110.17,792.64,1.0,1,FIX
1166400,1153.29,796.29,1.0,1,FIX
1187900,1117.19,772.38,1.0,1,FIX
1203600,1063.87,781.5,1.0,1,FIX
1233300,1095.32,772.28,1.0,2,SACCADE
1247200,1083.37,820.65,1.0,2,SACCADE
1261800,1085.96,827.36,1.0,3,SACCADE
1299200,973.95,950.93,1.0,1,FIX
1314700,842.95,1024.5,1.0,1,FIX
1330700,861.32,1075.94,1.0,1,FIX
1345100,794.24,1005.89,1.0,1,FIX
1359100,792.36,930.74,1.0,1,FIX
1373600,806.9,975.98,1.0,1,FIX
1395300,837.52,996.13,1.0,1,FIX
1409500,811.94,970.78,1.0,1,FIX
1423600,814.1,936.9,1.0,1,FIX
1437600,789.09,963.27,1.0,1,FIX
1460100,812.75,949.24,1.0,1,FIX
1474900,816.61,1015.91,1.0,1,FIX
1489000,824.27,983.78,1.0,1,FIX
1504200,829.08,1000.83,1.0,1,FIX
1534000,844.9,978.84,1.0,1,FIX
1555800,884.57,937.64,1.0,1,FIX
1570400,825.22,937.28,1.0,1,FIX
1584900,849.89,1017.69,1.0,1,FIX
1614400,865.34,966.54,1.0,1,FIX
1636300,856.84,991.19,1.0,1,FIX
1666400,816.92,912.28,1.0,1,FIX
1681600,780.45,926.48,1.0,1,FIX
1696500,836.96,971.37,1.0,1,FIX
1711300,837.89,973.84,1.0,1,FIX
1726400,785.25,929.33,1.0,1,FIX
1742000,805.88,978.85,1.0,2,FIX
1764500,846.03,974.44,1.0,2,FIX
1780500,835.54,971.74,1.0,2,FIX
