%@metadata width_px 1920.0
%@metadata height_px 1080.0
%@metadata width_mm 540.0
%@metadata height_mm 254.0
%@metadata distance_mm 620.0
% The number after speed, direction denotes the step size that was used for the calculation.
% Acceleration was calculated between two adjacent samples of the already low pass filtered velocity
@RELATION gaze_labels

@ATTRIBUTE time INTEGER
@ATTRIBUTE x NUMERIC
@ATTRIBUTE y NUMERIC
@ATTRIBUTE confidence NUMERIC
@ATTRIBUTE handlabeller_final INTEGER
@ATTRIBUTE EYE_MOVEMENT_TYPE {UNKNOWN, FIX, SACCADE, SP, NOISE, BLINK, NOISE_CLUSTER, PSO}

@DATA
0,440.67,868.02,1.0,1,FIX
15000,516.78,900.96,1.0,1,FIX
37200,495.78,903.0,1.0,1,FIX
52100,439.38,818.25,1.0,1,FIX
66100,431.27,820.02,1.0,1,FIX
80700,499.84,889.09,1.0,1,FIX
95700,452.01,845.38,1.0,1,FIX
116900,439.66,803.62,1.0,1,SACCADE
132100,462.14,812.98,1.0,2,SACCADE
146500,470.19,857.95,1.0,2,SACCADE
161300,469.06,877.51,1.0,2,SACCADE
175900,676.47,945.0,1.0,2,SP
190600,937.65,908.66,1.0,3,FIX
213000,1114.43,784.19,1.0,1,FIX
228000,1118.51,792.64,1.0,1,FIX
243200,1098.77,710.2,1.0,1,FIX
257900,1132.39,726.27,1.0,1,FIX
273500,1113.46,691.94,1.0,1,FIX
288700,1119.88,771.25,1.0,1,FIX
318900,1124.57,808.39,1.0,1,FIX
342000,1115.43,747.98,1.0,1,FIX
356100,1123.26,762.18,1.0,1,FIX
370500,1145.91,778.29,1.0,1,FIX
400500,1094.05,707.99,1.0,1,FIX
416000,1117.76,691.02,1.0,1,FIX
430800,1065.59,711.18,1.0,1,FIX
453900,1150.65,775.16,1.0,1,FIX
468800,1157.08,796.41,1.0,1,FIX
483400,1129.96,773.46,1.0,1,FIX
497300,1160.51,786.81,1.0,1,FIX
512000,1192.31,774.02,1.0,1,FIX
533600,1098.71,728.7,1.0,1,FIX
548500,1133.06,723.68,1.0,1,FIX
562900,1165.85,753.59,1.0,1,FIX
577800,1107.48,770.45,1.0,1,FIX
592800,1104.77,702.75,1.0,1,FIX
606800,1143.78,798.52,1.0,1,FIX
628900,1150.01,784.47,1.0,1,FIX
644000,1131.65,759.27,1.0,2,FIX
659100,1121.82,728.33,1.0,2,FIX
689000,1138.96,750.09,1.0,2,FIX
719000,1181.38,747.32,1.0,1,FIX
741800,1164.86,786.18,1.0,1,FIX
771500,1167.62,751.72,1.0,1,FIX
786300,1159.34,757.29,1.0,1,FIX
801100,1189.39,774.27,1.0,4,FIX
816100,1208.68,765.81,1.0,4,SACCADE
830700,1192.69,773.46,1.0,4,NOISE
852100,1249.34,765.74,1.0,4,NOISE
866200,1538.67,646.59,1.0,4,NOISE
881300,1752.86,688.31,1.0,4,NOISE
896700,1839.82,674.03,1.0,4,NOISE
911200,1861.16,637.73,1.0,4,NOISE
933500,1598.31,621.93,1.0,4,SACCADE
948900,1485.22,634.13,1.0,4,SACCADE
963900,1401.39,618.96,1.0,4,SACCADE
979000,1156.72,749.06,1.0,4,FIX
994000,1152.36,744.21,1.0,4,FIX
1008700,1056.48,791.8,1.0,4,FIX
1023800,1099.97,809.22,1.0,4,FIX
1038900,1133.56,803.23,1.0,1,FIX
1061700,1109.63,817.16,1.0,1,FIX
1091700,1069.1,818.87,1.0,1,FIX
1105600,1041.51,782.99,1.0,1,FIX
1135100,1083.07,803.32,1.0,2,SACCADE
1156100,1091.76,849.3,1.0,3,SACCADE
1171100,1016.99,765.77,1.0,1,FIX
1185900,987.09,886.59,1.0,1,FIX
1201000,970.58,931.52,1.0,1,FIX
1216300,981.84,901.99,1.0,1,FIX
1231000,949.46,880.49,1.0,1,FIX
1253500,978.47,895.08,1.0,1,FIX
1269100,948.6,915.74,1.0,1,FIX
1284300,953.65,934.84,1.0,1,FIX
1300100,946.71,937.85,1.0,1,FIX
1315100,908.99,932.05,1.0,1,FIX
1329900,929.1,934.45,1.0,1,FIX
1345500,982.47,961.35,1.0,1,FIX
1360000,953.05,986.93,1.0,1,FIX
1375000,970.59,939.22,1.0,1,FIX
1397300,956.86,943.56,1.0,1,FIX
1412200,935.68,923.25,1.0,1,FIX
1426100,941.85,905.95,1.0,2,FIX
1455100,910.27,897.97,1.0,1,FIX
1477900,878.36,918.53,1.0,1,FIX
1493100,866.96,907.56,1.0,1,FIX
