@RELATION gaze_labels

%@METADATA width_px 1920
%@METADATA height_px 1080
%@METADATA width_mm 540.00
%@METADATA height_mm 254.00
%@METADATA distance_mm 620.00


@ATTRIBUTE time INTEGER
@ATTRIBUTE x NUMERIC
@ATTRIBUTE y NUMERIC
@ATTRIBUTE confidence NUMERIC
@ATTRIBUTE handlabeller1 INTEGER
@ATTRIBUTE handlabeller2 INTEGER
@ATTRIBUTE handlabeller_final INTEGER
@ATTRIBUTE speed_1 numeric
@ATTRIBUTE direction_1 numeric
@ATTRIBUTE acceleration_1 numeric
@ATTRIBUTE speed_2 numeric
@ATTRIBUTE direction_2 numeric
@ATTRIBUTE acceleration_2 numeric
@ATTRIBUTE speed_4 numeric
@ATTRIBUTE direction_4 numeric
@ATTRIBUTE acceleration_4 numeric
@ATTRIBUTE speed_8 numeric
@ATTRIBUTE direction_8 numeric
@ATTRIBUTE acceleration_8 numeric
@ATTRIBUTE speed_16 numeric
@ATTRIBUTE direction_16 numeric
@ATTRIBUTE acceleration_16 numeric

%The number after speed, direction denotes the step size that was used for the calculation.
%Acceleration was calculated between two adjacent samples of the already low pass filtered velocity

@DATA
0,340.26,554.38,1.00,1,1,1,0.00,0.00,0.00,1599.98,0.70,0.00,688.22,0.90,0.00,16.53,-0.25,0.00,558.59,0.71,0.00
21900,367.16,576.84,1.00,1,1,1,1599.98,0.70,73058.38,688.22,0.90,42780.35,1067.38,2.09,47050.05,209.93,-0.64,8890.85,401.07,2.58,35451.81
35900,355.59,573.75,1.00,1,1,1,855.00,-2.88,171603.79,1067.38,2.09,73599.72,16.53,-0.25,77068.39,94.04,-1.68,12930.70,833.75,2.60,30919.78
50700,351.97,603.56,1.00,1,1,1,2028.81,1.69,155980.30,834.81,-2.20,108342.96,209.93,-0.64,13156.06,582.38,0.26,42046.36,736.47,2.66,7225.95
65000,341.30,554.11,1.00,1,1,1,3537.74,-1.78,384272.29,1483.79,-0.94,102370.92,94.04,-1.68,12659.43,558.59,0.71,17915.92,882.53,1.85,45336.01
79000,376.78,569.68,1.00,1,1,1,2767.24,0.41,401823.08,539.55,0.78,118090.11,582.38,0.26,44449.01,401.07,2.58,55456.76,861.84,2.47,37880.47
100700,354.96,567.69,1.00,1,1,1,1009.61,-3.05,172278.44,1243.01,1.31,37961.16,1009.38,0.72,25476.84,833.75,2.60,19948.25,872.66,2.37,3870.08
115300,388.31,613.31,1.00,2,2,2,3870.01,0.94,315082.31,1395.96,0.71,54929.83,805.00,2.56,99263.98,736.47,2.66,7324.94,944.45,2.83,28288.12
144200,401.19,607.07,1.00,3,3,3,495.22,-0.45,131918.33,1400.04,-3.06,92086.65,1437.78,2.56,21896.38,882.53,1.85,22432.70,467.06,1.96,25326.87
165300,318.54,607.56,1.00,3,3,3,3917.00,3.14,207070.95,3229.76,2.93,91729.25,1559.38,2.83,20127.12,861.84,2.47,25133.96,581.13,2.20,7900.37
194600,242.18,641.91,1.00,1,1,1,2857.68,2.72,59490.57,1956.37,2.52,55681.73,1603.76,2.45,20639.06,872.66,2.37,2866.24,453.63,1.85,7447.52
209400,248.54,657.99,1.00,1,1,1,1168.36,1.19,205197.11,2566.47,0.67,245298.22,930.53,2.38,45829.71,944.45,2.83,27905.85,323.79,2.55,19693.94
224400,302.25,689.25,1.00,1,1,1,4142.99,0.53,220346.53,439.73,0.07,147814.44,394.66,1.04,61497.66,925.56,2.57,15679.46,494.11,2.27,13465.45
245600,264.42,659.08,1.00,1,1,1,2282.45,-2.47,302345.78,1508.59,-2.65,90490.92,55.14,2.54,18601.03,813.66,2.01,23561.27,524.57,2.36,2608.65
259800,255.10,664.16,1.00,1,1,1,747.21,2.64,148486.04,656.94,3.09,70641.15,267.49,-2.48,18037.22,742.53,0.64,69208.71,448.41,1.95,15125.20
274300,245.59,660.02,1.00,1,1,1,715.82,-2.73,44389.39,1286.77,0.41,130895.06,881.74,1.43,75129.88,204.49,-0.08,41668.07,441.60,2.52,17294.71
288300,288.73,678.78,1.00,1,1,1,3360.88,0.41,291192.90,1939.71,1.09,88228.60,1136.49,0.50,66613.05,460.53,-2.68,46004.24,435.81,1.11,40674.60
302900,271.41,709.12,1.00,1,1,1,2392.65,2.09,296703.77,1026.50,0.59,78299.58,460.37,-0.14,55904.94,142.10,1.29,38812.20,1017.96,0.15,57793.12
324400,319.44,699.53,1.00,1,1,1,2277.89,-0.20,197701.58,1498.55,-1.51,102473.49,658.65,-2.75,50289.23,446.91,0.42,17275.46,1383.29,0.08,17498.21
338500,274.85,655.88,1.00,1,1,1,4425.39,-2.37,426359.37,2786.07,-2.66,182210.74,524.12,-1.64,45096.10,374.13,0.61,7452.58,1128.87,-0.08,22577.87
352800,249.43,662.65,1.00,1,1,1,1839.55,2.88,267750.99,724.26,1.85,211046.96,261.11,-2.36,25915.62,1308.73,0.21,68197.40,1110.97,0.03,8279.41
366900,269.17,675.65,1.00,2,2,2,1675.87,0.58,227562.87,1773.52,0.41,129686.36,515.30,1.26,53693.76,2481.81,-0.19,97168.77,1051.57,-0.11,11365.85
388500,307.57,687.73,1.00,2,2,2,1863.74,0.30,24240.59,550.09,0.64,57625.91,3249.31,0.24,139280.63,2220.61,-0.11,14612.20,1052.35,-0.14,1357.89
403100,285.14,687.54,1.00,3,3,3,1536.11,-3.13,230341.40,5082.27,0.17,314885.19,4867.71,-0.08,142001.95,2044.73,-0.08,13190.11,1205.84,0.01,15439.39
417900,454.72,713.66,1.00,1,1,1,11593.14,0.15,886159.68,10363.37,-0.13,386023.22,4820.02,-0.07,6444.54,2623.73,0.10,47973.38,867.61,-0.04,23069.26
432500,587.37,648.94,1.00,1,1,1,10109.43,-0.45,454566.11,4858.13,-0.32,388324.87,3966.25,-0.20,70848.81,1917.76,-0.17,63889.42,1066.34,0.00,13834.25
447400,590.84,668.81,1.00,1,1,1,1353.94,1.40,709100.07,1341.55,-2.87,403817.23,2082.75,-0.12,127350.96,1665.76,-0.26,20306.61,952.62,-0.21,16255.83
468800,540.51,635.68,1.00,1,1,1,2815.57,-2.56,180890.70,801.05,1.62,80015.14,627.69,-2.72,123347.29,2017.34,-0.08,22528.93,934.02,-0.02,8571.76
483100,589.54,697.38,1.00,1,1,1,5510.97,0.90,575740.59,172.81,-1.33,67917.87,786.63,-2.43,17951.96,596.10,-0.49,103991.86,1302.80,0.03,26104.13
511400,542.25,628.52,1.00,1,1,1,2951.60,-2.17,298866.17,1762.53,-2.17,58371.46,557.21,0.68,47479.36,368.48,1.61,29801.52,2120.78,0.01,28942.82
533000,539.89,624.78,1.00,1,1,1,204.79,-2.13,127175.44,1325.61,0.82,142576.02,633.81,-2.65,54895.75,163.86,-1.70,24573.02,2148.35,-0.02,3442.03
547000,574.41,663.07,1.00,1,1,1,3681.68,0.84,277400.08,1056.51,1.62,68242.71,1069.91,1.08,116723.08,100.24,1.37,18853.50,2170.02,-0.11,13862.80
575600,537.83,669.74,1.00,1,1,1,1299.81,2.96,157427.42,952.81,1.35,10129.93,639.08,0.35,25692.59,260.83,-0.55,10850.33,1541.44,-0.14,22061.15
597000,585.02,709.51,1.00,2,2,2,2883.54,0.70,179620.96,1555.74,-0.51,95323.53,416.23,-2.77,49311.05,2381.09,0.15,102319.16,1001.26,-0.00,26484.41
612100,587.41,642.04,1.00,2,2,2,4470.69,-1.54,440336.03,2441.79,-2.19,200850.14,1331.02,0.07,114769.18,2713.20,0.13,22541.42,1209.28,-0.06,14317.15
626300,543.62,651.16,1.00,3,3,3,3149.61,2.94,426146.82,1740.94,0.74,292874.30,5101.21,-0.10,267207.51,2324.62,-0.14,53743.20,1287.16,-0.04,5663.42
640900,624.54,675.73,1.00,3,3,3,5792.54,0.29,595120.89,11705.38,0.09,710289.35,5287.08,0.09,67858.67,2747.91,-0.05,32425.26,1136.92,-0.15,13676.52
655200,880.56,681.28,1.00,1,1,1,17907.68,0.02,869128.58,8489.60,-0.01,234783.03,5651.19,-0.09,75156.43,2424.04,-0.21,36299.07,1229.73,0.02,15233.26
676400,925.92,673.42,1.00,1,1,1,2171.13,-0.17,744455.42,1932.75,-1.21,377018.28,4206.93,-0.09,68125.49,2783.02,0.02,32629.34,1366.94,0.06,7059.06
690500,904.86,617.52,1.00,1,1,1,4235.87,-1.93,362364.02,1409.74,-2.55,150062.07,534.75,-1.76,304288.85,2851.89,-0.08,20948.54,1089.57,-0.24,32611.45
704900,892.64,650.90,1.00,1,1,1,2468.47,1.92,438531.79,1510.06,2.36,128676.48,488.04,-0.93,28803.81,2248.97,-0.09,41905.28,176.68,-1.60,74120.45
719000,874.23,647.75,1.00,1,1,1,1324.63,-2.97,183122.13,1463.78,-0.05,196999.39,65.76,0.75,35423.10,369.60,-1.65,161323.89,369.39,-2.11,16426.56
740500,944.69,648.39,1.00,1,1,1,3277.34,0.01,213481.44,1222.77,-0.68,40354.76,281.88,-0.12,11385.47,232.09,-2.12,8967.82,776.24,3.13,31236.48
754500,907.94,620.40,1.00,1,1,1,3299.99,-2.49,445825.99,1217.94,3.13,164621.33,216.13,-1.39,21488.30,382.41,-2.62,15015.36,726.59,-2.97,10397.22
768600,910.47,648.77,1.00,1,1,1,2019.70,1.48,347131.00,1179.85,2.73,33978.16,534.54,-3.13,43185.42,2780.20,-3.07,173160.83,2248.97,-0.09,209696.01
783400,876.69,634.05,1.00,1,1,1,2489.29,-2.73,262514.07,20.95,-1.62,80228.11,825.56,-2.60,30704.54,2624.66,-3.09,11288.74,369.60,-1.65,153693.70
804600,910.43,648.01,1.00,2,2,2,1722.19,0.39,198646.82,1224.32,-1.91,56802.31,5785.35,-3.08,238973.86,4343.33,-3.14,81397.66,232.09,-2.12,9094.72
819000,862.34,592.90,1.00,2,2,2,5079.45,-2.29,462916.66,13013.97,-3.08,874232.25,5293.19,-3.13,39993.91,3903.99,-3.14,30517.22,382.41,-2.62,14598.27
833400,536.38,624.22,1.00,3,3,3,22740.37,3.05,1403390.79,11475.47,3.03,184663.80,8158.08,-3.14,198965.95,5785.35,-3.08,132216.98,2780.20,-3.07,169553.32
847500,537.42,630.16,1.00,3,3,3,427.82,1.40,1615417.86,4247.02,3.00,512798.70,6535.39,3.09,118580.39,5293.19,-3.13,40844.85,2624.66,-3.09,11849.17
868600,388.32,644.87,1.00,1,1,1,7100.68,3.04,338642.58,3762.91,-3.08,44623.20,4247.02,3.00,110726.49,8158.08,-3.14,135787.19,4343.33,-3.14,81783.44
897600,349.28,618.15,1.00,1,1,1,1631.33,-2.54,204994.02,1631.33,-2.54,86334.81,3762.91,-3.08,32467.22,6535.39,3.09,57654.60,3903.99,-3.14,15153.38
