%@metadata width_px 1920.0
%@metadata height_px 1080.0
%@metadata width_mm 540.0
%@metadata height_mm 254.0
%@metadata distance_mm 620.0
% The number after speed, direction denotes the step size that was used for the calculation.
% Acceleration was calculated between two adjacent samples of the already low pass filtered velocity
@RELATION gaze_labels

@ATTRIBUTE time INTEGER
@ATTRIBUTE x NUMERIC
@ATTRIBUTE y NUMERIC
@ATTRIBUTE confidence NUMERIC
@ATTRIBUTE handlabeller_final INTEGER
@ATTRIBUTE EYE_MOVEMENT_TYPE {UNKNOWN, FIX, SACCADE, SP, NOISE, BLINK, NOISE_CLUSTER, PSO}

@DATA
0,855.24,842.35,1.0,1,FIX
16100,877.86,853.75,1.0,1,FIX
32000,822.55,872.62,1.0,1,FIX
49000,831.11,853.21,1.0,1,FIX
80200,839.01,854.25,1.0,1,FIX
95900,873.73,846.01,1.0,1,FIX
112000,845.33,840.79,1.0,0,SACCADE
144300,834.98,852.17,1.0,2,SACCADE
160400,811.93,902.31,1.0,4,NOISE
176200,736.15,948.99,1.0,4,NOISE
191900,628.73,993.33,1.0,4,SP
208000,462.35,1190.95,1.0,4,FIX
224200,407.0,1158.18,1.0,4,FIX
240100,397.21,998.89,1.0,2,FIX
272000,426.21,925.73,1.0,2,FIX
287900,453.35,921.56,1.0,3,FIX
304100,442.79,946.96,1.0,3,FIX
320000,430.46,960.23,1.0,1,FIX
336000,466.27,974.5,1.0,1,FIX
368100,453.1,969.58,1.0,1,FIX
384200,480.26,974.02,1.0,1,FIX
401500,482.04,983.08,1.0,1,FIX
416500,485.12,976.65,1.0,1,FIX
432200,477.29,959.43,1.0,1,FIX
464000,490.43,971.71,1.0,1,FIX
480000,491.32,967.66,1.0,1,FIX
512200,486.52,973.32,1.0,1,FIX
527900,489.75,974.61,1.0,1,FIX
543900,462.11,968.53,1.0,1,FIX
560000,482.2,963.25,1.0,1,FIX
576100,478.91,968.89,1.0,1,FIX
592200,473.38,971.56,1.0,1,FIX
608500,471.38,965.01,1.0,1,FIX
640000,454.11,972.81,1.0,1,FIX
656000,467.61,978.16,1.0,1,FIX
672000,459.76,965.22,1.0,1,FIX
688000,455.3,969.26,1.0,1,FIX
720000,486.8,969.67,1.0,1,FIX
736000,455.09,959.36,1.0,1,FIX
752000,456.04,960.64,1.0,1,FIX
768000,438.99,970.09,1.0,1,FIX
784800,487.83,961.59,1.0,1,FIX
800300,492.36,958.33,1.0,1,FIX
832000,457.83,965.35,1.0,1,FIX
848100,494.86,959.66,1.0,1,FIX
864100,493.1,959.52,1.0,1,FIX
899800,466.35,977.44,1.0,1,FIX
912000,453.85,958.26,1.0,1,FIX
928100,492.65,960.75,1.0,1,FIX
944100,486.16,964.1,1.0,1,SACCADE
960100,485.07,959.66,1.0,1,SACCADE
992100,460.26,958.6,1.0,2,SP
1008000,510.13,964.17,1.0,3,FIX
1024000,750.82,870.37,1.0,1,FIX
1040000,900.04,804.08,1.0,1,FIX
1055900,867.3,846.32,1.0,1,FIX
1088300,875.71,878.52,1.0,1,FIX
1103900,833.47,872.12,1.0,1,FIX
1120100,882.96,855.12,1.0,1,FIX
1136300,856.54,880.23,1.0,1,FIX
1152100,848.34,881.25,1.0,1,SACCADE
1184000,799.84,890.51,1.0,1,SACCADE
1216100,817.38,881.75,1.0,2,SP
1232000,869.05,873.91,1.0,3,FIX
1264300,1167.57,782.36,1.0,1,FIX
1280500,1138.51,797.49,1.0,1,FIX
1296000,1156.39,814.96,1.0,1,FIX
1312000,1194.85,821.1,1.0,1,FIX
1344000,1087.45,837.33,1.0,1,FIX
1361800,1120.77,837.69,1.0,1,FIX
1376100,1098.13,845.23,1.0,1,FIX
1392000,1190.84,825.76,1.0,1,FIX
1408000,1131.22,838.79,1.0,1,FIX
1424000,1159.6,830.41,1.0,1,SACCADE
1456300,1154.93,829.75,1.0,2,SACCADE
1472000,1138.29,834.74,1.0,2,SP
1488000,1139.24,835.16,1.0,1,FIX
1504300,1222.08,816.1,1.0,1,FIX
1520100,1310.23,825.45,1.0,1,FIX
1535900,1322.22,815.87,1.0,1,FIX
1552100,1322.22,815.87,1.0,1,FIX
1584000,1243.45,823.72,1.0,1,SACCADE
1600200,1253.52,832.63,1.0,0,SACCADE
1632100,1213.39,838.56,1.0,2,NOISE
1648100,1146.39,907.02,1.0,4,NOISE
1664000,974.35,1031.39,1.0,4,NOISE
1680000,766.05,1118.37,1.0,4,NOISE
1696700,684.63,1254.55,1.0,4,NOISE
1712100,644.4,1209.05,1.0,4,NOISE
1728000,763.63,1046.05,1.0,2,NOISE
1744100,827.0,1028.49,1.0,2,FIX
1760100,787.02,1029.26,1.0,2,FIX
1792000,718.84,1007.98,1.0,1,FIX
1808000,648.93,986.82,1.0,1,FIX
1824100,627.77,984.42,1.0,1,UNKNOWN
1840100,628.7,984.67,1.0,1,UNKNOWN
