@RELATION gaze_labels

%@METADATA width_px 1920
%@METADATA height_px 1080
%@METADATA width_mm 540.00
%@METADATA height_mm 254.00
%@METADATA distance_mm 620.00


@ATTRIBUTE time INTEGER
@ATTRIBUTE x NUMERIC
@ATTRIBUTE y NUMERIC
@ATTRIBUTE confidence NUMERIC
@ATTRIBUTE handlabeller1 INTEGER
@ATTRIBUTE handlabeller2 INTEGER
@ATTRIBUTE handlabeller_final INTEGER
@ATTRIBUTE speed_1 numeric
@ATTRIBUTE direction_1 numeric
@ATTRIBUTE acceleration_1 numeric
@ATTRIBUTE speed_2 numeric
@ATTRIBUTE direction_2 numeric
@ATTRIBUTE acceleration_2 numeric
@ATTRIBUTE speed_4 numeric
@ATTRIBUTE direction_4 numeric
@ATTRIBUTE acceleration_4 numeric
@ATTRIBUTE speed_8 numeric
@ATTRIBUTE direction_8 numeric
@ATTRIBUTE acceleration_8 numeric
@ATTRIBUTE speed_16 numeric
@ATTRIBUTE direction_16 numeric
@ATTRIBUTE acceleration_16 numeric

%The number after speed, direction denotes the step size that was used for the calculation.
%Acceleration was calculated between two adjacent samples of the already low pass filtered velocity

@DATA
0,137.41,638.04,1.00,1,1,1,0.00,0.00,0.00,2971.19,0.04,0.00,1524.56,-0.00,0.00,1413.25,0.05,0.00,200.88,0.01,0.00
14700,181.05,639.87,1.00,1,1,1,2971.19,0.04,202121.53,1524.56,-0.00,98616.98,1925.90,-0.17,33681.66,446.77,-3.11,126528.50,478.78,-0.20,19401.79
29300,182.08,637.94,1.00,1,1,1,149.72,-1.08,199264.97,1925.90,-0.17,33912.36,1413.25,0.05,43243.11,260.57,0.01,48444.41,433.81,-0.21,3113.86
58700,264.55,625.38,1.00,1,1,1,2837.15,-0.15,93540.07,1342.24,0.09,24544.58,446.77,-3.11,63264.25,1075.00,2.92,45229.74,225.53,-0.08,7233.86
73600,241.29,643.46,1.00,1,1,1,1976.81,2.48,312993.78,2446.51,3.04,253171.58,260.57,0.01,47469.02,200.88,0.01,85322.25,4574.95,-0.12,291925.46
110600,138.24,638.34,1.00,1,1,1,2788.66,-3.09,49281.94,669.07,-2.99,48833.00,1075.00,2.92,35939.31,478.78,-0.20,7708.28,5768.19,-0.09,32490.03
125300,207.10,638.22,1.00,1,1,1,4684.50,-0.00,508221.27,1432.23,0.16,142944.82,902.61,-3.07,22940.08,433.81,-0.21,3092.68,4918.68,-0.07,58395.88
139800,179.55,644.80,1.00,1,1,1,1953.10,2.91,455191.38,1323.54,3.14,189465.68,1980.74,-0.11,198130.63,225.53,-0.08,14667.28,4716.75,-0.11,19161.82
154500,168.45,638.30,1.00,2,2,2,875.32,-2.61,98883.27,2603.79,-0.26,265210.95,699.61,-0.33,88925.37,4574.95,-0.12,295897.24,2255.96,-0.11,167406.87
169200,253.57,625.25,1.00,2,2,2,5857.87,-0.15,446305.95,2264.95,-0.18,26168.98,1802.83,-0.18,75924.69,5768.19,-0.09,81777.62,2171.10,-0.06,8707.14
191500,250.85,623.03,1.00,2,2,2,157.36,-2.46,267457.99,1187.18,-0.05,49254.52,11230.03,-0.10,423045.13,4918.68,-0.07,38494.15,2796.48,0.19,39492.80
206500,297.78,622.86,1.00,3,3,3,3128.93,-0.00,216794.05,22522.58,-0.09,1422428.11,8501.77,-0.09,182068.54,4716.75,-0.11,18523.10,3467.28,0.28,48215.54
220900,910.06,560.54,1.00,4,4,4,42738.77,-0.10,2751803.39,14717.43,-0.09,542024.11,8741.81,-0.05,28597.54,4417.31,-0.11,20796.71,3337.45,0.24,12096.88
250400,941.00,561.90,1.00,4,4,4,1049.75,0.04,1413571.35,757.45,2.13,514823.20,7141.87,-0.10,55456.10,3953.88,-0.04,18287.52,4487.81,0.28,39239.15
265000,892.47,588.94,1.00,4,4,4,3805.03,2.63,324035.72,1994.82,3.06,113805.01,1196.30,3.08,571070.48,5585.74,0.23,141506.27,3709.56,0.24,54357.34
286800,868.62,567.72,1.00,4,4,4,1464.27,-2.41,165105.07,2239.11,-2.87,36131.48,1711.82,2.80,29729.67,6922.11,0.29,63906.07,3493.53,0.13,20568.65
301500,813.83,566.67,1.00,4,4,4,3727.71,-3.12,189337.07,1575.83,2.39,133299.35,3630.97,1.06,290992.08,2910.09,0.84,319868.46,3693.90,0.09,16679.82
316300,834.61,599.41,1.00,4,4,4,2619.84,1.01,379454.08,10257.75,0.86,696555.47,8197.19,0.75,328058.79,4183.39,0.83,86060.11,3047.16,0.14,45129.47
331100,1010.79,797.75,1.00,4,4,4,17925.19,0.84,1036817.34,16577.92,0.66,464678.20,7419.63,0.69,62245.71,3114.42,0.77,73755.61,2989.08,0.09,11352.69
345800,1221.96,897.95,1.00,4,4,4,15900.26,0.44,478209.02,5465.91,0.42,771166.12,9129.19,0.66,117268.52,2631.72,0.59,47800.30,2243.70,0.13,51349.78
368000,1194.92,880.07,1.00,4,4,4,1460.16,-2.56,781402.13,3175.01,0.68,114130.30,2923.20,0.42,285145.92,3165.61,0.39,36222.41,352.04,0.71,88231.47
382700,1312.98,971.71,1.00,4,4,4,10166.95,0.66,790710.09,279.19,-2.69,234519.09,1637.42,-1.94,288673.22,2378.78,0.42,53887.53,255.97,1.57,18108.96
397300,1187.55,876.51,1.00,4,4,4,10785.31,-2.49,1435065.86,5464.42,-2.18,357685.05,2028.01,-1.37,75474.70,1043.22,-0.60,139485.14,198.61,0.46,16642.26
426900,1174.19,774.05,1.00,4,4,4,3490.93,-1.70,293756.96,3323.39,-1.31,141391.36,2590.55,-2.10,58607.69,1924.31,-2.51,83588.98,395.98,-0.01,8004.36
441800,1225.42,733.55,1.00,4,4,4,4383.17,-0.67,265826.66,427.30,-0.91,196964.88,1851.80,-1.78,68108.01,2084.82,-2.26,35604.35,663.58,0.17,18920.62
478800,1187.79,756.53,1.00,4,4,4,1191.83,2.59,150491.37,1563.96,-2.74,46583.02,2619.32,-2.85,64291.11,3229.06,-2.41,32657.45,511.99,0.04,4565.80
493700,1150.70,701.84,1.00,4,4,4,4434.57,-2.17,304476.55,7499.17,-2.94,401089.97,3165.61,-2.73,43890.55,2190.68,-2.32,71399.54,839.58,-2.01,78267.37
508500,969.36,712.97,1.00,4,4,4,12275.85,3.08,724241.58,6012.74,-2.72,142757.28,4645.56,-2.69,100583.08,1905.02,-2.32,19304.81,1421.02,-2.33,46006.37
522900,990.46,630.11,1.00,4,4,4,5938.15,-1.32,1054343.19,2802.37,-1.92,315198.62,3363.38,-2.74,90449.34,1760.51,-2.60,36760.20,1282.01,-2.26,11802.08
537900,941.36,635.49,1.00,4,4,4,3292.94,3.03,515645.23,1289.24,-2.82,150012.76,2207.07,-1.48,227952.64,2031.16,-2.51,21262.56,1682.66,-2.29,26808.74
560100,944.88,615.16,1.00,4,4,4,929.56,-1.40,164927.37,2161.17,-1.03,123998.78,510.08,-1.21,77531.86,2165.25,-2.67,16680.99,1222.88,-2.36,21202.42
575000,982.74,566.81,1.00,4,4,4,4120.73,-0.91,223537.33,2018.97,-0.29,102114.43,763.91,-0.64,28871.08,954.97,-1.91,108092.88,2071.62,-2.85,77147.76
589900,1002.60,598.16,1.00,4,4,4,2490.68,1.01,367982.90,1287.23,1.59,181120.49,874.13,-2.36,83186.38,443.08,-2.29,37978.33,2461.51,-3.08,43583.84
604600,982.11,604.91,1.00,4,4,4,1467.39,2.82,216629.26,3276.22,-2.94,254271.53,836.43,2.81,61521.46,417.89,-0.92,36990.18,2636.51,-3.01,16220.59
619300,908.29,578.57,1.00,4,4,4,5331.93,-2.80,290460.04,1369.83,-2.84,130476.24,714.20,-2.83,33909.13,139.84,-3.07,34563.82,2237.35,-3.02,27179.43
648900,924.22,586.72,1.00,4,4,4,604.49,0.47,200398.55,754.70,0.05,71250.71,233.28,-1.75,21608.46,2722.24,3.05,87306.60,1362.88,-2.95,29840.80
671100,947.33,580.58,1.00,4,4,4,1077.39,-0.26,33654.37,1474.39,-0.01,32545.38,478.84,1.12,31817.41,3523.03,2.96,38411.06,1680.54,3.13,20047.38
685900,978.77,586.24,1.00,4,4,4,2158.05,0.18,85633.32,1337.81,2.16,167948.29,4855.64,3.10,342120.75,3475.21,3.02,16022.68,1405.43,-3.06,21159.63
700900,925.24,613.77,1.00,4,4,4,4012.57,2.67,391646.22,12848.20,3.10,807521.67,7533.26,2.90,196143.30,2492.38,3.01,65627.61,1148.38,-3.11,17572.72
715200,602.60,600.86,1.00,4,4,4,22580.57,-3.10,1341995.72,14286.90,2.96,168105.68,7731.33,2.99,50625.09,2331.86,2.99,11470.85,1328.26,2.92,25217.69
729900,517.70,688.40,1.00,4,4,4,8295.60,2.34,1233585.26,3917.98,2.68,719424.26,5788.23,3.10,142274.00,3173.85,3.01,57433.53,707.95,2.30,58594.84
752100,473.06,665.05,1.00,4,4,4,2269.29,-2.66,358281.33,1771.27,-1.16,243188.71,514.04,2.03,250529.45,3148.10,3.11,13117.68,819.69,1.15,37622.96
766800,544.09,628.60,1.00,4,4,4,5431.04,-0.47,475528.37,2579.55,-0.24,140207.52,643.95,-1.80,74207.97,2025.00,-3.11,77354.49,1008.52,1.03,14759.21
796400,584.16,638.31,1.00,4,4,4,1392.87,0.24,151009.89,883.23,2.92,116983.99,1219.18,-0.77,35311.92,332.42,1.80,67130.80,1183.61,0.83,9437.62
811400,505.67,637.31,1.00,4,4,4,5232.90,-3.13,439865.90,1983.39,-2.48,105297.73,617.85,-0.46,44027.58,2149.64,0.20,145665.18,1137.87,0.92,7273.07
826100,537.69,602.11,1.00,4,4,4,3237.42,-0.83,528429.83,1905.32,-0.36,230553.15,200.56,1.19,45130.38,4081.93,0.27,132091.44,1113.50,0.51,30671.21
862900,597.39,602.44,1.00,4,4,4,1622.30,0.01,67056.67,1426.17,0.77,49948.85,4618.53,0.33,122014.17,3627.28,0.39,17643.68,682.15,0.59,11839.96
877600,590.24,653.41,1.00,4,4,4,3501.46,1.71,275539.37,10320.68,0.54,608243.73,7308.44,0.40,184989.65,4143.22,0.34,36754.59,1148.27,0.38,34036.95
892500,860.19,758.20,1.00,4,4,4,19434.27,0.37,1271261.10,17775.06,0.35,528942.65,8906.32,0.47,114376.65,4564.61,0.31,30360.41,1157.73,-0.06,34040.02
907100,1083.56,831.16,1.00,4,4,4,16094.96,0.32,238066.66,7528.81,0.38,702373.53,9056.02,0.32,90433.41,4974.61,0.19,46187.28,1251.14,0.01,8771.86
921800,1064.91,840.38,1.00,4,4,4,1415.32,2.68,1165666.13,2091.86,0.18,373866.16,4501.45,0.28,310445.21,3676.42,0.25,89546.82,908.30,0.05,23551.08
943900,1159.31,844.89,1.00,4,4,4,4276.47,0.05,251435.31,2208.19,-0.00,18202.57,2927.10,-0.46,139062.26,2451.11,0.22,55524.11,987.09,-0.00,4360.82
958600,1146.17,840.36,1.00,4,4,4,945.50,-2.81,353119.76,4742.90,-0.80,242933.33,1443.64,-1.29,151229.84,637.96,-1.40,174635.83,1054.04,-0.17,12092.83
973600,1257.60,743.98,1.00,4,4,4,9821.85,-0.71,688594.53,2769.80,-1.98,299949.88,3529.55,-2.68,237700.67,1923.55,-2.53,116485.64,1094.31,-0.05,9012.81
1003000,1097.01,727.63,1.00,4,4,4,5490.42,-3.04,481771.25,7524.19,-3.10,230657.78,3959.95,-2.57,20812.92,2144.62,-2.47,8662.34,876.29,0.02,7754.54
1017800,925.34,729.59,1.00,4,4,4,11600.03,3.13,417269.17,6225.28,-2.87,137970.42,5107.26,-2.96,141070.39,2561.33,-2.52,29438.15,1091.65,-0.16,18711.08
1039900,875.87,665.48,1.00,4,4,4,3664.51,-2.23,445245.20,2615.07,-2.45,180001.85,4413.12,-2.85,39211.96,3052.31,-2.51,22319.67,530.13,-1.47,49219.86
1054500,851.39,668.42,1.00,4,4,4,1688.68,3.02,215991.87,2122.12,-2.78,62341.66,1654.40,-2.13,229676.95,3125.66,-2.77,57001.27,1106.45,-2.18,53697.65
1069000,818.18,643.44,1.00,4,4,4,2865.99,-2.50,139313.14,1212.56,-1.09,176726.67,1827.56,-2.32,25596.87,2175.34,-2.71,66520.26,1088.38,-2.38,14587.74
1083700,867.75,637.02,1.00,4,4,4,3400.33,-0.13,395017.60,1991.21,-1.82,92416.21,1382.22,-1.57,84177.75,978.09,-1.90,113146.64,1256.33,-2.47,13610.43
1098100,803.70,587.34,1.00,4,4,4,5628.92,-2.48,581954.69,1781.52,-1.89,17280.22,602.86,-1.11,61413.93,420.26,-1.59,41098.19,1518.55,-2.54,19376.26
1112900,851.21,587.70,1.00,4,4,4,3209.68,0.01,568153.53,1029.08,0.57,179778.63,512.03,-1.07,6289.86,782.92,-1.09,30974.13,1434.46,-2.80,26282.95
1135100,835.86,607.73,1.00,1,1,1,1136.72,2.22,180112.10,1028.82,0.54,1251.65,912.71,0.27,42384.79,226.33,-1.45,25945.82,1100.86,-2.80,15026.95
1149900,883.89,607.22,1.00,1,1,1,3245.65,-0.01,273435.95,888.78,-0.02,36723.58,652.43,-0.31,34638.00,177.83,-1.73,5005.43,604.70,-2.13,49152.89
1179000,874.87,607.03,1.00,1,1,1,310.09,-3.12,122185.40,906.24,-1.11,32136.35,138.08,-3.09,26915.13,217.48,-2.93,7771.89,315.55,-1.60,12691.23
1193700,901.40,571.60,1.00,1,1,1,3011.29,-0.93,217812.78,1007.92,3.14,110643.47,216.71,3.07,5520.27,59.17,1.57,16121.03,780.72,-2.86,50921.72
1230800,822.66,607.10,1.00,1,1,1,2328.23,2.72,139444.34,1028.46,2.37,20594.21,1341.57,-2.89,30667.94,244.97,2.79,6240.67,1022.35,3.12,9684.03
1245400,863.24,608.62,1.00,1,1,1,2781.64,0.04,340804.26,2031.76,-2.67,133997.44,695.26,2.67,64436.46,370.72,-2.66,18817.77,926.83,3.10,6709.23
1260300,769.20,579.99,1.00,1,1,1,6597.38,-2.85,625100.72,562.49,-2.39,100712.07,445.29,2.60,16992.49,216.80,-1.62,21486.11,983.79,2.94,10992.66
1274800,851.21,597.28,1.00,1,1,1,5779.74,0.21,852777.24,1753.47,0.92,159335.78,661.79,-2.40,47240.21,1817.78,3.01,127491.66,993.65,3.01,5256.72
1289500,800.31,620.66,1.00,2,2,2,3810.00,2.71,620837.20,741.89,-2.41,169110.23,1576.59,-0.05,142691.24,2259.64,3.01,30060.43,1424.79,3.11,30277.63
1311300,830.98,579.28,1.00,2,2,2,2362.76,-0.93,274762.08,2331.61,-0.56,121027.46,3260.71,3.10,221894.17,1987.39,3.00,12528.60,1164.55,3.07,12164.78
1326400,873.30,575.11,1.00,3,3,3,2816.24,-0.10,141730.70,6680.44,3.00,586976.02,3605.16,3.04,25945.01,1855.06,2.89,16504.00,1264.48,3.08,6676.86
1340700,636.55,607.02,1.00,3,3,3,16706.07,3.01,1365088.48,8426.85,2.94,126227.63,3419.99,2.86,46050.69,2082.97,3.05,27115.22,1434.50,2.92,19061.47
1370400,510.10,649.71,1.00,1,1,1,4493.43,2.82,414970.72,1435.05,2.42,242912.91,4655.91,2.94,43045.53,2679.51,3.14,21363.97,1245.67,3.05,8767.18
1385000,588.75,648.94,1.00,1,1,1,5386.69,-0.01,668376.29,108.14,-2.90,94263.90,1133.90,2.93,241249.19,2159.07,2.96,45808.27,177.51,-0.56,96279.33
1406800,506.28,648.76,1.00,1,1,1,3782.65,-3.14,420604.38,1296.04,-2.65,54655.38,1618.90,-2.88,36687.89,2618.66,2.99,21312.59,859.71,0.08,33286.60
1421500,547.04,626.60,1.00,1,1,1,3156.09,-0.50,457465.81,3483.03,-2.88,152511.97,860.56,-2.86,51623.95,1069.63,2.77,108329.37,504.65,-0.39,31823.09
1436300,406.96,622.45,1.00,1,1,1,9469.18,-3.11,831021.47,487.89,2.67,211853.60,346.22,-1.21,64338.81,298.34,-2.87,57433.75,748.68,-0.05,21527.11
1451000,534.20,633.10,1.00,1,1,1,8686.01,0.08,1234599.26,3667.60,0.07,278532.07,1030.85,2.56,90264.41,2030.47,-0.21,156377.86,770.46,-0.02,2289.90
1465400,513.44,629.78,1.00,1,1,1,1460.28,-2.98,704358.34,1474.22,2.53,340284.33,786.83,0.25,115640.69,3390.75,-0.09,96950.58,549.92,0.23,18988.70
1487400,490.36,664.04,1.00,2,2,2,1877.75,2.16,83214.03,901.49,2.96,34472.37,3977.41,-0.14,148339.28,2825.28,-0.19,29406.60,1270.48,-0.00,33909.95
1516500,468.11,638.02,1.00,2,2,2,1176.33,-2.28,84810.81,7274.92,-0.20,280971.64,5379.72,-0.06,49997.90,3605.50,-0.02,32724.13,1660.17,-0.23,17721.21
1546000,908.31,580.06,1.00,3,3,3,15050.81,-0.13,532978.41,12585.36,-0.07,184971.27,5431.42,-0.24,34202.26,3084.58,-0.11,20095.04,1300.19,-0.14,13118.26
1561000,1026.90,600.49,1.00,1,1,1,8022.43,0.17,517647.34,2591.86,-0.45,681463.64,5989.54,-0.05,81622.37,2999.95,-0.03,17005.87,1771.87,-0.16,31494.05
1583200,995.32,538.51,1.00,1,1,1,3133.65,-2.04,459993.09,323.14,0.47,108475.35,2047.12,-0.03,177615.03,3171.54,-0.10,12919.61,1700.94,-0.09,5768.88
1612400,1041.73,607.99,1.00,1,1,1,2861.40,0.98,204956.11,1978.41,0.43,56696.80,257.89,0.75,64152.91,3394.17,-0.20,12932.14,2012.27,-0.12,10823.36
1627100,1074.25,574.74,1.00,1,1,1,3163.99,-0.80,318556.44,229.38,1.51,128013.62,1059.14,0.92,54831.24,534.82,0.18,197448.62,1575.64,-0.11,29766.63
1641700,1042.11,614.70,1.00,1,1,1,3512.15,2.25,456732.59,1133.45,2.28,67180.08,1273.12,-1.99,158632.18,237.62,-1.36,39627.44,1014.21,-0.06,38643.49
1663900,1047.16,606.46,1.00,1,1,1,435.24,-1.02,177669.10,2455.51,-1.96,141454.42,1363.09,2.93,75172.58,527.84,0.58,29402.01,509.71,-0.37,24739.05
1678600,1007.77,530.85,1.00,1,1,1,5799.83,-2.05,380162.41,2119.19,-2.94,147767.50,737.58,-1.73,107584.99,551.13,-2.09,71310.44,494.38,-0.01,12060.68
1693400,985.93,593.88,1.00,1,1,1,4507.25,1.90,640480.68,1484.81,0.93,228041.79,501.49,-1.23,25940.29,432.86,3.03,37297.00,935.93,2.93,96190.24
1708300,1034.09,566.23,1.00,1,1,1,3726.95,-0.52,517908.99,2487.32,-0.21,154791.19,294.63,1.56,52692.20,1369.14,-3.11,63254.64,1151.55,3.11,19362.79
1722600,1056.95,578.70,1.00,2,2,2,1821.02,0.50,222289.89,1102.70,-2.54,233651.05,513.33,-0.38,47519.99,2910.81,-3.14,107875.81,1192.19,3.03,6968.48
1737200,1007.87,548.11,1.00,2,2,2,3960.87,-2.58,395875.65,1078.35,3.08,49005.62,2459.84,2.92,203248.66,2894.98,2.88,52289.86,1520.40,-3.14,24832.64
1759400,1017.35,581.21,1.00,2,2,2,1550.67,1.29,234962.92,3447.67,2.79,109581.88,5155.24,3.08,123839.89,2455.54,3.01,25638.55,1653.81,3.08,7698.77
1788800,840.79,609.19,1.00,1,1,1,6080.46,2.98,219553.49,8557.28,3.07,181474.22,4936.84,2.92,27649.85,2372.80,3.01,2815.07,1425.86,-3.08,9941.27
1803500,640.81,606.41,1.00,1,1,1,13604.88,-3.13,522674.42,7630.74,3.02,69552.59,5104.23,2.99,26866.48,2723.23,-3.13,33518.02,1413.43,-3.11,2471.66
1818300,617.31,636.21,1.00,1,1,1,2564.89,2.24,825380.46,1070.32,1.41,523660.76,2295.23,3.13,192501.40,2604.97,2.99,29434.78,1177.50,2.96,24309.17
1833000,645.93,637.56,1.00,1,1,1,1949.14,0.05,273739.05,2033.22,-0.34,167443.86,511.78,-1.13,174126.76,2806.59,3.09,22335.26,1235.52,3.11,12425.28
1855300,688.16,610.94,1.00,1,1,1,2238.92,-0.56,57713.90,1690.53,-1.42,86743.52,485.36,-1.25,2935.55,1486.72,-3.05,60579.63,1141.30,3.03,5844.37
1870100,655.29,575.55,1.00,1,1,1,3263.78,-2.32,289588.77,2060.18,-3.05,185346.81,618.87,-2.12,32387.90,93.01,-1.47,100722.69,1229.54,3.12,9211.19
1884900,627.42,605.51,1.00,1,1,1,2764.69,2.32,299241.53,1386.39,2.43,100396.92,793.05,-2.79,33462.33,363.01,-0.81,19942.36,944.78,3.08,19500.49
1899600,624.44,602.39,1.00,1,1,1,293.78,-2.34,190264.31,354.75,-1.19,116347.45,269.20,2.22,51542.40,277.10,-2.37,30904.95,952.33,3.12,2733.87
1928900,633.29,591.05,1.00,1,1,1,491.27,-0.91,18262.57,395.34,-0.50,8745.67,342.10,-0.38,20106.12,55.56,-1.01,9253.74,667.11,3.13,9738.78
1950600,642.16,592.79,1.00,1,1,1,416.78,0.19,22110.25,478.34,0.10,12382.86,119.68,2.79,21279.26,153.85,0.47,7324.02,89.35,0.03,34856.03
1980500,657.85,593.51,1.00,1,1,1,525.13,0.05,4302.11,712.27,2.70,38407.33,756.74,0.21,28771.44,603.49,-0.41,17367.25,244.35,-0.75,6419.34
1994800,613.75,606.35,1.00,1,1,1,3211.84,2.86,259627.59,1265.96,0.28,129974.56,441.67,-0.17,26716.33,662.38,-0.14,12618.57,238.70,-2.74,28294.27
2009200,692.72,603.70,1.00,1,1,1,5487.38,-0.03,599731.55,1817.47,-0.30,71484.15,985.33,-0.42,39513.52,178.59,0.91,41181.81,292.34,3.09,9007.47
2031400,677.36,586.89,1.00,1,1,1,1025.93,-2.31,279412.85,1189.32,-0.99,53141.68,1785.03,-0.16,39328.61,190.38,0.52,3287.48,98.16,2.20,10935.24
2046000,716.74,567.12,1.00,1,1,1,3018.44,-0.47,235737.47,1794.98,0.02,105370.78,662.37,2.96,167617.81,116.11,-0.55,11559.26,266.09,-0.06,23105.57
2060900,730.30,587.98,1.00,1,1,1,1669.52,0.99,220368.27,2719.37,2.56,289786.34,306.29,2.01,36484.19,243.06,3.08,23481.55,26.83,0.37,16241.98
2075700,649.41,611.72,1.00,1,1,1,5696.09,2.86,430984.60,1484.59,2.84,91954.82,587.55,2.77,28437.83,632.88,3.02,26384.37,64.53,2.66,5712.51
2105000,667.74,607.28,1.00,1,1,1,643.67,-0.24,216351.34,690.27,-0.87,71632.94,1894.66,3.01,45427.56,296.53,2.84,11789.73,97.93,2.56,1167.74
2127200,672.33,584.55,1.00,1,1,1,1044.60,-1.37,43585.58,2424.40,3.13,131735.21,610.41,3.07,57931.58,248.90,1.84,11868.79,94.46,0.47,7505.76
2142000,578.05,608.71,1.00,1,1,1,6576.39,2.89,479296.96,2675.00,2.74,68220.35,466.97,-2.88,15286.32,713.29,2.97,43674.86,113.77,-1.10,9983.81
2156500,600.22,615.24,1.00,1,1,1,1593.82,0.29,550844.90,2064.03,-0.15,324368.57,656.08,0.43,77166.45,237.17,-2.80,35924.06,55.44,-1.64,4969.79
2171300,637.80,599.39,1.00,1,1,1,2756.30,-0.40,123446.62,3655.11,-0.13,107570.30,917.11,-0.06,31119.42,370.41,3.12,11542.22,247.94,0.21,18151.56
2186100,707.43,600.72,1.00,1,1,1,4705.33,0.02,165990.74,281.78,2.35,262264.19,335.32,-0.76,46844.63,166.56,1.14,31266.02,73.68,0.91,13312.44
2200900,631.96,605.34,1.00,1,1,1,5108.69,3.08,662575.57,2451.37,-3.13,153038.54,317.97,2.71,43552.44,380.86,-0.58,29593.82,316.32,3.06,24459.37
2223200,616.49,599.90,1.00,1,1,1,735.64,-2.80,199112.20,371.23,2.93,93739.28,320.44,2.95,3349.84,590.06,-0.30,11037.50,106.21,-0.01,18937.77
2237600,618.63,608.16,1.00,1,1,1,592.66,1.32,81556.92,1501.53,0.09,129144.66,295.47,-1.65,32015.55,657.65,0.03,15309.90,180.25,0.11,5269.07
2267000,681.99,605.73,1.00,1,1,1,2156.78,-0.04,71797.08,527.21,-1.25,50076.50,798.09,-0.18,27986.10,159.48,-0.57,18171.84,166.56,1.14,5837.22
2303900,629.68,574.99,1.00,1,1,1,1644.44,-2.61,98943.33,413.78,-1.11,3551.67,1224.33,-0.04,12147.32,50.88,-1.73,3980.08,380.86,-0.58,11869.61
2318700,691.53,586.59,1.00,1,1,1,4252.26,0.19,393648.62,2870.21,0.22,189302.25,554.39,-0.39,49361.70,387.18,0.17,27470.59,590.06,-0.30,16630.83
2348400,754.20,603.39,1.00,1,1,1,2184.68,0.26,70059.71,896.76,-0.03,67817.48,292.07,1.53,23908.44,592.03,0.05,7157.44,657.65,0.03,7422.98
2362900,731.16,585.49,1.00,1,1,1,2012.78,-2.48,283765.56,4257.17,-3.09,355265.44,321.06,1.87,7435.77,554.39,-0.39,17475.18,159.48,-0.57,36844.97
2377500,630.51,596.47,1.00,1,1,1,6934.21,3.03,387928.60,1470.36,2.64,212820.86,494.16,2.83,27767.45,292.07,1.53,48635.67,50.88,-1.73,10059.26
2399600,683.81,611.38,1.00,1,1,1,2504.29,0.27,421054.05,2552.66,0.18,172351.89,1470.36,2.64,44761.32,321.06,1.87,4878.67,387.18,0.17,18396.60
2414400,723.17,613.42,1.00,1,1,1,2662.84,0.05,39954.28,2662.84,0.05,23929.26,2552.66,0.18,257363.29,494.16,2.83,27392.22,592.03,0.05,14363.23
