@RELATION gaze_labels

%@METADATA width_px 1920
%@METADATA height_px 1080
%@METADATA width_mm 540.00
%@METADATA height_mm 254.00
%@METADATA distance_mm 620.00


@ATTRIBUTE time INTEGER
@ATTRIBUTE x NUMERIC
@ATTRIBUTE y NUMERIC
@ATTRIBUTE confidence NUMERIC
@ATTRIBUTE handlabeller1 INTEGER
@ATTRIBUTE handlabeller2 INTEGER
@ATTRIBUTE handlabeller_final INTEGER
@ATTRIBUTE speed_1 numeric
@ATTRIBUTE direction_1 numeric
@ATTRIBUTE acceleration_1 numeric
@ATTRIBUTE speed_2 numeric
@ATTRIBUTE direction_2 numeric
@ATTRIBUTE acceleration_2 numeric
@ATTRIBUTE speed_4 numeric
@ATTRIBUTE direction_4 numeric
@ATTRIBUTE acceleration_4 numeric
@ATTRIBUTE speed_8 numeric
@ATTRIBUTE direction_8 numeric
@ATTRIBUTE acceleration_8 numeric
@ATTRIBUTE speed_16 numeric
@ATTRIBUTE direction_16 numeric
@ATTRIBUTE acceleration_16 numeric

%The number after speed, direction denotes the step size that was used for the calculation.
%Acceleration was calculated between two adjacent samples of the already low pass filtered velocity

@DATA
0,331.38,627.96,1.00,1,1,1,0.00,0.00,0.00,2036.55,3.02,0.00,1568.40,-3.10,0.00,1238.74,2.98,0.00,94.66,-2.53,0.00
22200,286.53,633.65,1.00,1,1,1,2036.55,3.02,91736.28,1568.40,-3.10,24896.75,123.27,1.39,72070.37,533.58,-0.52,78785.58,193.88,2.93,6619.88
36900,273.55,625.73,1.00,1,1,1,1034.05,-2.59,94381.61,123.27,1.39,108840.97,1238.74,2.98,84856.12,777.79,0.24,36255.65,497.55,0.05,46717.24
51600,287.19,637.21,1.00,1,1,1,1212.48,0.70,152386.39,948.61,2.55,61693.51,533.58,-0.52,118982.30,1627.69,-0.28,69908.62,2976.87,-0.11,169160.06
66200,250.45,641.19,1.00,1,1,1,2530.92,3.03,238434.13,1113.62,-0.62,141231.44,777.79,0.24,36503.98,94.66,-2.53,115669.64,4715.94,-0.04,120490.21
81000,313.82,618.17,1.00,1,1,1,4555.45,-0.35,475631.27,2300.92,-0.07,99473.46,1627.69,-0.28,69436.27,193.88,2.93,9929.82,3422.40,-0.09,88503.53
95600,317.93,636.45,1.00,1,1,1,1283.74,1.35,334737.05,2113.77,-0.14,16691.97,1114.38,-0.28,35158.60,497.55,0.05,47037.22,3306.82,-0.11,9406.66
117500,390.21,607.33,1.00,1,1,1,3558.02,-0.38,181380.47,436.30,-1.37,91781.82,833.54,2.76,88828.30,2976.87,-0.11,113545.79,3294.25,0.01,18781.18
132200,321.12,620.80,1.00,2,2,2,4788.42,2.95,565269.47,4460.19,2.90,317275.29,322.99,-0.29,78610.18,4715.94,-0.04,119670.55,1935.15,-0.12,95008.65
146900,262.91,638.79,1.00,2,2,2,4144.68,2.84,54488.19,525.18,0.35,333574.80,4099.90,-0.06,257600.49,3422.40,-0.09,89105.60,2057.35,-0.07,10451.52
176500,342.94,628.87,1.00,3,3,3,2724.47,-0.12,231202.53,8945.92,-0.11,286466.83,7221.46,-0.02,105729.29,3306.82,-0.11,4639.77,2078.48,-0.09,1410.35
198500,721.76,588.43,1.00,3,3,3,17317.02,-0.11,663318.44,13013.16,-0.03,189091.87,6327.82,-0.12,51426.84,3294.25,0.01,18695.81,2272.98,-0.09,8850.81
228000,1012.85,609.91,1.00,1,1,1,9894.19,0.07,263960.00,3273.22,-0.15,331219.41,5831.17,-0.11,17029.47,3431.99,-0.10,13778.51,2129.69,-0.05,5670.50
242700,864.86,567.16,1.00,1,1,1,10478.63,-2.86,1378452.95,2737.07,-2.80,396999.22,2580.06,0.11,228218.24,3639.34,-0.08,15592.34,2160.27,-0.05,2081.35
272300,898.43,569.78,1.00,1,1,1,1137.44,0.08,391720.11,2159.85,0.50,164917.19,1243.06,-2.60,126537.86,3441.70,-0.10,7498.47,3049.04,-0.11,30426.52
287300,949.54,613.08,1.00,1,1,1,4466.05,0.70,240374.78,808.73,-0.40,118350.90,579.91,0.50,121512.62,1608.25,-0.06,122450.98,2767.37,-0.05,22205.02
309400,926.01,557.97,1.00,1,1,1,2711.68,-1.97,316595.41,1329.75,-2.65,87790.12,14.06,1.13,25729.54,838.03,-3.12,110609.25,3013.35,-0.05,11130.34
324200,906.30,589.88,1.00,1,1,1,2534.43,2.12,314732.17,1016.53,2.71,73446.76,670.02,-1.07,45838.81,797.53,0.14,110334.82,3146.57,-0.08,10647.09
338900,898.83,570.62,1.00,2,2,2,1405.32,-1.94,242367.34,2255.80,-0.24,221692.47,976.88,2.14,111975.14,2706.72,-0.10,132007.54,3144.05,-0.04,6654.68
353700,970.95,574.08,1.00,2,2,2,4878.63,0.05,378292.66,1216.62,1.69,196663.71,1140.28,-0.09,128454.41,2177.64,-0.15,36637.26,1820.70,-0.10,89913.50
369100,894.64,607.13,1.00,2,2,2,5399.96,2.73,650171.73,382.45,0.70,68427.76,5416.95,-0.10,277715.93,2501.46,0.05,36606.16,886.23,-0.09,60693.84
390600,981.72,583.20,1.00,3,3,3,4200.73,-0.27,445460.20,10203.11,-0.20,463747.46,3657.80,-0.03,83220.29,2522.06,-0.07,14383.65,1261.59,-0.03,17695.29
405300,1256.61,533.66,1.00,1,1,1,19000.84,-0.18,1008289.97,6490.23,-0.06,263810.01,4766.47,-0.08,76999.79,2831.78,0.04,29143.97,1155.36,-0.02,7239.81
434600,1266.73,565.35,1.00,1,1,1,1135.25,1.26,644574.85,1033.22,1.14,211424.39,3770.51,-0.07,34050.21,2048.00,-0.14,30424.78,890.41,-0.26,12238.65
449300,1275.55,574.99,1.00,1,1,1,888.88,0.83,33714.81,295.67,-2.95,83584.52,972.87,0.73,215482.43,2544.69,-0.05,36449.72,1006.14,0.05,21485.45
464100,1258.17,563.70,1.00,1,1,1,1400.43,-2.57,153497.71,1122.02,0.27,95743.09,504.65,-1.50,90544.43,1770.12,-0.11,52921.42,1160.27,-0.20,20945.90
486100,1315.39,585.86,1.00,1,1,1,2788.98,0.37,189525.74,914.29,-1.23,63477.83,235.17,2.18,32608.33,251.97,2.32,89421.42,1067.84,-0.17,4539.98
500800,1269.26,532.04,1.00,1,1,1,4822.04,-2.28,503248.74,1658.15,3.10,147474.06,476.43,-2.92,30228.53,345.25,-2.71,24440.31,831.50,-0.03,18253.67
515500,1266.68,587.78,1.00,1,1,1,3796.17,1.62,545611.04,1654.89,2.61,55369.32,1205.28,-2.87,49657.51,284.41,-3.10,9330.04,650.48,-0.12,13119.15
530200,1227.43,556.88,1.00,1,1,1,3398.28,-2.47,435394.46,1014.17,-2.53,105182.87,563.72,2.96,50325.87,273.17,-1.78,23338.00,297.38,2.19,59798.76
559500,1230.16,562.13,1.00,1,1,1,202.08,1.09,122302.43,285.34,-2.22,25508.18,416.82,-2.77,10353.93,593.30,-2.38,13643.96,1350.61,2.86,38674.05
597000,1215.90,541.70,1.00,1,1,1,664.45,-2.18,23072.91,212.15,1.63,12456.02,443.92,-1.03,17504.61,251.26,2.28,17504.11,1331.07,3.04,6384.36
611400,1229.49,573.12,1.00,1,1,1,2377.33,1.16,210505.59,1374.94,-0.57,104825.04,479.77,-1.38,11294.64,922.78,-3.10,54949.95,1261.93,3.03,4914.83
625700,1249.17,520.48,1.00,1,1,1,3929.59,-1.21,411085.84,1180.98,-1.40,73455.44,424.52,0.78,55751.44,1794.04,2.81,69234.43,1061.00,3.10,15068.23
662500,1239.65,513.63,1.00,2,2,2,318.89,-2.52,104839.38,886.16,1.76,56168.26,1557.61,3.07,50709.08,2431.36,2.91,18263.87,1392.29,3.11,9011.73
677800,1240.31,565.79,1.00,3,3,3,3409.70,1.56,235840.24,5074.94,2.68,299869.70,4306.57,2.73,188600.26,2542.54,2.96,10487.07,251.26,2.28,80819.48
692500,1103.46,581.68,1.00,1,1,1,9372.20,3.03,655667.72,11125.27,2.85,420825.84,7028.59,2.81,187124.67,2398.13,3.01,12728.71,922.78,-3.10,53828.53
707200,927.04,659.83,1.00,1,1,1,13126.21,2.72,341388.20,9087.72,2.88,139905.44,6388.66,3.04,113167.68,2192.58,2.96,15759.44,1794.04,2.81,67350.50
721900,845.52,651.36,1.00,1,1,1,5574.92,-3.04,594635.45,2754.09,-2.41,539668.61,3562.79,2.97,193426.22,2669.89,2.91,33618.93,2431.36,2.91,45721.80
736600,866.79,605.74,1.00,1,1,1,3424.04,-1.13,505728.42,2076.80,-0.58,261841.06,1225.94,-1.53,272292.70,6388.66,3.04,255447.88,2542.54,2.96,10915.11
751400,896.73,617.72,1.00,1,1,1,2178.85,0.38,267241.14,1863.50,-0.41,27342.22,720.04,-1.06,45296.57,3562.79,2.97,192119.28,2398.13,3.01,12642.71
773600,930.12,578.49,1.00,1,1,1,2320.68,-0.87,118383.99,551.00,-2.48,98422.33,1863.50,-0.41,61453.50,1225.94,-1.53,180301.92,2192.58,2.96,10435.31
803200,874.13,600.29,1.00,1,1,1,2030.00,2.77,142535.96,2030.00,2.77,61086.84,551.00,-2.48,73816.75,720.04,-1.06,22648.29,2669.89,2.91,16695.89
