@RELATION gaze_labels

%@METADATA width_px 1920
%@METADATA height_px 1080
%@METADATA width_mm 540.00
%@METADATA height_mm 254.00
%@METADATA distance_mm 620.00


@ATTRIBUTE time INTEGER
@ATTRIBUTE x NUMERIC
@ATTRIBUTE y NUMERIC
@ATTRIBUTE confidence NUMERIC
@ATTRIBUTE handlabeller1 INTEGER
@ATTRIBUTE handlabeller2 INTEGER
@ATTRIBUTE handlabeller_final INTEGER
@ATTRIBUTE speed_1 numeric
@ATTRIBUTE direction_1 numeric
@ATTRIBUTE acceleration_1 numeric
@ATTRIBUTE speed_2 numeric
@ATTRIBUTE direction_2 numeric
@ATTRIBUTE acceleration_2 numeric
@ATTRIBUTE speed_4 numeric
@ATTRIBUTE direction_4 numeric
@ATTRIBUTE acceleration_4 numeric
@ATTRIBUTE speed_8 numeric
@ATTRIBUTE direction_8 numeric
@ATTRIBUTE acceleration_8 numeric
@ATTRIBUTE speed_16 numeric
@ATTRIBUTE direction_16 numeric
@ATTRIBUTE acceleration_16 numeric

%The number after speed, direction denotes the step size that was used for the calculation.
%Acceleration was calculated between two adjacent samples of the already low pass filtered velocity

@DATA
0,368.28,639.17,1.00,1,1,1,0.00,0.00,0.00,11594.63,-0.20,0.00,1059.69,-0.46,0.00,232.54,0.53,0.00,4836.52,0.12,0.00
14600,534.19,605.56,1.00,1,1,1,11594.63,-0.20,794152.77,1059.69,-0.46,724288.89,5975.81,2.99,478854.41,1670.26,3.00,127225.00,2995.00,0.51,161379.80
29300,396.08,625.34,1.00,1,1,1,9491.34,3.00,1433829.89,5975.81,2.99,475596.90,232.54,0.53,418916.79,173.65,1.05,118475.49,3795.23,0.36,64389.76
44000,360.41,631.37,1.00,1,1,1,2460.90,2.97,478332.81,890.15,2.23,365326.29,1670.26,3.00,126359.52,5988.58,0.13,400395.91,3525.01,0.20,43906.45
58800,380.04,646.14,1.00,1,1,1,1660.09,0.64,256687.77,2549.35,-0.16,219863.78,173.65,1.05,117674.98,4836.52,0.12,77853.28,2661.79,0.09,62474.93
74000,435.95,619.46,1.00,1,1,1,4075.54,-0.45,238180.97,474.55,-0.36,137255.54,5988.58,0.13,387224.99,2995.00,0.51,155009.54,2588.72,0.20,18519.94
110500,403.04,637.60,1.00,4,4,4,1029.50,2.64,139825.62,7610.32,0.17,197368.96,7677.35,0.12,46312.68,3795.23,0.36,25932.31,2482.71,0.24,4139.24
139800,929.41,704.65,1.00,4,4,4,18110.00,0.13,646803.50,16203.73,0.13,293647.74,5202.86,0.41,105895.27,3525.01,0.20,22028.15,1074.10,2.98,119288.48
154500,1109.74,731.96,1.00,4,4,4,12406.73,0.15,388723.77,3366.16,1.18,1007251.78,6886.35,0.35,117529.07,2661.79,0.09,62899.93,1153.75,0.16,149570.03
191600,996.03,865.79,1.00,4,4,4,4733.34,2.28,415931.02,3007.61,2.14,79691.48,836.35,0.88,166549.06,2588.72,0.20,7587.68,608.35,0.28,14943.34
206700,1025.47,864.43,1.00,4,4,4,1951.26,-0.05,412570.57,3725.20,-1.78,413125.34,3224.60,-2.98,257755.11,2482.71,0.24,10005.45,1057.27,-0.03,33881.82
221400,972.95,757.21,1.00,4,4,4,8121.83,-2.03,617442.35,8403.59,-2.36,385793.49,3241.52,-2.19,170091.61,1074.10,2.98,237765.48,1428.67,-0.01,25347.12
236100,849.88,690.62,1.00,4,4,4,9519.29,-2.65,376804.93,3412.48,-2.65,354915.11,4693.02,-2.64,154494.58,2680.30,-3.05,113323.52,1095.96,-0.02,22649.28
250800,884.70,709.49,1.00,4,4,4,2694.33,0.50,830858.73,2658.78,2.63,203445.20,3250.38,-3.00,136652.06,2449.09,-2.50,95902.11,1110.51,-0.02,992.08
266500,779.20,729.84,1.00,4,4,4,6843.16,2.95,578856.63,3488.23,2.95,80745.63,2039.15,3.12,81834.59,2742.97,-2.44,21127.61,1271.39,0.02,10596.08
281600,779.20,729.84,1.00,4,4,4,0.00,0.00,453189.25,2047.59,-2.64,152748.39,2108.03,-2.84,44984.78,1450.10,-2.46,85668.77,256.38,-2.03,93241.43
303000,713.51,694.21,1.00,4,4,4,3492.39,-2.64,163195.57,1819.79,-2.26,35993.15,1539.17,-1.96,76379.47,830.33,-2.72,31933.71,494.81,-2.12,11235.60
332500,720.22,658.42,1.00,1,1,1,1234.33,-1.39,112824.49,1840.81,-1.34,55046.13,1333.92,-1.23,35300.52,873.58,-2.31,11969.22,893.91,-1.29,22660.74
347100,731.92,615.14,1.00,1,1,1,3070.51,-1.31,126202.20,3358.55,-0.31,198201.74,719.47,-1.16,42400.27,579.94,-1.46,45015.73,856.93,-1.48,11642.02
362000,814.71,628.64,1.00,1,1,1,5630.00,0.16,411464.68,686.09,1.37,234536.33,1333.83,-0.53,57853.38,1011.14,-0.66,49150.60,572.80,-0.91,32592.29
384700,737.17,640.40,1.00,1,1,1,3455.09,2.99,395640.80,617.02,-2.42,54478.84,959.65,0.48,50895.15,2130.89,-0.28,55194.19,296.36,-0.87,12202.54
399500,797.37,613.32,1.00,0,0,0,4460.21,-0.42,529953.29,1768.22,0.08,154950.37,1233.24,0.12,32302.12,2370.84,-0.12,29437.78,604.26,-0.82,20843.47
414100,788.97,644.80,1.00,2,2,2,2231.31,1.83,419112.74,3489.63,0.25,121064.28,4036.58,-0.12,195500.82,1955.75,-0.03,31170.86,760.18,-0.60,14752.65
428800,896.53,638.26,1.00,2,2,2,7330.64,-0.06,565311.62,5579.82,-0.17,188352.86,3354.73,0.02,58392.13,1632.06,-0.03,22021.40,742.48,-0.53,3769.56
458200,1031.57,603.62,1.00,3,3,3,4741.83,-0.25,95948.29,3360.12,-0.12,75872.15,2759.17,-0.15,26504.00,1112.18,-0.11,18011.51,1032.28,-0.20,13867.84
480200,1068.06,618.06,1.00,3,3,3,1783.76,0.38,157316.30,353.73,0.13,137201.46,1924.09,-0.10,38324.97,1281.21,-0.21,9603.48,716.96,-0.46,17564.29
509600,1049.60,605.99,1.00,1,1,1,750.37,-2.56,85827.08,269.98,0.19,2923.58,1539.02,2.99,117753.11,1137.66,-0.27,5497.27,152.67,2.34,29336.66
524500,1079.79,620.36,1.00,1,1,1,2244.60,0.44,200660.00,4793.82,3.03,339047.06,748.61,-2.32,85411.35,537.52,-0.32,40362.46,748.25,-3.12,43903.30
539300,908.15,622.22,1.00,1,1,1,11598.38,3.13,922312.69,1582.01,-2.41,265366.47,845.72,-2.91,31874.61,154.93,1.46,39880.37,525.52,-3.05,15332.91
576300,1018.81,565.62,1.00,1,1,1,3359.34,-0.47,396815.26,1569.25,-0.40,71821.22,1160.64,-3.01,8899.84,1060.64,-2.79,30752.23,737.87,3.06,6479.22
590900,982.62,590.43,1.00,2,2,2,3005.29,2.54,435040.51,1825.32,2.22,224788.97,1561.29,0.05,186284.71,2517.19,3.02,112593.22,835.81,-3.08,10419.35
605500,986.59,608.08,1.00,2,2,2,1238.73,1.35,191356.30,2191.94,0.64,196656.58,1793.34,-3.11,229763.72,3376.49,3.14,63152.19,978.53,-3.04,10010.10
620200,1034.30,628.57,1.00,2,2,2,3532.17,0.41,202690.81,2943.76,-2.57,349173.55,4918.88,2.94,217971.14,2235.62,3.13,77615.79,1551.70,3.07,41580.26
634700,914.15,561.80,1.00,3,3,3,9479.46,-2.63,896439.50,11399.36,3.08,633105.21,6108.14,3.10,102864.16,3290.24,2.99,77144.13,1820.69,3.12,19650.06
649600,699.74,648.26,1.00,3,3,3,15516.10,2.76,809748.36,9123.52,2.96,174819.30,6873.10,-3.14,54736.22,3287.25,3.06,14473.10,1852.23,3.12,2246.22
671600,583.12,623.11,1.00,1,1,1,5422.55,-2.93,519986.66,3329.68,-2.96,278915.93,4396.45,2.94,123988.87,2752.35,-3.14,26892.52,2189.98,3.10,15419.77
686400,579.31,625.65,1.00,1,1,1,309.60,2.55,352136.17,473.61,2.63,201437.84,2171.90,-3.03,164035.31,3264.94,3.12,34993.60,1289.66,-3.11,61382.83
715800,564.84,633.31,1.00,1,1,1,556.79,2.65,8526.70,1231.13,3.09,28371.15,194.98,-1.71,72485.73,2719.78,2.97,23591.39,1739.52,3.04,16828.39
730600,524.95,628.25,1.00,1,1,1,2716.79,-3.02,154330.27,821.24,-1.02,123415.55,371.47,2.66,32014.00,1252.86,-2.99,106940.90,1366.77,3.10,25988.32
752900,580.89,607.42,1.00,1,1,1,2676.83,-0.36,234853.98,802.16,0.39,47149.64,709.28,-3.04,20084.42,956.50,2.97,20865.07,1404.19,3.05,3481.89
767800,552.52,639.68,1.00,1,1,1,2883.40,2.29,361910.39,2250.17,2.82,194826.03,177.07,-2.30,39640.64,404.07,-2.89,41024.82,1720.74,3.12,22707.65
782500,517.76,628.65,1.00,1,1,1,2480.51,-2.83,200771.54,1387.78,-2.62,114460.23,2298.83,2.85,151615.56,310.48,-2.82,6586.32,1256.68,2.96,35390.38
797200,517.07,619.48,1.00,1,1,1,625.45,-1.65,157853.68,2350.46,2.88,113578.30,610.82,-2.42,138719.44,306.41,-0.40,39270.11,1252.86,-2.99,28338.16
811900,450.92,646.20,1.00,1,1,1,4852.62,2.76,345398.58,215.16,-1.41,166383.90,128.11,-1.24,39131.31,282.02,1.95,36929.37,956.50,2.97,31652.45
841500,518.60,610.08,1.00,1,1,1,2591.73,-0.49,251175.27,1447.53,-0.37,45634.82,572.77,-0.19,17573.52,429.00,-3.12,14284.85,404.07,-2.89,20651.01
864000,521.18,618.79,1.00,1,1,1,403.72,1.28,120087.40,1019.43,-0.02,26760.16,1195.22,0.01,28704.25,39.20,2.33,17937.35,310.48,-2.82,4303.07
892600,570.68,608.95,1.00,1,1,1,1764.67,-0.20,62022.97,1213.66,0.59,24301.73,489.76,2.55,56708.59,572.77,-0.19,21160.67,306.41,-0.40,20184.29
907200,564.82,647.86,1.00,1,1,1,2694.99,1.72,252604.45,1904.26,2.84,193862.42,178.75,2.07,23344.29,1195.22,0.01,44236.01,282.02,1.95,37182.31
944200,476.86,638.14,1.00,1,1,1,2391.70,-3.03,95449.95,1037.33,-2.87,31678.99,1904.26,2.84,48101.10,489.76,2.55,43834.21,429.00,-3.12,11427.88
959000,512.99,633.66,1.00,1,1,1,2460.03,-0.12,325593.18,2460.03,-0.12,232566.56,1037.33,-2.87,79197.48,178.75,2.07,23028.82,39.20,2.33,27269.61
