@RELATION gaze_labels

%@METADATA width_px 1920
%@METADATA height_px 1080
%@METADATA width_mm 540.00
%@METADATA height_mm 254.00
%@METADATA distance_mm 620.00


@ATTRIBUTE time INTEGER
@ATTRIBUTE x NUMERIC
@ATTRIBUTE y NUMERIC
@ATTRIBUTE confidence NUMERIC
@ATTRIBUTE handlabeller1 INTEGER
@ATTRIBUTE handlabeller2 INTEGER
@ATTRIBUTE handlabeller_final INTEGER
@ATTRIBUTE speed_1 numeric
@ATTRIBUTE direction_1 numeric
@ATTRIBUTE acceleration_1 numeric
@ATTRIBUTE speed_2 numeric
@ATTRIBUTE direction_2 numeric
@ATTRIBUTE acceleration_2 numeric
@ATTRIBUTE speed_4 numeric
@ATTRIBUTE direction_4 numeric
@ATTRIBUTE acceleration_4 numeric
@ATTRIBUTE speed_8 numeric
@ATTRIBUTE direction_8 numeric
@ATTRIBUTE acceleration_8 numeric
@ATTRIBUTE speed_16 numeric
@ATTRIBUTE direction_16 numeric
@ATTRIBUTE acceleration_16 numeric

%The number after speed, direction denotes the step size that was used for the calculation.
%Acceleration was calculated between two adjacent samples of the already low pass filtered velocity

@DATA
0,753.62,1001.65,1.00,1,1,1,0.00,0.00,0.00,3425.95,-1.42,0.00,2081.69,-1.45,0.00,1168.22,-1.38,0.00,619.75,-1.34,0.00
15700,761.62,948.46,1.00,1,1,1,3425.95,-1.42,218213.48,2081.69,-1.45,85769.86,1292.66,-1.76,59626.06,195.62,-2.36,68252.57,429.33,-0.86,19788.30
31800,761.53,935.92,1.00,1,1,1,778.61,-1.58,165199.88,1292.66,-1.76,58144.67,1168.22,-1.38,29644.51,319.02,-1.72,12406.16,208.48,-1.16,14828.17
47500,753.91,908.08,1.00,1,1,1,1838.43,-1.84,70315.75,576.61,-1.22,54281.35,195.62,-2.36,68252.57,305.40,2.33,35729.84,886.12,2.62,67572.68
80000,771.14,909.85,1.00,1,1,1,532.77,0.10,64322.85,613.54,1.69,36362.48,319.02,-1.72,6145.82,619.75,-1.34,27605.21,1862.05,2.94,32540.19
95700,750.49,937.45,1.00,1,1,1,2195.77,2.21,159973.05,425.53,3.08,43361.95,305.40,2.33,35729.84,429.33,-0.86,19788.30,1303.25,-3.12,41878.00
111700,757.68,910.73,1.00,1,1,1,1729.90,-1.31,241012.92,554.22,-2.43,24373.76,89.18,0.99,18619.58,208.48,-1.16,14920.85,1271.40,3.08,6577.37
127700,737.07,925.86,1.00,1,1,1,1598.11,2.51,196297.51,523.49,0.23,65420.02,868.54,-0.63,54837.59,886.12,2.62,66305.69,1025.86,3.03,15829.24
144300,774.29,914.64,1.00,1,1,1,2341.79,-0.29,234032.14,1574.46,-0.40,71819.33,224.54,-0.30,39752.13,1862.05,2.94,63708.21,610.08,-2.82,32435.66
175600,806.56,896.56,1.00,2,2,2,1181.82,-0.51,38815.43,196.37,-1.52,47894.69,1484.33,2.68,54515.13,1303.25,-3.12,21005.90,560.01,-3.05,4595.98
191500,774.78,905.38,1.00,3,3,3,2074.40,2.87,203433.41,6059.86,2.70,387112.46,3401.10,2.96,126811.95,1271.40,3.08,6618.73,788.37,3.04,16429.37
207600,631.04,978.99,1.00,3,3,3,10030.66,2.67,497488.19,8490.73,2.92,180094.95,3854.78,2.99,29091.38,1025.86,3.03,15730.92,810.88,2.95,4761.58
223500,509.52,964.21,1.00,1,1,1,7698.81,-3.02,355327.41,2552.38,-2.56,437927.12,3120.49,3.06,48742.71,1324.32,2.97,19164.94,933.61,2.98,7934.68
239500,563.12,934.08,1.00,1,1,1,3842.50,-0.51,689589.08,2411.60,-0.58,259444.53,850.03,-2.42,162770.97,1510.60,2.97,11643.99,797.73,3.11,10940.86
255800,574.80,921.70,1.00,1,1,1,1044.31,-0.81,175616.84,869.26,0.31,121606.39,1243.32,-0.23,114700.27,1785.68,2.93,17478.13,821.95,2.97,7089.59
272000,590.01,942.75,1.00,1,1,1,1602.88,0.95,127825.50,862.66,1.10,41226.75,362.38,-0.03,54969.64,834.46,-2.98,64978.66,771.27,3.04,4780.32
287600,587.16,946.19,1.00,1,1,1,286.58,2.26,99733.33,207.41,-1.35,66140.35,805.06,2.50,71935.84,128.89,-2.66,45719.94,927.44,3.01,10138.65
319600,592.13,933.11,1.00,3,3,3,437.47,-1.21,22335.66,1361.40,2.93,45626.63,961.70,2.98,13828.78,349.80,2.95,8174.73,1113.94,2.96,6094.71
335700,523.16,960.05,1.00,1,1,1,4599.25,2.77,304565.85,1979.61,2.88,38675.60,1002.70,3.05,5247.97,442.20,2.68,8646.78,919.98,3.00,12390.56
368600,498.35,957.91,1.00,1,1,1,756.73,-3.06,119603.54,675.42,-2.98,42304.77,1059.75,3.00,2372.29,541.60,3.07,6554.15,409.32,-2.94,16765.91
383700,491.18,954.73,1.00,1,1,1,519.88,-2.72,20828.46,524.29,-0.92,68214.49,169.39,-2.61,61830.19,574.74,3.10,2373.58,52.72,-2.40,24179.02
399600,508.18,944.97,1.00,1,1,1,1233.18,-0.52,100407.35,639.57,-0.08,30689.83,170.36,-1.05,15005.53,718.01,2.93,11302.63,203.96,2.81,11613.61
415600,511.52,953.15,1.00,1,1,1,551.97,1.18,88542.63,179.31,2.46,49609.87,96.93,-0.83,4908.16,190.90,-2.57,37380.88,216.86,2.69,1811.13
431700,503.71,948.59,1.00,1,1,1,561.33,-2.61,65468.03,515.67,-2.96,26201.60,309.83,2.62,25047.52,81.43,-0.37,15384.22,262.47,2.89,4051.39
447500,495.34,950.16,1.00,1,1,1,538.89,2.96,24332.44,443.87,2.68,19666.57,212.52,-2.54,18358.31,46.51,-0.21,2298.99,230.76,3.01,2772.44
463700,490.99,954.90,1.00,1,1,1,397.59,2.31,20057.99,143.88,-1.26,34168.61,93.73,0.75,18860.50,68.38,1.97,6309.76,283.37,3.03,3273.58
495800,497.44,943.53,1.00,1,1,1,407.30,-1.05,24914.17,381.18,-0.07,11055.61,49.58,0.93,1427.15,33.34,-0.60,3052.43,221.44,-0.41,15553.65
511600,509.20,953.68,1.00,1,1,1,983.27,0.71,71837.28,307.49,1.54,31561.24,168.22,-0.06,9302.29,117.22,1.01,7783.35,487.69,-0.48,16919.41
527700,497.73,953.34,1.00,1,1,1,713.08,-3.11,99456.34,150.57,3.06,20850.79,302.53,0.37,10251.63,121.64,0.30,5140.40,321.16,-0.05,14640.21
543600,504.40,954.06,1.00,1,1,1,422.06,0.11,71342.36,562.51,-0.16,44821.40,153.14,1.21,14505.03,124.96,-0.68,7347.20,363.15,-0.03,2704.83
559700,515.49,950.45,1.00,1,1,1,724.70,-0.31,23679.32,372.45,0.82,29216.32,205.33,0.16,11467.76,612.57,-0.11,31788.95,298.36,-0.20,5343.52
576300,512.73,962.94,1.00,1,1,1,770.84,1.79,78229.60,119.50,1.84,19703.65,149.51,-1.40,15203.48,891.62,-0.49,23594.19,328.72,-0.16,1969.08
607700,513.94,955.97,1.00,2,2,2,225.36,-1.40,31720.24,456.44,-1.86,17862.06,894.49,-0.24,26929.29,568.74,-0.04,14361.46,300.35,-0.17,905.69
623600,506.47,942.28,1.00,1,1,1,980.83,-2.07,51350.52,2329.47,-0.31,148951.24,1639.24,-0.56,52916.11,717.33,-0.10,9676.93,383.18,-0.29,5819.04
639700,585.02,933.50,1.00,1,1,1,4908.86,-0.11,332761.51,3936.52,-0.40,101293.84,936.84,-0.09,56809.94,517.58,-0.18,12713.70,390.13,-0.08,5063.19
655600,622.61,893.48,1.00,1,1,1,3453.34,-0.82,200988.41,340.99,1.34,252122.96,1400.85,-0.00,29809.94,568.98,-0.32,5729.79,180.23,-0.11,13209.88
687800,588.70,949.49,1.00,1,1,1,2033.26,2.12,169518.71,1015.39,1.65,21690.73,209.82,0.04,36995.04,495.64,-0.28,2367.90,441.42,-0.15,8120.88
703600,618.54,942.05,1.00,1,1,1,1946.43,-0.24,232872.61,467.29,-0.75,88360.54,428.80,1.94,33901.91,652.67,-0.21,10199.22,344.75,-0.24,6483.62
735700,605.15,934.30,1.00,1,1,1,482.09,-2.62,72191.79,311.72,-2.39,18104.69,191.84,-1.48,19174.87,191.39,0.03,14614.28,260.24,-0.31,2722.34
751700,607.56,931.84,1.00,1,1,1,215.42,-0.80,35930.71,469.82,-3.14,20022.37,301.61,-2.00,10375.15,500.95,2.40,40729.90,294.54,-0.43,3032.02
767600,590.16,934.25,1.00,1,1,1,1104.81,3.00,80634.11,369.29,-1.49,38980.11,163.75,0.01,25107.92,310.78,-0.37,50199.02,354.42,-0.33,4302.36
783600,608.52,920.10,1.00,1,1,1,1448.69,-0.66,154346.86,795.34,0.00,53173.98,729.79,2.79,55315.37,120.69,-2.34,23394.73,357.03,-0.01,7085.69
799600,615.61,934.37,1.00,1,1,1,995.73,1.11,119407.31,1643.10,2.59,147194.97,628.62,-0.02,83759.52,96.90,-2.41,1570.23,602.13,-0.27,17065.98
815700,563.70,947.91,1.00,1,1,1,3331.85,2.89,227785.88,462.67,-0.07,128155.61,148.81,1.79,42196.04,88.62,-2.41,513.90,1050.43,-0.20,28068.18
831600,630.38,933.36,1.00,1,1,1,4292.15,-0.21,479400.99,1437.00,-0.41,63675.77,285.71,-2.72,21892.05,200.79,-0.48,15485.88,1463.18,-0.28,26666.02
848100,606.46,929.47,1.00,1,1,1,1468.90,-2.98,344492.30,762.25,-2.91,127215.52,528.07,-0.62,43378.60,151.56,1.27,16502.15,1290.35,-0.23,11324.74
879600,594.76,925.00,1.00,1,1,1,397.58,-2.78,34369.02,218.74,-2.51,18011.96,240.14,-2.43,19996.20,1069.29,-0.33,34419.72,1432.65,-0.17,5219.17
895700,598.06,923.32,1.00,1,1,1,229.59,-0.47,35854.86,667.89,-0.20,51652.40,179.96,0.93,25940.94,2542.57,-0.30,91553.03,1251.66,-0.14,11525.48
911700,615.79,920.82,1.00,2,2,2,1119.31,-0.14,56573.38,764.77,0.80,43244.60,2674.93,-0.24,163108.67,2500.16,-0.27,5988.84,1150.48,-0.09,7370.87
927700,615.04,940.94,1.00,2,2,2,1258.34,1.61,114103.86,4689.00,-0.25,272466.00,4583.93,-0.27,119461.64,2517.89,-0.19,12434.06,811.14,0.21,27665.76
943700,761.30,884.21,1.00,2,2,2,9805.01,-0.37,648002.92,7403.30,-0.33,172266.97,5144.73,-0.23,36801.58,2911.26,-0.14,25946.17,497.70,0.57,24272.02
975800,952.17,826.28,1.00,1,1,1,6213.95,-0.29,113360.11,5449.81,-0.22,64399.79,4953.69,-0.22,6068.40,2431.25,-0.11,15157.04,831.47,1.26,17073.61
991600,1015.98,826.91,1.00,1,1,1,4038.70,0.01,167937.55,1751.82,0.51,272925.27,3114.84,-0.07,122084.68,2022.12,-0.05,27230.36,1057.29,1.64,26750.85
1007500,1000.56,853.53,1.00,1,1,1,1935.21,2.10,331356.19,1153.07,1.63,101704.15,785.76,1.03,179254.86,1479.95,0.13,39319.94,765.56,1.70,18638.71
1025000,1013.84,865.36,1.00,1,1,1,1016.06,0.73,114083.31,645.92,2.12,37616.51,1369.81,2.36,80262.39,775.17,1.65,93656.72,436.98,0.83,33595.96
1055600,984.40,880.07,1.00,2,2,2,1075.39,2.68,56591.90,1822.88,2.67,42980.68,2389.25,2.48,34075.92,3028.27,2.26,79412.33,1070.61,0.51,21905.83
1071500,938.50,904.20,1.00,2,2,2,3261.72,2.66,137526.80,5083.77,2.55,206357.87,3204.14,2.61,56052.28,3777.37,2.32,48821.73,825.57,0.35,18155.21
1087600,849.72,971.32,1.00,4,4,4,6912.47,2.49,231801.14,4516.05,2.59,37362.33,5816.84,2.38,173139.90,3323.49,2.50,49087.00,873.40,0.37,3195.76
1120600,749.93,1020.87,1.00,4,4,4,3376.24,2.68,110575.31,6369.06,2.30,73150.44,6177.28,2.31,17487.95,2303.37,2.69,34947.46,878.60,0.38,321.00
1136000,644.78,1201.59,1.00,4,4,4,13577.23,2.10,708975.23,9286.36,2.10,214755.78,4259.76,2.51,141759.56,1423.65,1.96,101745.19,509.44,0.76,29096.39
1151700,605.34,1270.87,1.00,4,4,4,5077.65,2.09,541397.40,2421.05,-2.74,592153.64,1042.81,3.10,219379.52,809.83,2.18,41703.81,402.31,0.79,6855.43
1167600,574.25,1171.94,1.00,4,4,4,6521.81,-1.88,669755.68,8119.36,-1.26,519634.68,3438.78,-0.41,278338.79,472.01,1.22,41460.62,679.55,0.15,26908.87
1183700,684.17,1023.30,1.00,4,4,4,11482.59,-0.93,576641.15,6862.59,-0.24,458418.94,4550.35,-0.79,114495.68,1916.38,-0.12,115914.16,690.57,0.05,4524.50
1216100,897.16,1091.25,1.00,2,2,2,6900.18,0.31,349773.65,3718.57,-0.07,100949.91,4097.89,-0.41,52202.76,3465.51,-0.57,59669.43,637.03,0.03,1699.97
1232300,864.50,1011.36,1.00,2,2,2,5328.00,-1.96,685141.02,1699.39,-1.99,283432.32,4251.26,-0.10,78891.96,4253.95,-0.62,50329.02,989.91,-0.10,22640.68
1247600,875.39,1042.35,1.00,1,1,1,2147.06,1.23,488439.60,5085.96,-0.14,378277.43,3616.96,-0.76,170468.02,4374.81,-0.42,58268.58,1512.22,-0.14,34298.54
1263600,1022.11,988.98,1.00,1,1,1,9758.21,-0.35,625937.63,6806.16,-0.52,176546.46,4062.91,-0.39,91953.01,3555.80,-0.26,64025.92,2166.56,-0.24,42355.98
1279600,1063.94,933.34,1.00,1,1,1,4350.48,-0.93,409855.27,3442.16,-0.75,221476.00,4650.54,-0.43,38178.90,2424.39,-0.63,97762.13,2688.39,-0.44,44642.16
1295600,1102.34,913.51,1.00,1,1,1,2701.38,-0.48,140511.82,3276.85,-0.30,95698.76,2994.91,-0.49,104490.25,2775.65,-0.35,50550.28,3023.71,-0.49,22768.77
1328100,1215.88,886.73,1.00,2,2,2,3589.25,-0.23,35986.82,2840.18,-0.28,13549.13,1544.36,-0.40,45067.02,3116.63,-0.30,11314.17,2819.19,-0.38,11876.42
1343700,1233.67,875.88,1.00,2,2,2,1335.94,-0.55,151049.59,1197.89,-3.11,256264.47,1764.37,-0.28,18913.26,2438.76,-0.33,43704.20,2239.49,-0.27,40866.00
1359700,1178.04,885.56,1.00,1,1,1,3529.01,2.97,299812.39,142.40,-0.23,83504.37,1440.91,0.22,53451.06,2057.34,-0.24,26868.08,1555.71,-0.48,48939.18
1375600,1238.10,874.86,1.00,1,1,1,3836.50,-0.18,463238.26,3967.86,0.17,241311.57,1890.57,-0.01,37110.04,2017.95,-0.23,2745.84,759.68,-0.34,50981.18
1392500,1306.34,907.38,1.00,1,1,1,4473.59,0.44,154494.23,3620.59,0.00,42796.11,2601.23,-0.15,45972.12,1273.63,-0.23,44042.86,369.96,-2.35,57873.05
1407900,1355.04,874.96,1.00,1,1,1,3798.83,-0.59,267801.47,1985.36,-0.60,147863.12,2274.74,-0.20,22504.10,925.54,-0.31,23177.92,701.47,-2.87,27405.36
1439600,1383.57,854.65,1.00,1,1,1,1104.70,-0.62,85012.16,1491.37,-0.53,16076.73,1332.10,-0.56,35792.75,870.58,-0.08,6712.59,679.28,-3.05,3961.16
1455600,1416.55,839.23,1.00,1,1,1,2275.78,-0.44,75358.64,700.13,-0.46,49640.33,501.20,-1.14,59581.14,1046.26,2.77,118515.43,832.02,3.13,10683.99
1487900,1413.89,839.68,1.00,2,2,2,83.63,2.97,72956.33,875.17,-2.95,46252.87,871.72,2.85,39035.25,3223.34,3.03,69039.42,1132.65,3.06,9548.90
1503900,1375.05,831.20,1.00,2,2,2,2484.54,-2.93,150447.61,3257.05,2.79,159127.18,4350.74,2.86,217445.78,3139.47,3.04,5586.54,1196.16,3.12,5699.95
1519600,1316.84,874.91,1.00,1,1,1,4636.61,2.50,226269.37,9810.52,2.80,417424.02,9871.81,2.95,353414.64,3367.26,3.03,14697.36,1100.53,3.06,7163.64
1535600,1082.10,935.59,1.00,1,1,1,15153.50,2.89,688119.91,16448.46,2.97,437632.43,7238.19,2.97,165186.85,3659.61,3.01,18945.91,1287.49,3.04,11856.30
1551700,796.16,962.48,1.00,1,1,1,17838.76,3.05,232765.68,5746.73,-3.12,674593.59,5873.72,3.06,91945.26,3526.55,3.01,8313.75,1423.12,-3.10,14539.35
1583700,805.76,928.88,1.00,1,1,1,1091.98,-1.29,570758.48,1473.91,-0.76,214560.33,3084.28,-3.06,89727.62,3296.86,3.04,7980.64,1507.35,3.06,5899.49
1599800,847.34,913.43,1.00,1,1,1,2755.36,-0.36,141888.75,1029.86,-0.39,39471.94,776.93,-0.67,229368.81,3070.40,3.06,15013.07,1678.64,3.05,10693.01
1615600,836.11,916.30,1.00,1,1,1,733.91,2.89,220636.03,166.55,0.35,57898.36,783.31,-0.76,4768.90,1590.15,-3.07,95934.00,1733.06,3.06,3688.01
1647900,854.86,916.22,1.00,1,1,1,580.38,-0.00,40387.89,710.71,-1.12,22111.25,254.89,-3.10,30259.36,571.13,-0.91,60892.46,1822.04,3.03,3255.90
1663700,851.02,885.54,1.00,1,1,1,1956.48,-1.70,133299.54,885.49,-3.01,82211.54,98.67,2.98,10087.37,287.79,-0.32,23359.93,3296.86,3.04,93346.19
1679600,827.02,912.59,1.00,1,1,1,2274.17,2.30,242539.38,1230.15,2.19,71069.99,405.53,-1.67,26626.82,69.04,-1.49,16920.15,3070.40,3.06,15201.92
1695600,828.31,917.55,1.00,1,1,1,320.28,1.32,132051.81,1048.96,-0.72,141454.95,360.60,1.62,47763.63,275.04,-0.90,13822.01,1590.15,-3.07,94734.82
1711700,852.40,890.46,1.00,1,1,1,2251.39,-0.84,151791.49,443.70,-0.14,44665.18,292.88,-0.45,34918.19,151.65,-2.55,20114.37,571.13,-0.91,122163.14
1744200,849.67,914.54,1.00,1,1,1,745.66,1.68,89015.57,263.55,1.91,18815.59,625.86,-0.79,11208.88,360.60,1.62,14100.61,287.79,-0.32,11356.52
1759800,848.19,902.42,1.00,1,1,1,782.68,-1.69,97301.31,1128.27,-1.17,89194.71,223.28,2.54,54243.70,292.88,-0.45,36037.36,69.04,-1.49,17245.54
1775700,863.43,881.77,1.00,1,1,1,1613.88,-0.93,73896.28,280.35,3.12,79717.80,1128.27,-1.17,83144.97,625.86,-0.79,22911.23,275.04,-0.90,13908.94
1807600,834.80,902.65,1.00,1,1,1,1110.94,2.51,84459.90,1110.94,2.51,28094.40,280.35,3.12,39733.95,223.28,2.54,26526.70,151.65,-2.55,10151.77
