@RELATION gaze_labels

%@METADATA width_px 1920
%@METADATA height_px 1080
%@METADATA width_mm 540.00
%@METADATA height_mm 254.00
%@METADATA distance_mm 620.00


@ATTRIBUTE time INTEGER
@ATTRIBUTE x NUMERIC
@ATTRIBUTE y NUMERIC
@ATTRIBUTE confidence NUMERIC
@ATTRIBUTE handlabeller1 INTEGER
@ATTRIBUTE handlabeller2 INTEGER
@ATTRIBUTE handlabeller_final INTEGER
@ATTRIBUTE speed_1 numeric
@ATTRIBUTE direction_1 numeric
@ATTRIBUTE acceleration_1 numeric
@ATTRIBUTE speed_2 numeric
@ATTRIBUTE direction_2 numeric
@ATTRIBUTE acceleration_2 numeric
@ATTRIBUTE speed_4 numeric
@ATTRIBUTE direction_4 numeric
@ATTRIBUTE acceleration_4 numeric
@ATTRIBUTE speed_8 numeric
@ATTRIBUTE direction_8 numeric
@ATTRIBUTE acceleration_8 numeric
@ATTRIBUTE speed_16 numeric
@ATTRIBUTE direction_16 numeric
@ATTRIBUTE acceleration_16 numeric

%The number after speed, direction denotes the step size that was used for the calculation.
%Acceleration was calculated between two adjacent samples of the already low pass filtered velocity

@DATA
0,296.57,745.05,1.00,1,1,1,0.00,0.00,0.00,1129.63,-0.94,0.00,911.06,-2.99,0.00,296.52,-2.02,0.00,253.20,-2.63,0.00
14400,306.13,731.89,1.00,1,1,1,1129.63,-0.94,78446.57,911.06,-2.99,121262.31,404.06,2.89,39032.05,117.69,-2.85,16289.10,228.10,2.77,14432.82
50200,251.36,738.12,1.00,1,1,1,1539.62,3.03,68395.26,404.06,2.89,15700.04,296.52,-2.02,12635.52,699.11,-0.14,22565.39,253.90,0.72,11495.08
64600,286.48,736.92,1.00,1,1,1,2439.89,-0.03,276150.07,1328.81,-0.38,120152.07,117.69,-2.85,16289.10,365.13,-2.72,71308.62,250.50,-2.84,34257.62
78700,286.50,724.00,1.00,1,1,1,916.16,-1.57,182619.40,459.96,-0.62,63004.05,699.11,-0.14,57293.68,253.20,-2.63,8152.39,196.24,-0.14,30926.68
93300,297.23,729.25,1.00,1,1,1,817.77,0.46,100771.43,347.56,0.68,34078.10,365.13,-2.72,70331.79,228.10,2.77,14235.11,1150.28,0.13,65939.32
115100,296.32,731.98,1.00,1,1,1,131.94,1.89,37185.37,902.91,-3.08,55178.77,337.71,2.99,9240.58,253.90,0.72,18877.24,1641.56,0.05,23103.61
129000,265.06,727.22,1.00,1,1,1,2275.07,-2.99,162342.00,1122.41,-2.99,16952.41,404.76,2.54,12748.71,250.50,-2.84,35489.91,1586.55,0.19,16993.28
143400,264.90,727.29,1.00,1,1,1,11.69,2.71,157313.55,697.61,1.00,115788.74,540.12,2.21,14378.24,196.24,-0.14,30282.37,755.11,0.07,58533.23
157400,275.79,743.87,1.00,1,1,1,1416.90,0.99,101335.20,965.94,1.24,23943.85,145.07,3.12,33287.27,1150.28,0.13,68765.29,828.37,-0.02,7058.03
178800,275.90,759.67,1.00,2,2,2,738.24,1.56,41700.96,731.47,-2.45,76346.98,740.28,-0.15,41326.94,1641.56,0.05,23535.45,1019.97,-0.03,8960.73
192800,255.80,727.41,1.00,3,3,3,2714.62,-2.13,240430.46,1882.61,-0.83,146544.08,2616.15,0.03,135096.33,1586.55,0.19,16871.90,776.75,-0.02,17381.86
206900,311.41,720.46,1.00,3,3,3,3974.61,-0.12,402552.08,6578.64,0.11,403408.54,3819.39,-0.08,88713.23,1856.84,0.13,20558.39,1109.67,0.03,23841.70
221500,443.42,748.56,1.00,1,1,1,9244.26,0.21,386428.99,6272.40,0.12,21074.07,3280.49,0.18,73732.31,1988.08,-0.06,27046.57,860.08,-0.02,17433.40
236400,495.19,742.04,1.00,1,1,1,3501.57,-0.13,405905.10,786.25,0.67,377241.58,2981.95,0.20,20272.74,1911.03,-0.12,9331.99,776.06,-0.05,5863.54
257900,465.77,766.44,1.00,1,1,1,1777.94,2.45,236815.18,500.89,1.21,20392.83,1395.12,-0.23,84132.50,1784.55,0.03,14002.32,880.29,0.05,6043.48
271900,501.43,758.69,1.00,1,1,1,2607.22,-0.21,304632.55,2690.59,-0.53,201444.18,240.41,-0.76,85223.19,2016.46,0.05,16867.41,782.61,0.00,7461.67
286100,531.16,727.97,1.00,1,1,1,3010.35,-0.80,117727.46,972.58,-1.39,153763.31,605.71,-1.01,26614.27,631.96,-0.26,100551.96,1189.92,0.05,28875.97
300300,506.37,731.51,1.00,1,1,1,1763.47,3.00,319321.11,1251.19,3.02,126732.58,1165.91,-0.34,55363.11,144.98,-1.24,39755.77,1773.41,-0.08,43276.16
322100,486.46,733.52,1.00,1,1,1,917.94,3.04,38859.56,1825.31,0.03,140720.83,36.51,-1.46,52778.09,369.88,-0.49,12953.17,1976.24,-0.03,10227.63
336500,572.42,733.51,1.00,1,1,1,5969.12,-0.00,477988.06,1050.35,-0.19,57660.60,128.13,-2.02,6880.83,207.79,-1.93,27801.86,1818.94,0.00,11944.46
365700,531.47,725.08,1.00,1,1,1,1431.63,-2.94,252635.58,1630.25,-2.98,90515.95,334.89,0.18,14487.31,582.95,0.37,25263.83,1493.63,-0.08,12012.68
380300,501.90,722.29,1.00,1,1,1,2034.51,-3.05,43205.11,393.69,2.36,98196.22,877.97,-3.07,82977.87,1674.89,-0.05,79872.35,1325.46,-0.01,13199.89
416000,517.42,739.04,1.00,2,2,2,639.63,0.82,71355.26,262.71,2.71,4857.20,1178.11,0.40,56830.10,2136.22,-0.07,12982.95,1459.46,-0.15,6833.94
430800,489.82,727.78,1.00,3,3,3,2013.91,-2.75,176196.24,3537.98,0.22,253451.06,3275.90,-0.02,151879.23,1661.13,-0.04,32349.87,1223.11,-0.08,17520.61
445000,617.56,761.37,1.00,1,1,1,9301.54,0.26,795875.20,8237.90,-0.03,344547.34,4746.74,-0.10,106050.55,2369.60,-0.03,49934.43,1128.15,-0.03,7810.73
466600,784.58,718.03,1.00,1,1,1,7988.35,-0.25,210691.25,5921.87,-0.25,127451.48,5367.44,-0.01,34627.58,2603.15,0.04,13488.09,1015.91,0.00,5388.28
481200,825.45,709.05,1.00,1,1,1,2866.24,-0.22,351046.52,1798.98,0.09,292309.60,4000.22,-0.17,106600.80,2808.94,-0.10,30633.63,1264.24,0.01,17035.50
495300,835.99,722.81,1.00,1,1,1,1229.28,0.92,184168.35,1675.10,0.15,11302.43,1636.41,0.22,182260.69,2801.18,0.01,22847.28,1434.78,0.06,12823.07
509800,872.82,716.24,1.00,1,1,1,2580.17,-0.18,158140.44,1508.86,0.37,26835.80,871.64,-0.13,60252.25,1789.48,-0.16,74853.76,2019.77,0.03,40538.61
524600,877.17,738.90,1.00,1,1,1,1559.01,1.38,202515.07,471.97,-1.03,101453.98,306.03,0.49,43769.84,250.20,0.42,107241.35,2431.59,0.02,27826.46
546400,881.78,701.47,1.00,1,1,1,1729.92,-1.45,149039.77,676.92,-2.86,42281.33,39.18,1.03,12530.57,376.79,0.58,6226.69,2518.47,0.02,4050.40
560700,853.67,732.19,1.00,1,1,1,2911.76,2.31,310217.73,429.68,1.97,52978.73,759.65,-3.03,54826.94,1209.47,0.21,60804.42,2951.60,0.02,30290.94
590500,874.45,718.94,1.00,2,2,2,826.99,-0.57,124719.15,839.62,3.14,26192.69,489.61,1.85,27938.12,1679.33,0.10,16656.16,2090.82,-0.04,29336.78
605300,816.22,732.27,1.00,2,2,2,4036.17,2.92,325889.19,570.72,1.73,63136.62,1963.55,0.17,139919.76,2261.16,0.00,41309.09,1715.66,0.03,27104.21
626400,871.13,739.16,1.00,3,3,3,2622.62,0.12,310985.83,5532.29,0.14,264185.51,3761.03,0.09,85933.20,2294.26,0.15,16313.39,1177.81,0.05,25520.69
640200,1007.40,759.31,1.00,1,1,1,9981.83,0.15,533338.22,8617.25,0.00,233863.85,6089.50,0.02,170416.20,3087.71,0.03,62383.28,1427.68,0.06,18111.83
654700,1115.00,739.92,1.00,1,1,1,7540.28,-0.18,256656.43,6866.89,-0.10,132956.76,5277.29,0.04,56460.71,2421.81,0.05,46146.46,908.79,0.05,35795.93
668900,1203.45,739.25,1.00,1,1,1,6229.45,-0.01,123690.98,2635.67,0.12,305407.81,4520.93,-0.05,61559.75,3099.47,0.00,48517.72,1030.00,-0.00,9162.36
690300,1208.13,751.34,1.00,1,1,1,605.82,1.20,282328.91,2644.48,0.05,9136.20,1333.49,-0.04,148960.52,1976.58,-0.04,52703.28,1079.49,0.14,7286.07
704400,1297.22,743.76,1.00,1,1,1,6341.60,-0.08,439653.78,442.21,-0.92,171745.91,872.58,-0.06,32765.92,1651.66,-0.05,23077.12,1061.35,-0.03,12520.04
733200,1219.61,736.24,1.00,1,1,1,2707.47,-3.05,313119.84,433.77,-2.70,23593.23,394.79,-2.43,41207.19,241.53,-0.28,49229.15,1026.97,0.03,2261.54
754200,1277.73,734.45,1.00,1,1,1,2768.80,-0.03,260246.55,806.32,-2.92,18821.69,342.37,3.04,14099.62,51.45,-2.97,13741.85,1481.03,0.00,21663.37
783000,1180.44,727.41,1.00,1,1,1,3386.95,-3.07,213460.81,407.00,2.33,24004.21,786.72,-3.03,15890.40,45.96,-2.26,1186.71,859.89,0.05,21646.95
796800,1265.76,746.99,1.00,1,1,1,6342.91,0.23,703182.43,776.85,3.09,40188.67,1045.13,3.10,21131.22,801.32,-2.98,55611.79,179.68,-2.71,74567.53
818400,1152.98,728.95,1.00,1,1,1,5287.37,-2.98,538140.22,1951.45,-3.01,55396.40,459.00,0.67,65961.97,306.33,-2.93,22943.67,746.78,-3.14,27215.85
833300,1195.13,737.77,1.00,1,1,1,2889.78,0.21,548659.33,1844.22,0.32,253582.02,1478.23,-2.89,127934.37,197.24,-3.11,7873.93,1216.26,-3.10,31597.13
847300,1203.56,745.76,1.00,1,1,1,829.83,0.76,159020.27,934.44,-2.57,197067.75,338.80,-0.11,128553.54,530.14,2.78,25442.48,1363.56,-3.13,10722.93
861600,1172.91,723.42,1.00,2,2,2,2652.01,-2.51,243119.00,968.98,-2.56,2568.29,844.48,-0.08,35376.99,2355.56,-3.11,131165.61,1523.46,-3.12,11223.36
883000,1174.75,726.62,1.00,2,2,2,172.10,1.05,131311.47,2131.73,0.13,141674.97,1349.85,3.08,102536.34,2058.75,3.10,15704.20,1369.56,3.14,7457.47
897800,1249.43,733.45,1.00,3,3,3,5066.99,0.09,335810.49,2186.02,2.74,281464.34,3283.97,3.07,130685.01,2703.67,-3.11,45286.29,1723.19,3.09,24498.98
912000,1116.41,751.43,1.00,3,3,3,9452.56,3.01,1016599.98,10099.75,3.13,571610.82,4742.29,3.09,102868.03,2989.79,-3.14,21234.56,1258.32,-3.14,33256.24
926400,960.61,737.98,1.00,1,1,1,10859.72,-3.06,183063.77,7502.32,-3.09,185404.22,6258.05,-3.12,108271.72,2419.67,3.11,40018.39,1797.67,-3.12,37544.69
940700,901.42,739.54,1.00,1,1,1,4140.40,3.12,472824.14,3198.40,-3.03,301550.77,4649.02,-3.12,112521.50,2692.50,3.11,19093.00,1134.48,3.14,46470.17
962100,847.11,725.48,1.00,1,1,1,2621.42,-2.89,82931.98,2348.29,3.08,45670.54,1548.51,-3.09,144944.98,3429.42,3.08,34664.96,1553.49,3.07,20021.02
976100,818.47,745.06,1.00,1,1,1,2477.82,2.54,150953.16,592.53,0.44,205760.76,835.38,-3.10,50957.50,2030.81,-3.05,104051.66,1697.08,3.14,12802.67
990100,862.12,732.56,1.00,1,1,1,3242.69,-0.28,403459.79,1091.67,-0.25,52629.66,799.93,2.39,44941.37,1238.54,-3.12,57221.94,1962.90,3.08,20252.65
1004300,848.33,737.54,1.00,1,1,1,1032.56,2.79,300947.15,1644.29,2.65,191315.26,646.03,-0.44,100638.69,270.14,-2.87,68995.86,1840.28,3.09,8644.30
1026300,809.58,760.54,1.00,1,1,1,2048.06,2.61,47808.46,357.61,-0.92,89744.85,940.20,3.10,70695.73,595.56,2.62,20437.72,2174.97,3.10,15289.78
1040700,856.17,727.16,1.00,1,1,1,3980.33,-0.62,418289.54,919.57,-1.91,54343.90,320.34,-0.37,86662.93,542.81,3.10,19080.84,1736.69,3.08,30538.34
1055700,800.49,735.07,1.00,1,1,1,3749.41,3.00,500534.71,416.14,0.24,80028.86,472.22,2.94,52656.85,1560.10,3.04,67921.15,1137.09,3.04,40193.60
1069700,867.89,730.05,1.00,2,2,2,4827.58,-0.07,612306.62,856.78,2.27,79023.84,1479.86,2.96,71983.15,1217.76,3.05,24463.17,938.25,3.05,14222.55
1105900,772.72,767.92,1.00,3,3,3,2829.49,2.76,209245.39,2547.56,3.00,55007.27,2074.79,3.02,16661.26,1154.48,-3.13,3924.05,706.75,2.94,6850.94
1120300,740.26,748.16,1.00,1,1,1,2638.88,-2.59,169946.82,4677.69,-3.05,158205.66,2213.64,3.02,9662.01,1535.26,2.92,34232.08,677.64,3.14,9858.64
1135000,637.20,755.20,1.00,1,1,1,7027.68,3.07,347261.38,1875.24,3.05,194090.02,1864.28,-3.07,35097.33,1070.51,2.93,31623.83,685.70,3.05,4400.28
1170000,647.42,756.29,1.00,1,1,1,293.77,0.11,209060.99,203.12,2.86,47895.12,1594.73,2.88,17932.90,1480.67,3.00,11978.76,695.03,3.01,734.88
1183900,627.65,757.94,1.00,1,1,1,1427.15,3.06,123490.96,1283.50,2.41,79431.36,220.83,2.00,105376.48,870.16,-3.13,45828.27,205.50,-2.99,36049.73
1197900,620.72,780.16,1.00,1,1,1,1662.46,1.87,124063.41,406.26,1.44,79092.93,336.52,2.72,16153.93,815.54,-3.12,3942.61,403.81,2.92,16117.85
1219100,629.54,772.12,1.00,1,1,1,562.96,-0.74,102226.16,472.28,-1.13,39765.44,364.38,0.35,30649.97,169.41,-0.14,46366.42,112.07,0.19,23984.39
1233500,627.88,764.95,1.00,1,1,1,510.96,-1.80,37778.86,730.90,-0.30,37499.91,548.71,-1.46,50465.58,60.37,1.72,13586.55,123.67,2.00,12902.41
1247600,649.43,765.95,1.00,1,1,1,1530.38,0.05,123370.96,700.99,-1.73,66534.17,599.51,-0.56,35347.08,975.05,-0.05,70142.30,207.60,-0.79,23168.29
1262000,624.74,745.22,1.00,2,2,2,2239.36,-2.44,248507.53,536.15,-0.85,38021.24,287.60,-0.06,26025.89,981.42,-0.22,11521.94,250.85,-0.21,9568.45
1283200,662.05,751.62,1.00,3,3,3,1785.60,0.17,183356.28,802.82,0.72,45395.84,1621.40,-0.14,62972.42,1683.14,-0.15,33366.57,811.17,-0.09,26561.35
1297500,646.26,763.90,1.00,1,1,1,1398.79,2.48,204026.97,3190.74,-0.00,184497.13,1852.97,0.06,29243.33,1752.36,-0.01,17764.15,858.83,-0.16,5389.41
1311300,751.71,751.52,1.00,1,1,1,7693.71,-0.12,646368.84,3405.20,-0.12,31654.82,2958.73,-0.06,82786.67,1297.49,-0.23,40761.08,1019.70,-0.13,11822.14
1326300,743.66,752.49,1.00,1,1,1,540.22,3.02,548928.39,2748.77,-0.13,43832.84,3210.62,-0.01,20399.52,1413.02,-0.06,16966.31,1298.91,-0.15,18709.78
1340700,831.85,741.14,1.00,1,1,1,6174.78,-0.13,466318.53,3085.19,0.09,50745.84,996.93,-0.37,160255.85,1586.05,-0.08,12154.22,1186.77,-0.12,8303.97
1361800,852.70,762.82,1.00,2,2,2,1425.22,0.80,258181.29,663.52,-2.55,174515.53,1015.04,-0.29,4181.71,1769.96,-0.19,12536.04,1265.78,-0.15,4186.92
1376400,812.17,727.95,1.00,2,2,2,3661.38,-2.43,348084.78,1860.17,-2.58,81995.40,380.52,-0.20,43611.85,1068.77,-0.20,48031.23,835.17,-0.17,29520.72
1391000,806.67,733.98,1.00,3,3,3,558.90,2.31,252546.30,1513.23,0.19,227055.34,703.16,-1.40,45662.42,1615.93,-0.11,38249.25,65.01,0.18,53039.12
1406000,856.20,736.20,1.00,1,1,1,3305.41,0.04,245910.12,1849.36,-0.22,49952.47,1167.14,-0.05,81334.85,769.51,-0.06,56550.34,638.82,2.86,46511.08
1420400,859.75,722.22,1.00,1,1,1,1001.44,-1.32,225947.33,963.78,-0.37,63006.98,2232.53,-0.04,74007.52,878.51,-0.41,21068.83,595.34,2.90,3556.43
1441900,888.51,723.82,1.00,1,1,1,1339.54,0.06,70251.08,2585.01,0.07,81732.31,1096.00,-0.03,52869.56,465.96,-0.04,22098.65,888.65,2.95,13733.58
1456300,952.35,728.43,1.00,1,1,1,4444.75,0.07,215658.11,1281.91,0.19,91738.64,1278.63,-0.09,13797.88,1039.28,3.05,104504.79,884.45,2.98,1760.73
1484700,942.43,733.98,1.00,2,2,2,400.20,2.63,168456.13,466.58,-0.77,38170.15,28.54,2.69,45965.67,2291.71,2.96,44369.70,1194.84,3.00,10962.74
1506200,969.00,712.16,1.00,2,2,2,1599.15,-0.69,92757.78,1129.38,-2.98,67739.35,3342.96,3.08,154255.66,2362.92,2.93,5041.18,1180.88,3.14,7772.15
1535200,886.11,724.97,1.00,3,3,3,2892.19,2.99,149845.63,7661.48,3.03,226888.64,5404.08,2.99,72162.20,2520.03,2.95,5626.19,1038.87,2.92,9770.95
1549000,643.11,748.49,1.00,1,1,1,17691.22,3.05,1072798.87,11677.27,2.95,296310.26,6329.99,2.95,68881.92,2955.22,3.00,33248.71,1056.09,2.96,3704.68
1570100,486.10,802.95,1.00,1,1,1,7875.87,2.81,483686.56,4814.62,2.81,328955.20,6187.85,2.95,7052.32,3080.23,3.02,6534.23,1070.24,2.99,1349.05
1584800,480.12,804.55,1.00,1,1,1,421.64,2.88,507169.78,534.59,-0.16,363407.96,2438.61,2.85,256474.96,3213.66,3.03,9396.21,1210.82,3.00,9586.26
1598600,501.15,800.54,1.00,1,1,1,1551.51,-0.19,142918.05,592.69,-0.67,20858.59,193.62,-1.72,179237.14,2901.00,2.95,28081.89,743.49,2.95,33993.55
1613200,493.36,794.16,1.00,1,1,1,689.34,-2.46,141270.73,545.82,-2.61,64495.99,836.08,-0.89,49394.94,1087.67,2.86,124729.82,2955.22,3.00,151560.21
1634600,484.19,790.61,1.00,1,1,1,459.50,-2.77,13562.71,1047.46,-0.99,56440.68,337.51,-0.32,27149.74,492.89,-0.30,73854.65,3080.23,3.02,6442.63
1648700,513.90,763.17,1.00,1,1,1,2868.59,-0.75,219740.85,1328.97,0.08,87562.71,267.63,-0.42,5409.37,331.15,-0.82,18664.72,3213.66,3.03,9796.05
1663000,521.80,793.76,1.00,1,1,1,2209.58,1.32,305709.15,856.93,1.77,116286.09,979.41,-0.10,51030.41,1206.07,-0.21,66791.61,2901.00,2.95,27100.01
1677300,509.03,787.19,1.00,1,1,1,1004.32,-2.67,207969.47,745.98,-0.37,98404.42,176.58,2.01,75600.41,267.63,-0.42,66170.15,1087.67,2.86,127346.53
1698700,546.63,784.15,1.00,2,2,2,1762.93,-0.08,124722.96,383.34,-1.57,32886.88,1921.52,-0.19,94870.48,979.41,-0.10,34099.76,492.89,-0.30,73854.65
1713100,509.07,773.46,1.00,2,2,2,2711.89,-2.86,306016.70,2916.63,-0.15,200206.44,383.34,-1.57,130992.15,176.58,2.01,75075.41,331.15,-0.82,18275.87
1741400,669.77,765.47,1.00,1,1,1,5685.23,-0.05,293264.18,5685.23,-0.05,98899.40,2916.63,-0.15,101871.83,1921.52,-0.19,71739.51,1206.07,-0.21,33749.82
