@RELATION gaze_labels

%@METADATA width_px 1920
%@METADATA height_px 1080
%@METADATA width_mm 540.00
%@METADATA height_mm 254.00
%@METADATA distance_mm 620.00


@ATTRIBUTE time INTEGER
@ATTRIBUTE x NUMERIC
@ATTRIBUTE y NUMERIC
@ATTRIBUTE confidence NUMERIC
@ATTRIBUTE handlabeller1 INTEGER
@ATTRIBUTE handlabeller2 INTEGER
@ATTRIBUTE handlabeller_final INTEGER
@ATTRIBUTE speed_1 numeric
@ATTRIBUTE direction_1 numeric
@ATTRIBUTE acceleration_1 numeric
@ATTRIBUTE speed_2 numeric
@ATTRIBUTE direction_2 numeric
@ATTRIBUTE acceleration_2 numeric
@ATTRIBUTE speed_4 numeric
@ATTRIBUTE direction_4 numeric
@ATTRIBUTE acceleration_4 numeric
@ATTRIBUTE speed_8 numeric
@ATTRIBUTE direction_8 numeric
@ATTRIBUTE acceleration_8 numeric
@ATTRIBUTE speed_16 numeric
@ATTRIBUTE direction_16 numeric
@ATTRIBUTE acceleration_16 numeric

%The number after speed, direction denotes the step size that was used for the calculation.
%Acceleration was calculated between two adjacent samples of the already low pass filtered velocity

@DATA
0,402.30,778.83,1.00,1,1,1,0.00,0.00,0.00,1202.33,-2.95,0.00,1187.63,2.70,0.00,763.92,2.55,0.00,581.50,2.82,0.00
14300,385.41,775.60,1.00,1,1,1,1202.33,-2.95,84079.30,1187.63,2.70,52091.94,1450.21,2.63,19436.25,531.12,-3.12,31475.01,536.24,2.80,3240.67
42600,356.63,800.61,1.00,1,1,1,1347.14,2.43,39622.63,1450.21,2.63,9821.14,763.92,2.55,24433.80,654.42,2.79,8833.46,121.52,2.04,16127.83
64300,322.29,811.28,1.00,1,1,1,1657.47,2.84,31715.92,346.30,1.89,56054.29,531.12,-3.12,20741.60,215.30,-2.03,30717.38,146.30,-0.14,10941.79
78300,352.76,812.35,1.00,1,1,1,2177.81,0.03,270157.08,1466.96,-1.04,129082.46,654.42,2.79,17856.21,581.50,2.82,42232.02,372.13,-3.00,36742.78
93100,343.57,774.78,1.00,1,1,1,2612.90,-1.81,258699.86,1226.62,3.06,161579.16,215.30,-2.03,45038.32,536.24,2.80,3131.19,235.21,0.72,39418.17
108000,316.45,815.34,1.00,1,1,1,3274.32,2.16,362074.01,1012.99,2.42,48911.75,468.74,-2.89,24652.66,121.52,2.04,30632.05,1964.80,-0.12,121950.12
129100,316.10,798.78,1.00,1,1,1,785.27,-1.59,186900.02,359.13,-0.98,64590.11,626.20,2.43,24787.60,146.30,-0.14,11252.93,2110.69,-0.09,7542.28
142900,323.40,804.91,1.00,1,1,1,691.15,0.70,97493.23,134.77,2.52,35321.41,519.74,-0.02,78239.71,372.13,-3.00,37275.28,756.63,-0.10,98124.02
157400,313.00,800.99,1.00,1,1,1,767.13,-2.78,99138.96,968.21,0.35,72407.78,419.22,0.38,14650.64,235.21,0.72,40233.71,1049.43,-0.04,20553.63
171700,349.55,814.61,1.00,1,1,1,2727.80,0.36,244400.70,816.47,0.27,11839.97,282.75,3.11,48065.89,1964.80,-0.12,127066.90,1187.67,-0.14,12396.40
192900,340.93,808.73,1.00,2,2,2,492.11,-2.54,151311.73,1262.91,-2.94,98027.19,834.70,-0.12,52677.41,2110.69,-0.09,7506.71,1285.23,-0.20,5854.83
207600,305.12,805.57,1.00,2,2,2,2445.27,-3.05,138093.76,1006.22,-0.50,145002.54,3128.03,-0.14,156024.82,1951.68,-0.16,14214.31,1237.33,-0.11,8113.81
221700,366.30,794.74,1.00,3,3,3,4406.52,-0.18,482080.45,6709.97,-0.09,411697.02,3503.33,-0.14,26618.28,2458.44,-0.10,37237.16,1385.23,-0.06,11539.52
251000,595.26,780.63,1.00,1,1,1,7829.23,-0.06,119015.99,4955.66,-0.10,59902.41,3486.60,-0.15,2018.38,2210.41,-0.18,10517.67,1280.54,-0.13,4625.97
272700,617.90,770.73,1.00,1,1,1,1138.34,-0.41,312046.63,833.64,-0.63,196315.35,3559.90,-0.09,10159.07,2206.09,-0.20,2946.06,1538.12,-0.14,11909.64
301700,629.40,755.70,1.00,1,1,1,652.60,-0.92,22395.61,1934.73,-0.09,44619.59,1303.80,-0.27,78837.75,2530.99,-0.08,14875.21,1264.43,-0.15,9442.57
316500,702.30,763.21,1.00,1,1,1,4952.12,0.10,313793.07,2285.39,-0.04,24891.34,939.58,-0.46,28604.53,2369.53,-0.12,12320.22,1359.72,-0.08,9064.95
330600,695.40,753.38,1.00,1,1,1,851.75,-2.18,393453.02,876.68,-2.17,202466.31,1223.00,0.20,53271.39,604.36,-0.14,125198.06,1602.68,-0.11,17512.77
352000,684.63,737.59,1.00,1,1,1,893.14,-2.17,2005.57,605.57,0.96,69263.98,648.14,-0.32,34336.31,951.55,-0.26,16765.75,1791.56,-0.12,8857.71
367400,708.15,771.66,1.00,1,1,1,2688.16,0.97,232551.27,1999.19,0.21,104565.87,314.16,2.29,60573.87,432.28,-0.09,34439.37,2012.51,-0.09,14649.11
381500,742.29,749.96,1.00,1,1,1,2869.42,-0.57,273511.05,933.12,-3.03,207737.36,1027.27,-0.00,89172.54,64.77,1.17,29552.63,1711.25,-0.08,21448.67
395700,681.90,768.74,1.00,1,1,1,4453.86,2.84,511427.74,435.60,-1.35,75389.29,468.41,-2.39,99003.83,891.86,0.10,60725.63,1260.08,-0.11,31905.83
410800,745.03,737.49,1.00,2,2,2,4664.92,-0.46,602007.24,497.16,-1.36,4077.17,645.33,2.62,44829.88,1293.28,0.08,26633.93,1331.31,-0.09,4889.72
432700,685.81,750.77,1.00,2,2,2,2771.31,2.92,337286.74,1428.62,2.44,84406.14,1967.46,-0.03,116616.04,1375.98,-0.11,12092.65,1362.17,-0.04,3401.27
447000,705.62,770.98,1.00,3,3,3,1979.53,0.80,291525.33,4370.51,0.12,380866.26,1540.02,0.13,35351.23,914.88,0.05,34676.96,727.79,-0.07,44399.28
461700,811.71,765.37,1.00,1,1,1,7226.90,-0.05,415062.98,4903.53,-0.15,90412.33,3090.98,0.01,107051.99,1984.80,-0.10,74050.07,870.14,-0.00,10238.88
475500,843.84,750.33,1.00,1,1,1,2570.51,-0.44,357933.24,2110.30,-0.18,202506.67,2411.12,-0.09,53129.22,1755.72,0.00,21355.79,835.21,0.04,3619.12
497500,886.10,752.18,1.00,1,1,1,1922.73,0.04,56461.82,510.67,0.33,76453.05,2011.92,-0.16,19460.75,2352.34,-0.03,27312.57,958.13,-0.09,7726.10
511900,861.42,756.37,1.00,1,1,1,1738.26,2.97,252814.49,1891.73,-0.15,101217.33,1989.72,-0.09,10197.02,1435.97,-0.11,64408.65,551.22,-0.03,28422.01
526700,940.74,744.04,1.00,1,1,1,5423.37,-0.15,483884.93,3904.59,-0.16,136017.60,1539.37,-0.12,30567.04,858.86,-0.12,38998.72,799.64,-0.07,16855.38
541000,973.63,738.46,1.00,1,1,1,2332.87,-0.17,216146.67,1188.34,-0.06,190472.95,471.44,-0.19,74798.46,448.54,-0.07,28772.79,435.46,0.10,26439.52
555800,975.25,741.82,1.00,1,1,1,251.88,1.12,153774.35,2273.66,2.99,233735.20,303.28,2.71,51973.57,563.82,-0.06,7793.57,523.92,-0.03,7451.92
577400,891.77,750.65,1.00,1,1,1,3886.29,3.04,184180.95,1482.36,2.94,36873.19,821.68,3.03,25079.61,265.46,-0.28,14371.19,432.61,-0.10,4496.69
591900,922.77,752.30,1.00,1,1,1,2141.05,0.05,414482.49,408.58,-0.27,130347.92,163.36,2.69,46205.45,181.72,2.83,30835.70,167.99,-0.22,18368.28
620500,908.73,745.92,1.00,1,1,1,539.19,-2.71,92670.96,949.38,-0.12,19209.69,127.77,-0.53,10172.58,651.73,3.02,16604.46,45.87,-0.26,4272.00
635200,963.60,747.53,1.00,1,1,1,3734.19,0.03,288198.85,130.84,-2.94,73087.78,101.60,3.07,15204.06,894.34,3.11,17143.63,379.08,-2.99,28678.97
671700,902.17,744.57,1.00,1,1,1,1684.98,-3.09,148464.74,1002.59,3.03,24080.52,482.65,3.02,10444.23,394.46,3.02,13776.87,102.81,0.07,13195.48
685700,913.26,752.99,1.00,1,1,1,995.10,0.65,183430.30,1125.01,2.95,10678.76,1642.39,-3.13,83286.32,403.19,3.10,2290.73,480.11,3.12,41612.49
700400,870.46,750.63,1.00,1,1,1,2916.59,-3.09,257301.11,2785.34,-3.05,117796.29,1152.03,2.96,38163.23,360.87,3.12,2942.59,428.22,3.02,4759.46
714500,833.37,745.81,1.00,1,1,1,2652.42,-3.01,23795.21,1174.08,2.96,119449.87,842.55,3.10,24253.94,1277.11,-3.08,65094.41,283.29,2.95,10424.26
735600,829.81,758.13,1.00,1,1,1,607.75,1.85,124653.68,766.21,0.34,88925.58,221.74,-2.88,30054.01,137.68,2.25,56995.98,135.45,-2.97,7784.53
750100,859.04,755.02,1.00,1,1,1,2027.14,-0.11,160382.51,996.48,-0.40,46383.66,833.66,-2.97,42281.46,857.78,-3.09,54147.66,211.11,2.92,6938.27
764800,856.67,746.92,1.00,1,1,1,574.27,-1.86,149887.60,2816.03,-2.91,249630.95,941.90,0.00,120347.91,152.42,2.97,48295.83,74.66,1.48,14567.68
778700,780.67,736.48,1.00,1,1,1,5518.93,-3.01,381994.81,1012.09,0.32,275188.18,879.34,-3.00,130733.92,484.30,0.19,45263.63,827.42,3.07,59869.52
800600,891.04,758.39,1.00,1,1,1,5138.02,0.20,486403.98,653.89,0.46,17145.00,139.25,2.24,37322.79,227.93,-0.52,15772.32,950.46,2.95,7502.92
815400,802.16,747.15,1.00,1,1,1,6052.73,-3.02,755669.91,1391.51,-3.03,136361.42,1774.08,0.18,124552.83,89.90,1.17,17236.93,750.35,3.14,17260.20
829500,851.06,753.98,1.00,1,1,1,3501.77,0.14,677610.73,3236.17,0.11,328203.41,677.46,-2.77,173273.67,442.48,0.34,27478.30,571.22,3.01,14072.74
844300,895.09,757.75,1.00,2,2,2,2985.36,0.09,36779.26,350.78,-1.26,215329.06,999.05,0.29,113202.56,385.60,2.58,50358.02,407.63,2.98,11099.16
858900,854.20,744.15,1.00,2,2,2,2951.56,-2.82,403820.88,921.88,2.89,78539.54,939.66,0.20,7253.49,1845.94,3.00,102869.84,447.93,3.11,4856.76
879600,863.54,765.76,1.00,3,3,3,1137.32,1.16,183826.04,1718.77,0.37,122003.65,2461.02,3.11,163363.45,645.52,3.06,58087.36,539.94,3.10,4451.20
894100,910.51,766.27,1.00,1,1,1,3239.18,0.01,204434.52,4407.42,-3.12,417243.49,3009.21,2.90,54273.63,991.12,3.01,23997.27,306.92,2.76,18730.72
908000,738.40,762.93,1.00,1,1,1,12383.92,-3.12,1123957.10,8547.78,3.04,302512.73,2233.96,-3.06,82205.30,1200.10,3.11,16649.69,367.07,2.49,7766.25
922600,668.04,789.89,1.00,1,1,1,5160.63,2.78,537314.81,588.67,-2.69,551468.31,2898.83,3.12,49109.09,984.47,3.02,15961.13,478.43,-3.09,21228.17
944500,719.07,753.55,1.00,1,1,1,2860.34,-0.62,363571.54,1673.15,-0.34,97253.08,186.08,3.07,123881.54,1057.03,-3.11,7803.99,236.40,-3.13,11073.26
958300,724.45,770.22,1.00,1,1,1,1268.81,1.26,250856.91,267.38,1.15,121200.79,560.40,-0.63,52559.83,863.61,3.04,16779.56,240.33,3.00,2660.03
987200,723.70,763.99,1.00,1,1,1,217.07,-1.69,51294.58,377.62,-2.67,21071.03,130.42,2.39,23875.94,354.81,2.41,21210.97,360.24,3.13,4358.75
1009100,707.35,761.52,1.00,1,1,1,755.26,-2.99,33260.07,348.50,-2.87,3518.10,548.62,0.19,28983.21,574.15,-0.43,41963.75,190.79,2.98,7938.80
1023500,711.53,760.57,1.00,1,1,1,297.35,-0.22,72068.88,1634.87,0.26,137733.39,556.83,2.22,65367.43,107.86,-0.43,32380.77,446.43,-3.08,18312.36
1051900,774.90,779.77,1.00,2,2,2,2331.68,0.29,73186.26,904.41,1.96,69115.82,614.17,-0.22,38786.01,368.73,-0.11,9456.36,321.24,-2.95,4737.32
1072700,694.75,801.78,1.00,3,3,3,3996.27,2.87,293130.08,1008.10,-2.19,80502.57,344.44,-0.55,14827.76,473.72,-0.07,5098.59,405.15,-0.06,34657.83
1087200,754.12,750.88,1.00,1,1,1,5393.68,-0.71,632276.52,2348.08,-0.95,154549.45,271.43,-1.12,12827.55,638.81,-0.09,11406.72,492.42,-0.23,8056.58
1101700,734.49,746.48,1.00,1,1,1,1387.81,-2.92,436076.10,1048.36,0.43,163973.54,1812.00,-0.42,111331.38,165.86,-0.11,32620.71,640.85,0.04,14517.51
1117100,782.65,763.86,1.00,1,1,1,3325.14,0.35,305530.65,1986.76,0.22,64066.75,681.28,0.05,80612.11,421.81,-0.60,18604.25,91.96,-0.52,36672.86
1131200,791.74,759.02,1.00,1,1,1,730.20,-0.49,204746.11,542.25,-0.59,117451.84,173.51,1.50,48438.16,1350.16,-0.28,68124.31,473.02,0.02,28151.08
1152900,798.83,753.12,1.00,1,1,1,424.77,-0.69,15012.47,1556.30,-3.12,93345.47,624.10,-0.39,32179.14,424.65,0.13,44879.35,433.72,0.18,3750.70
1167500,735.26,757.87,1.00,1,1,1,4366.22,3.07,323192.39,752.05,-0.21,157206.47,975.59,-0.04,30263.42,1299.58,0.08,59972.14,436.42,-0.14,9428.00
1181500,819.87,748.69,1.00,1,1,1,6079.53,-0.11,746023.31,4198.38,-0.01,247401.51,146.74,0.54,61223.06,274.83,-2.95,112359.24,1277.88,-0.03,60366.02
1196000,854.90,756.35,1.00,1,1,1,2472.78,0.22,263219.64,564.71,2.57,323303.33,2607.06,0.01,171139.29,477.04,0.12,51825.22,1517.43,-0.11,18075.85
1210500,806.06,757.49,1.00,1,1,1,3369.11,3.12,400092.17,1347.81,0.08,126238.09,1106.81,3.03,255686.15,297.17,0.91,23510.20,1531.73,0.04,16043.57
1231900,903.14,760.17,1.00,1,1,1,4537.89,0.03,369368.57,1590.71,-3.13,137227.08,158.52,1.71,50382.76,736.44,-0.15,30147.04,1871.54,0.05,15891.28
1247300,747.53,757.04,1.00,2,2,2,10106.61,-3.12,950935.83,1686.23,3.01,15849.17,441.31,1.02,21725.79,2116.05,0.06,91164.98,1531.99,-0.03,23614.45
1261600,853.48,766.65,1.00,2,2,2,7439.44,0.09,1226256.35,2737.24,0.33,301776.14,1145.32,-2.92,103970.23,1687.58,0.00,30983.84,1414.23,0.01,9251.47
1275700,821.15,781.99,1.00,2,2,2,2537.46,2.70,688679.26,914.63,-2.37,254319.28,4802.30,0.03,420636.73,2357.82,0.03,47695.15,1433.34,0.01,1401.39
1297400,829.90,743.93,1.00,3,3,3,1799.72,-1.34,180501.99,6056.03,-0.05,309548.96,3123.89,-0.04,78287.32,2343.33,0.04,862.84,1521.18,0.01,4062.97
1325900,1124.83,767.79,1.00,1,1,1,10382.41,0.08,360616.77,6320.67,0.05,22743.21,3740.38,-0.03,21642.15,2898.29,-0.01,19941.95,2116.05,0.06,21183.76
1339800,1097.57,757.04,1.00,1,1,1,2108.08,-2.77,893138.20,1422.84,0.02,352408.62,4799.76,0.07,82059.30,2104.00,-0.00,57157.46,1687.58,0.00,31875.46
1376000,1196.10,769.38,1.00,1,1,1,2742.98,0.12,132971.33,3517.16,0.09,58015.73,1302.50,-0.14,97614.83,2297.32,-0.06,6305.31,2357.82,0.03,18577.39
1390000,1273.38,773.33,1.00,1,1,1,5527.34,0.05,199930.93,1211.68,-0.36,177198.88,1307.58,0.06,18420.83,2125.37,0.04,20535.34,2343.33,0.04,1337.40
1418900,1244.84,751.31,1.00,1,1,1,1247.41,-2.48,228062.66,942.59,-2.96,71941.30,469.43,-0.33,30829.20,1302.50,-0.14,30320.45,2898.29,-0.01,19665.93
1439400,1227.56,765.03,1.00,1,1,1,1076.32,2.47,70186.45,428.97,2.72,31092.51,1039.21,-2.98,71723.18,1307.58,0.06,12580.08,2104.00,-0.00,38755.55
1454400,1230.96,757.57,1.00,1,1,1,546.75,-1.14,105518.82,1204.36,-3.00,58131.84,428.97,2.72,48112.91,469.43,-0.33,59397.59,2297.32,-0.06,15216.81
1468400,1192.97,760.20,1.00,2,2,2,2719.67,3.07,215596.19,2719.67,3.07,111515.27,1204.36,-3.00,62284.11,1039.21,-2.98,105023.22,2125.37,0.04,20535.34
