@RELATION gaze_labels

%@METADATA width_px 1920
%@METADATA height_px 1080
%@METADATA width_mm 540.00
%@METADATA height_mm 254.00
%@METADATA distance_mm 620.00


@ATTRIBUTE time INTEGER
@ATTRIBUTE x NUMERIC
@ATTRIBUTE y NUMERIC
@ATTRIBUTE confidence NUMERIC
@ATTRIBUTE handlabeller1 INTEGER
@ATTRIBUTE handlabeller2 INTEGER
@ATTRIBUTE handlabeller_final INTEGER
@ATTRIBUTE speed_1 numeric
@ATTRIBUTE direction_1 numeric
@ATTRIBUTE acceleration_1 numeric
@ATTRIBUTE speed_2 numeric
@ATTRIBUTE direction_2 numeric
@ATTRIBUTE acceleration_2 numeric
@ATTRIBUTE speed_4 numeric
@ATTRIBUTE direction_4 numeric
@ATTRIBUTE acceleration_4 numeric
@ATTRIBUTE speed_8 numeric
@ATTRIBUTE direction_8 numeric
@ATTRIBUTE acceleration_8 numeric
@ATTRIBUTE speed_16 numeric
@ATTRIBUTE direction_16 numeric
@ATTRIBUTE acceleration_16 numeric

%The number after speed, direction denotes the step size that was used for the calculation.
%Acceleration was calculated between two adjacent samples of the already low pass filtered velocity

@DATA
0,283.03,817.00,1.00,0,0,0,0.00,0.00,0.00,1414.63,2.57,0.00,681.77,2.44,0.00,221.84,1.72,0.00,99.74,0.85,0.00
15300,264.79,828.67,1.00,0,0,0,1414.63,2.57,92459.37,681.77,2.44,48641.14,1165.24,0.18,110075.89,398.92,0.30,27878.13,117.76,-0.41,8470.25
30300,267.24,830.33,1.00,0,0,0,197.13,0.60,100220.20,1165.24,0.18,112277.41,221.84,1.72,78666.24,344.35,0.02,7739.50,158.80,-2.13,14037.53
61100,317.32,838.10,1.00,0,0,0,1645.47,0.15,47718.93,294.81,0.26,28303.68,398.92,0.30,13848.55,362.80,-2.30,21079.53,475.95,-2.66,11334.62
76800,280.49,833.85,1.00,0,0,0,2361.58,-3.03,255178.90,761.25,-3.12,66872.23,344.35,0.02,7394.43,99.74,0.85,29460.71,325.86,-0.17,48484.18
91800,293.95,837.67,1.00,0,0,0,933.06,0.28,219063.90,411.57,-0.16,77916.23,362.80,-2.30,43283.30,117.76,-0.41,8639.65,782.88,-0.40,31409.71
121100,298.50,831.01,1.00,0,0,0,274.93,-0.97,30203.10,425.26,-1.42,16881.85,170.40,-0.37,15446.31,158.80,-2.13,7186.45,724.83,-0.46,2546.66
143700,297.26,815.84,1.00,0,0,0,673.56,-1.65,21747.42,150.00,-2.74,18352.38,251.95,-2.21,15015.75,475.95,-2.66,15447.18,1534.43,-0.12,39266.04
158000,293.40,828.87,1.00,0,0,0,950.01,1.86,111658.25,556.16,2.81,31858.24,743.19,-2.68,37210.65,325.86,-0.17,53230.88,602.64,-0.13,65167.66
173100,281.80,821.18,1.00,0,0,0,921.55,-2.56,99669.87,1478.08,-2.68,76849.60,689.90,-2.92,11970.93,782.88,-0.40,31201.69,771.99,-0.19,11493.26
187800,254.05,809.08,1.00,0,0,0,2059.61,-2.73,79122.79,947.76,-2.62,36382.75,542.83,-0.09,82886.00,724.83,-0.46,5076.00,593.70,-0.25,12444.78
202800,257.44,807.08,1.00,0,0,0,262.30,-0.53,148246.11,2447.98,0.23,224421.57,1949.58,-0.23,94265.08,1534.43,-0.12,59160.83,692.73,-0.22,6692.60
217900,325.78,825.92,1.00,0,0,0,4694.93,0.27,299101.20,4573.29,-0.09,157583.76,2105.96,-0.15,14738.60,1216.56,-0.21,22612.68,857.74,-0.15,11578.16
233200,395.89,794.51,1.00,0,0,0,5021.65,-0.42,215795.82,2136.98,-0.58,187263.31,3451.57,-0.06,89435.14,1509.95,-0.17,19505.00,663.39,-0.26,13922.60
249000,381.46,789.63,1.00,0,0,0,964.53,-2.82,364985.06,2539.42,-0.01,85978.92,1713.26,-0.23,113280.43,1287.31,-0.12,14645.94,519.43,-0.38,10083.44
270400,490.35,793.26,1.00,0,0,0,5091.46,0.03,281377.20,1591.84,0.05,44623.43,1188.00,-0.09,26342.72,1730.30,-0.05,21279.85,565.27,-0.14,6474.66
299700,462.08,793.32,1.00,0,0,0,965.00,3.14,206687.67,173.33,-1.47,54307.35,711.41,-0.06,16293.47,1369.10,-0.14,13196.51,806.96,-0.22,8479.43
313700,491.13,785.80,1.00,0,0,0,2143.56,-0.25,220541.68,568.36,-2.77,39174.21,282.26,0.03,30788.64,564.81,-0.08,57585.40,1282.35,-0.09,35362.35
335700,443.02,785.87,1.00,0,0,0,2186.84,3.14,195279.20,630.73,0.36,54502.09,966.71,0.07,31125.87,360.63,-0.24,9888.90,1444.31,-0.05,7672.75
350700,513.01,793.92,1.00,0,0,0,4696.62,0.11,458228.07,2847.90,0.14,149019.34,196.09,2.97,77195.63,136.91,-3.11,32916.35,1394.44,-0.06,3416.17
364700,524.76,797.66,1.00,0,0,0,881.07,0.31,273975.72,1210.82,-2.97,289889.75,158.45,-2.07,14968.89,446.86,-0.26,41383.70,1170.96,-0.10,16425.02
379700,478.39,788.06,1.00,0,0,0,3157.30,-2.94,268978.28,2027.52,-2.89,55071.58,491.21,-3.11,28906.21,1108.77,0.00,45766.67,929.15,-0.04,16685.61
409100,437.47,775.65,1.00,0,0,0,1454.22,-2.85,58300.94,194.15,2.79,63623.24,246.92,-1.28,20563.92,1580.70,-0.00,16053.34,1066.22,-0.02,4734.81
445700,466.36,792.49,1.00,0,0,0,913.72,0.53,64281.09,1825.04,-0.01,54884.12,1889.97,-0.01,50035.51,1112.64,-0.07,13020.74,758.80,-0.01,8399.97
460700,531.64,774.97,1.00,0,0,0,4505.91,-0.26,261130.51,5000.06,-0.03,211713.69,2765.91,0.03,58750.44,1008.54,-0.06,6994.55,918.61,-0.01,10656.21
489700,686.27,786.09,1.00,0,0,0,5345.88,0.07,63285.53,3718.19,0.05,45840.79,2986.68,-0.05,11290.31,1230.99,-0.03,7771.48,763.06,0.03,5509.16
511800,721.38,784.97,1.00,0,0,0,1589.30,-0.03,170532.21,620.85,-0.26,141827.97,2119.17,0.07,41659.78,1771.61,0.03,24741.40,949.36,0.03,8432.54
526900,708.56,780.05,1.00,0,0,0,909.16,-2.77,162428.66,614.87,3.02,81626.71,159.60,-0.35,130784.23,1872.24,-0.01,8094.92,671.26,-0.04,18815.57
541800,703.07,787.21,1.00,0,0,0,606.08,2.22,63020.49,416.87,2.95,13481.69,71.51,-0.19,6019.98,1478.36,0.08,28078.86,975.08,-0.03,20401.47
556800,696.32,782.39,1.00,0,0,0,553.15,-2.52,53793.20,757.57,-0.14,78270.59,401.87,0.44,23115.58,311.86,0.19,77937.19,1734.43,-0.01,50672.59
571800,725.59,784.14,1.00,0,0,0,1954.63,0.06,162719.03,1167.45,0.23,35434.04,610.94,0.10,17818.71,173.60,0.41,9810.13,2302.03,0.03,38122.56
586700,730.34,790.21,1.00,0,0,0,517.49,0.91,111272.21,515.93,0.45,45234.45,496.05,0.36,12303.40,123.44,0.27,3629.07,2245.44,-0.00,6324.18
601700,739.49,790.83,1.00,0,0,0,611.17,0.07,31171.12,134.94,2.27,37676.16,260.37,0.52,16191.60,933.89,0.01,54355.75,2237.09,0.03,5012.17
623200,727.16,793.97,1.00,0,0,0,591.76,2.89,55249.13,113.58,0.72,8132.45,93.58,-2.31,16311.48,2370.92,0.01,66838.53,1511.86,-0.03,34118.86
652700,743.84,794.65,1.00,0,0,0,566.02,0.04,38834.74,216.14,-1.77,10650.70,1177.85,-0.03,42063.75,2889.10,0.03,17666.39,1422.90,0.01,3679.89
667200,725.26,784.65,1.00,0,0,0,1455.36,-2.65,136543.16,3092.94,-0.07,215699.67,4087.97,-0.03,200698.22,2603.68,-0.00,20471.36,1223.38,-0.02,13977.19
681900,833.91,787.97,1.00,0,0,0,7394.47,0.03,593246.43,10183.06,0.00,483169.31,6146.33,0.00,140511.05,2971.15,0.01,25039.88,1324.64,-0.04,7214.37
697000,1028.71,784.95,1.00,0,0,0,12902.70,-0.02,366002.86,8572.21,0.03,107860.10,5837.32,0.01,20787.46,2557.32,-0.05,29551.97,1196.68,-0.00,9037.53
718800,1150.11,796.43,1.00,0,0,0,5593.40,0.09,338006.37,2302.01,0.06,287698.89,5151.55,0.02,31470.52,2529.30,-0.01,5109.04,1213.83,0.01,1055.57
733600,1112.82,789.91,1.00,0,0,0,2557.60,-2.97,550375.77,821.05,-0.11,101274.20,1158.56,-0.13,270896.58,2101.35,-0.03,29036.05,1205.98,-0.01,1809.42
747900,1173.86,793.82,1.00,0,0,0,4277.11,0.06,477286.71,433.95,-1.12,48535.52,67.61,-1.47,80047.59,1649.76,-0.06,31873.19,1216.91,-0.01,808.36
777500,1121.18,772.79,1.00,0,0,0,1916.16,-2.76,207008.97,355.95,-2.98,21475.93,207.70,-2.38,5912.48,372.34,-0.05,43157.86,1213.32,-0.04,1024.27
813600,1150.78,790.05,1.00,0,0,0,949.07,0.53,79176.36,377.24,3.09,2273.34,638.85,-2.79,12605.45,75.68,-2.56,12075.48,1164.66,-0.04,1352.37
843800,1096.21,774.16,1.00,0,0,0,1881.98,-2.86,93119.13,1155.36,-2.68,28078.98,169.51,2.70,17708.70,143.04,-0.15,6814.42,1050.55,-0.03,3820.16
850900,1112.19,770.87,1.00,0,0,0,2298.36,-0.20,571597.37,188.19,0.83,187735.60,132.53,-3.02,12926.88,114.43,-2.74,34908.01,943.91,-0.00,15347.22
896600,1102.95,781.46,1.00,0,0,0,307.65,2.29,55799.67,514.00,0.60,7291.69,549.23,0.26,14896.89,63.76,0.51,3893.84,482.12,0.04,10127.54
911500,1137.90,788.45,1.00,0,0,0,2392.17,0.20,171742.88,1251.27,0.12,55778.48,479.56,0.33,5308.34,132.38,-2.60,13162.65,135.80,-0.11,23387.82
926500,1140.11,785.82,1.00,0,0,0,228.67,-0.87,152736.16,522.74,-0.21,51665.57,474.11,-0.11,13936.85,129.99,3.08,5127.38,92.64,-0.06,2899.14
941900,1153.44,785.11,1.00,0,0,0,866.88,-0.05,47407.44,390.17,-2.45,53454.44,162.83,-2.16,36867.65,267.76,0.35,25354.70,97.52,-2.98,12269.50
956400,1131.13,778.37,1.00,0,0,0,1607.16,-2.85,168296.92,531.25,-2.85,15817.70,874.47,-2.98,53299.07,642.67,0.12,26720.74,221.92,2.85,9747.86
985600,1131.21,778.41,1.00,0,0,0,3.04,0.42,55142.80,1242.31,-3.09,25233.85,30.24,0.70,30842.45,409.11,0.05,8072.04,745.08,-3.09,18556.57
1001000,1075.81,775.34,1.00,0,0,0,3603.22,-3.09,234159.89,692.15,0.33,124516.90,781.55,0.22,49018.16,29.03,0.58,24951.29,325.92,2.96,28244.93
1022400,1155.31,786.67,1.00,0,0,0,3752.34,0.14,343397.77,3320.55,0.14,123557.89,992.21,0.20,9860.69,87.09,2.88,5078.26,538.24,3.09,10254.94
1036400,1192.20,791.78,1.00,0,0,0,2660.53,0.14,77991.65,1387.52,0.12,138106.58,1072.46,0.19,5869.71,550.60,2.95,33124.80,289.40,2.97,18087.86
1051200,1194.98,791.48,1.00,0,0,0,188.55,-0.11,167434.43,1696.61,-3.06,208338.26,218.42,3.02,86651.92,1564.03,-3.14,69555.14,467.46,3.13,12630.79
1065200,1143.48,788.02,1.00,0,0,0,3686.30,-3.07,276580.34,1484.18,-3.08,15333.77,2118.53,3.13,135819.52,537.26,2.93,74706.68,510.20,-3.14,3123.52
1087500,1141.19,788.38,1.00,0,0,0,104.18,2.98,160753.34,2452.67,3.08,44638.48,4067.04,-3.09,87785.94,1502.88,-3.11,44454.94,565.52,3.12,2562.07
1102500,1052.18,793.78,1.00,0,0,0,5944.80,3.08,389407.39,7161.42,-3.09,315447.45,1754.31,3.11,154819.40,1074.91,3.12,28987.19,622.80,3.10,3865.29
1117800,924.45,777.94,1.00,0,0,0,8412.39,-3.02,182263.46,1181.22,-3.11,390878.51,2617.27,-3.10,57370.89,1210.41,-3.14,9141.65,669.55,-3.14,3556.59
1147700,998.81,792.18,1.00,0,0,0,2532.31,0.19,365902.26,449.36,0.07,54526.59,367.83,3.07,75327.03,921.76,-3.12,9664.27,238.60,2.92,14730.05
1162700,944.58,779.30,1.00,0,0,0,3716.20,-2.91,416470.32,345.21,0.23,8114.59,736.73,0.17,73152.60,969.95,3.14,3494.99,586.02,3.10,23585.50
1200000,1016.40,796.26,1.00,0,0,0,1978.48,0.23,152672.41,982.27,0.22,17080.43,230.84,-2.82,25890.00,693.49,-3.07,7576.86,801.23,-3.08,6061.32
1215900,995.62,790.49,1.00,0,0,0,1356.18,-2.87,209688.95,893.48,-2.86,117912.96,308.55,0.33,33923.80,18.89,-0.23,44751.92,886.34,-3.08,5352.50
1245400,977.41,785.08,1.00,0,0,0,644.16,-2.85,24143.47,501.65,-3.08,14155.17,1124.93,-3.02,48422.79,29.53,-0.11,373.13,525.51,-3.13,12282.69
1260700,973.20,789.07,1.00,0,0,0,379.55,2.38,36666.68,1514.73,3.13,66362.76,939.10,-2.95,12966.89,217.84,0.43,12631.05,613.87,3.14,5806.42
1274700,933.03,785.73,1.00,0,0,0,2878.68,-3.06,188647.98,1624.53,-2.89,31143.13,410.47,0.25,96369.75,500.02,-2.87,51123.88,322.58,-2.97,21564.20
1289700,927.61,777.18,1.00,0,0,0,674.76,-2.14,168592.74,1940.38,0.08,236793.06,98.55,0.94,22724.91,514.40,-2.93,2248.41,181.82,0.11,33613.61
1311200,1003.61,791.63,1.00,0,0,0,3598.28,0.19,190216.18,1406.35,0.33,31409.74,257.12,-0.49,12221.51,40.58,0.26,25811.12,194.12,-2.90,17451.92
1326900,977.03,794.35,1.00,0,0,0,1701.96,3.04,334512.30,1887.92,-2.89,209635.25,47.45,-2.63,18181.94,174.92,3.12,13647.25,25.80,2.57,11295.79
1341500,948.16,777.59,1.00,0,0,0,2286.59,-2.62,92566.59,1872.99,-2.80,12433.17,361.04,-2.90,21610.73,150.13,-0.45,21743.82,305.33,-2.91,19725.16
1356500,924.84,775.64,1.00,0,0,0,1559.83,-3.06,73498.05,1165.85,0.25,202382.52,387.73,-2.97,2582.45,370.80,0.13,17303.88,63.49,-2.52,16523.07
1371800,982.37,786.38,1.00,0,0,0,3825.12,0.18,351587.90,616.33,0.53,39054.63,56.39,-0.29,28692.54,447.72,-2.93,53457.69,170.62,-2.99,7678.24
1401200,948.62,789.55,1.00,0,0,0,1152.96,3.05,168160.34,702.56,-2.82,44617.93,706.92,0.15,22329.20,284.00,-2.87,5610.56,174.82,-2.91,503.74
1417000,952.24,776.37,1.00,0,0,0,864.91,-1.30,105566.27,905.09,-0.15,99040.04,511.58,-2.95,77103.48,113.61,-3.08,11043.41,58.06,-0.01,14654.57
1439000,982.47,784.58,1.00,0,0,0,1424.22,0.27,75661.39,305.56,2.98,55029.04,178.70,-2.63,15719.12,353.78,0.07,21244.84,130.21,0.40,3656.06
1454300,940.98,778.14,1.00,0,0,0,2744.55,-2.99,272089.05,1451.42,-3.12,75294.26,302.96,3.13,11285.69,334.35,-2.98,44927.38,188.45,-3.08,20540.57
1469700,937.93,783.60,1.00,0,0,0,405.78,2.08,170817.36,308.61,-2.98,74472.75,74.30,-1.98,18341.96,183.59,-2.70,10778.63,139.14,-2.96,3438.02
1483700,932.03,776.64,1.00,0,0,0,651.27,-2.27,62829.15,970.81,-0.10,90811.66,153.81,-3.09,9850.59,57.66,1.74,14756.97,8.89,1.16,10303.26
1513500,980.25,779.51,1.00,0,0,0,1620.99,0.06,71265.97,69.14,2.88,34867.53,187.59,-2.74,2297.83,103.84,2.62,2698.45,80.00,0.21,2524.36
1534700,928.63,777.56,1.00,0,0,0,2436.87,-3.10,191397.74,1166.03,-3.09,51905.72,218.76,0.44,19162.76,58.37,1.30,4996.38,20.40,0.78,3010.14
1563800,921.66,776.73,1.00,0,0,0,240.89,-3.02,75493.71,541.64,0.35,58116.19,193.72,2.34,11516.83,29.71,2.55,1946.49,66.62,-0.33,2074.20
1577900,950.63,785.50,1.00,0,0,0,2146.78,0.29,169102.99,941.64,0.36,28376.83,193.39,0.61,20925.98,100.42,0.20,8733.21,74.09,2.89,9972.48
1614800,966.62,793.62,1.00,0,0,0,485.86,0.47,45273.06,142.26,2.79,28561.88,192.27,0.68,411.53,190.59,3.10,7831.60,60.34,3.03,455.28
1629600,943.72,788.00,1.00,0,0,0,1593.32,-2.90,139824.93,1156.42,-2.93,70179.32,67.72,-1.82,16891.13,370.75,0.23,37614.12,84.72,0.09,9751.84
1644000,933.62,786.47,1.00,0,0,0,709.39,-2.99,61742.66,326.27,-0.95,91619.22,357.73,-2.50,21375.83,317.40,0.13,4344.13,52.41,0.09,2243.54
1659000,949.27,780.18,1.00,0,0,0,1124.70,-0.38,118189.81,567.13,-0.33,23732.92,649.74,0.07,64645.44,140.73,-2.98,30539.23,188.52,0.43,9347.11
1674000,949.69,780.90,1.00,0,0,0,55.10,1.04,74518.80,1048.89,0.28,44670.89,513.63,-0.10,11262.02,54.10,-1.99,7982.14,88.49,0.22,6922.49
1696500,987.08,791.04,1.00,0,0,0,1721.68,0.26,74786.72,493.83,0.11,25280.57,288.85,3.04,35665.76,178.11,-0.30,8548.81,136.37,0.09,2208.81
1711700,968.20,782.88,1.00,0,0,0,1352.87,-2.73,201761.80,1974.71,-2.99,162374.03,184.25,0.40,30208.42,143.35,-0.06,3378.06,158.50,0.21,1835.95
1725700,930.11,782.15,1.00,0,0,0,2721.73,-3.12,111205.76,138.77,2.46,134610.75,300.44,-2.65,34584.73,297.68,0.52,13934.50,135.73,-2.90,21014.30
1755300,963.51,786.69,1.00,0,0,0,1138.74,0.14,130238.97,847.24,-0.04,32501.63,171.34,2.97,6600.56,388.63,0.08,5936.21,14.32,-0.07,5047.86
1770000,967.61,780.62,1.00,0,0,0,498.39,-0.98,69443.85,246.40,-2.97,74099.28,750.40,0.34,61517.96,144.16,-2.64,35611.98,155.23,0.26,9645.20
1791500,954.72,785.15,1.00,0,0,0,635.34,2.80,50106.26,800.43,0.83,46836.43,654.55,-0.03,12702.36,28.51,2.14,6743.99,39.36,-2.34,8842.95
1806400,987.28,802.12,1.00,0,0,0,2463.95,0.48,196985.11,1732.93,0.00,89114.84,31.06,0.41,42054.93,131.60,-2.82,8575.08,21.92,-1.90,1452.06
1821600,1006.88,785.35,1.00,0,0,0,1697.11,-0.71,158813.20,934.47,-2.28,161133.11,193.95,0.09,10838.01,73.55,0.76,13205.36,30.06,1.59,3368.41
1835600,969.48,781.43,1.00,0,0,0,2686.43,-3.04,289020.09,1422.13,3.12,78390.25,1211.68,-2.81,100057.53,188.49,0.82,8224.84,0.85,0.12,2142.07
1850300,966.08,786.21,1.00,0,0,0,398.57,2.19,171032.97,1577.83,-3.05,15824.94,573.98,2.93,53201.77,212.63,-2.91,26114.34,24.90,0.92,1654.25
1872300,911.83,775.97,1.00,0,0,0,2509.29,-2.96,107723.47,231.90,1.02,78542.92,344.18,0.85,36292.90,350.34,-2.53,7805.76,143.22,0.05,5837.88
1886500,970.50,793.34,1.00,0,0,0,4308.94,0.29,479583.17,2481.98,0.31,162758.74,505.74,-2.95,56723.19,412.17,3.07,18384.37,78.25,0.34,5060.80
1903100,984.74,798.95,1.00,0,0,0,921.99,0.38,204303.12,1047.05,-2.82,212585.73,482.70,-0.05,59113.79,125.16,0.49,31449.80,51.48,3.12,7687.91
1931600,925.71,778.36,1.00,0,0,0,2193.37,-2.81,109292.76,1054.58,-2.56,9546.95,285.61,-2.96,26793.44,44.27,0.37,2856.60,63.84,0.44,3939.47
1945700,947.22,774.24,1.00,0,0,0,1552.70,-0.19,256852.42,891.75,0.44,137682.09,87.71,-1.25,21991.63,399.11,0.14,25264.07,122.22,-2.46,13107.20
1961100,949.54,789.52,1.00,0,0,0,1003.56,1.42,122145.20,836.56,0.40,4258.11,594.40,0.22,38452.44,90.99,0.07,20027.32,74.45,3.13,5238.87
1997700,987.33,791.07,1.00,0,0,0,1033.53,0.04,35418.11,450.52,-0.03,12723.22,341.13,0.37,7169.80,236.70,-2.63,8775.29,74.35,-0.06,4064.56
2012700,972.77,788.82,1.00,0,0,0,982.15,-2.99,134166.66,515.62,-2.70,62616.76,434.18,0.13,8679.71,323.90,0.31,37185.32,59.78,-1.34,5412.92
2027800,973.31,784.41,1.00,0,0,0,294.41,-1.45,67320.14,435.34,0.43,62975.60,597.59,-2.86,68143.03,94.77,0.42,15230.14,194.00,0.11,13004.49
2042800,984.69,794.27,1.00,0,0,0,1003.61,0.71,79544.21,691.07,-2.98,74472.54,64.93,1.90,39893.06,245.58,-0.11,11373.83,109.04,-2.78,20060.23
2057900,952.79,781.00,1.00,0,0,0,2287.70,-2.75,215608.85,363.41,-3.04,21804.73,212.69,-2.82,14708.66,84.43,-1.17,14413.00,71.13,-0.44,11028.37
2079600,971.38,792.94,1.00,0,0,0,1017.94,0.57,151828.23,203.68,-0.14,25960.45,131.94,-1.47,10319.99,141.39,-1.69,3680.20,226.44,-0.02,7554.25
2093700,960.01,779.98,1.00,0,0,0,1222.20,-2.29,157337.10,550.63,-0.48,25857.66,489.15,-0.02,34849.62,26.31,-2.67,9120.47,73.27,0.48,11788.20
2108500,985.52,785.64,1.00,0,0,0,1765.57,0.22,192213.42,721.78,0.01,23378.77,309.50,-1.62,39515.41,320.62,-2.87,19923.66,55.58,-2.34,8596.80
2137900,991.92,780.16,1.00,0,0,0,286.44,-0.71,54765.33,453.34,-2.29,36631.78,128.15,0.27,12562.08,357.40,0.17,23031.87,94.14,-2.45,1342.82
2159600,970.28,768.20,1.00,0,0,0,1139.27,-2.64,58436.35,620.83,3.03,23983.46,574.87,-3.05,32320.45,180.87,-0.70,12809.32,206.59,-2.66,5349.61
2173600,969.90,782.67,1.00,0,0,0,1033.79,1.60,132692.33,1155.79,2.73,42305.72,237.05,0.67,55953.40,51.01,0.60,12468.35,82.18,-2.91,9170.02
2188500,939.71,781.66,1.00,0,0,0,2027.13,-3.11,153146.94,1168.04,0.21,148478.72,378.49,0.40,10916.19,327.87,-2.98,25145.52,294.24,-2.79,14280.50
2203500,1004.07,789.85,1.00,0,0,0,4325.59,0.13,423114.83,1751.88,-0.09,48354.68,71.44,2.82,28958.68,189.38,-2.93,9269.65,48.59,-3.13,16596.39
2217600,990.46,776.84,1.00,0,0,0,1335.82,-2.38,387090.68,1305.67,-2.99,215241.67,62.90,-1.94,6603.73,382.62,-3.03,13850.67,214.16,-2.88,11882.60
2233100,965.87,784.02,1.00,0,0,0,1652.92,2.86,98030.70,1404.82,3.12,16099.75,596.82,-2.75,35836.48,138.45,-2.95,15799.61,119.60,-2.90,6105.23
2254800,938.21,777.77,1.00,0,0,0,1306.78,-2.92,37507.93,255.15,-1.39,68021.97,1041.62,-2.94,21595.60,269.90,-2.71,6436.87,276.11,-3.06,7326.51
2269700,967.53,774.83,1.00,0,0,0,1977.72,-0.10,217702.61,733.08,-2.37,42054.92,191.86,-2.82,57134.28,415.94,-3.01,11903.77,191.53,3.03,6464.08
2283600,923.12,763.00,1.00,0,0,0,3306.48,-2.88,374403.36,354.68,2.92,44367.18,457.69,-2.78,19144.47,502.19,-3.14,7523.25,398.39,2.90,15099.07
2320600,949.92,778.79,1.00,0,0,0,840.61,0.53,111415.17,377.11,3.04,1318.15,320.43,2.94,6805.63,265.23,-2.84,7020.27,609.05,2.82,5795.20
2334700,903.95,764.98,1.00,0,0,0,3404.09,-2.85,299663.84,280.47,2.97,7035.63,200.70,2.37,13261.17,231.22,3.12,6043.97,367.35,2.17,27391.49
2364000,937.92,780.87,1.00,0,0,0,1280.07,0.44,159532.57,286.73,1.12,15454.38,353.13,-2.86,10565.30,207.91,2.78,2668.64,645.70,2.79,13926.97
2378900,909.46,776.39,1.00,0,0,0,1933.86,-2.99,213655.43,533.09,-2.51,53535.61,170.60,1.78,27063.26,440.53,2.66,15790.59,491.98,2.35,19589.98
2393700,925.15,771.51,1.00,0,0,0,1110.35,-0.30,200728.83,236.38,2.90,28532.23,90.35,1.86,5456.12,1128.22,2.75,46651.36,505.29,2.70,11794.70
2415600,901.03,778.47,1.00,0,0,0,1146.04,2.86,103025.69,508.28,0.94,29083.02,800.27,2.77,34179.35,761.85,1.79,42547.91,526.05,2.69,952.87
2430600,936.23,786.64,1.00,0,0,0,2408.94,0.23,230340.29,1493.01,2.74,112361.59,2088.56,2.63,86676.39,1015.22,2.55,46771.03,463.24,2.15,18087.59
2445600,859.73,795.79,1.00,0,0,0,5136.34,3.02,496448.03,4868.81,2.77,225087.30,1585.12,1.79,104662.14,764.51,1.79,46652.69,417.01,1.84,9496.86
2459600,804.87,838.42,1.00,0,0,0,4962.42,2.48,193302.54,2687.88,1.29,381423.25,1997.48,2.58,102295.50,870.90,2.47,39294.73,493.84,1.93,6205.28
2473700,880.82,868.32,1.00,0,0,0,5789.12,0.38,663204.47,789.17,0.62,150684.04,1179.32,1.29,143216.56,900.55,2.57,6674.61,548.94,2.07,6455.43
2494800,827.47,854.58,1.00,0,0,0,2611.33,-2.89,397481.01,331.61,1.32,27247.45,310.36,0.51,46629.88,803.45,1.98,23767.93,503.52,2.28,5543.66
2523700,885.02,884.36,1.00,0,0,0,2242.22,0.48,166882.73,97.28,-1.83,14840.59,1089.56,-2.88,48177.48,656.37,1.26,18442.39,517.30,2.47,3370.00
2538900,826.35,850.44,1.00,0,0,0,4458.56,-2.62,440733.61,3206.72,-2.73,207040.98,913.04,0.55,130342.74,816.83,0.65,30925.16,576.72,2.48,3958.16
2553800,796.46,845.95,1.00,0,0,0,2028.07,-2.99,179665.64,2113.25,0.59,355628.71,59.90,0.42,57293.88,426.10,2.56,69858.78,502.00,2.36,6820.49
2575100,889.86,893.08,1.00,0,0,0,4911.34,0.47,322388.32,2783.57,0.41,37634.56,1423.36,0.68,64110.57,254.44,1.14,21753.81,643.73,2.84,14425.66
2589900,888.63,885.99,1.00,0,0,0,486.21,-1.74,352424.28,656.92,1.04,154508.76,972.02,1.06,42469.50,615.30,-3.06,52267.10,382.04,2.79,17762.92
2605600,899.97,910.38,1.00,0,0,0,1713.07,1.14,139245.28,2028.51,2.87,145680.99,606.12,-3.09,88850.46,314.57,2.53,27124.39,234.76,3.10,11023.89
2620700,828.40,902.60,1.00,0,0,0,4767.59,-3.03,386787.46,1314.13,-2.80,80307.12,1074.34,-3.04,31094.60,241.88,1.63,16563.95,460.66,-2.87,16429.82
2650700,844.10,890.59,1.00,0,0,0,659.05,-0.65,175479.82,771.20,-2.59,19448.90,1243.65,-2.88,8352.08,900.59,-2.84,32885.18,184.45,-2.88,9206.88
2686800,785.03,875.82,1.00,0,0,0,1686.89,-2.90,59834.28,1189.08,-2.96,15245.87,400.39,-2.67,23717.84,872.28,-2.81,1052.08,515.12,-2.74,9235.50
2701600,784.52,879.94,1.00,0,0,0,280.32,1.69,117829.02,440.43,0.80,105899.51,1149.15,-2.74,50691.78,1066.29,-2.76,13605.84,214.15,-2.48,21140.32
2716600,794.14,885.26,1.00,0,0,0,732.75,0.51,45278.09,1173.13,-2.50,107308.55,721.74,-2.36,36502.11,661.97,-2.47,31478.50,159.32,-2.25,4631.02
2748000,741.07,847.15,1.00,0,0,0,2080.71,-2.52,89482.68,1474.55,-2.36,11152.00,876.21,-2.53,6436.75,549.40,-2.53,3804.96,442.82,-2.49,9254.47
2762600,746.02,837.46,1.00,0,0,0,744.97,-1.10,143961.36,408.66,-2.68,74984.95,981.01,-2.37,12431.37,486.83,-2.27,10130.51,419.82,-2.53,1903.60
2777100,730.41,841.88,1.00,0,0,0,1118.59,2.87,118245.56,357.81,-2.42,7832.01,465.35,-0.26,88557.80,495.81,-1.71,18858.11,387.19,-2.36,5151.03
2799000,736.27,828.82,1.00,0,0,0,653.58,-1.15,73880.66,1101.31,-0.06,62891.56,231.13,-1.94,24715.91,581.14,-1.92,6497.76,259.07,-1.73,10690.92
2813700,770.64,839.37,1.00,0,0,0,2445.85,0.30,166831.70,241.62,-0.90,65064.38,828.28,-0.61,54653.88,414.18,-0.71,39672.20,290.72,-2.11,7341.58
2828000,740.63,823.34,1.00,0,0,0,2379.46,-2.65,335866.69,1001.18,-1.42,56039.40,616.64,-0.60,14808.03,347.75,-0.58,5864.25,234.78,-1.86,5993.12
2842700,774.87,810.65,1.00,0,0,0,2484.18,-0.35,301740.06,998.07,-0.53,58631.82,457.44,-1.17,22933.33,576.12,-0.21,18992.50,1033.21,-2.98,64914.10
2857500,765.99,808.37,1.00,0,0,0,619.69,-2.89,203675.94,205.92,0.13,57099.33,683.87,-0.24,37184.74,573.05,-0.09,4815.81,1146.74,-2.94,8146.37
2879600,782.41,811.62,1.00,0,0,0,757.41,0.20,62288.25,518.89,0.23,14242.40,497.78,0.34,17301.66,258.45,-0.75,18165.73,1044.39,-3.06,7414.47
2893700,784.28,812.66,1.00,0,0,0,151.72,0.51,43616.04,750.78,0.39,17895.01,638.97,0.26,10468.71,190.90,-0.45,6759.57,1230.67,-3.06,13213.10
2923000,812.55,824.01,1.00,0,0,0,1039.63,0.38,30354.56,739.28,0.28,2717.23,199.81,0.14,15063.33,1952.22,3.06,72744.03,1040.93,-3.05,6494.46
2937200,815.14,821.68,1.00,0,0,0,245.53,-0.73,67357.15,497.68,-2.53,85991.72,233.54,-3.07,30499.25,2023.16,3.10,7075.21,1057.97,-3.07,2247.96
2958600,798.04,813.84,1.00,0,0,0,879.39,-2.71,46870.58,1391.93,-2.94,44624.06,4950.67,3.11,220481.23,2336.82,3.10,14659.15,1021.97,-3.05,1868.64
2973500,765.69,811.35,1.00,0,0,0,2177.72,-3.06,93042.08,10543.63,3.08,618019.77,5231.50,-3.14,21422.67,2589.78,-3.13,18808.99,1046.90,-3.06,1750.46
2987600,492.85,832.58,1.00,0,0,0,19408.73,3.06,1224129.31,10046.27,3.11,41367.23,5740.73,3.11,38463.76,2627.60,-3.11,4553.08,1128.50,-3.10,6554.47
3002700,472.48,820.65,1.00,0,0,0,1563.01,-2.61,1201810.84,1115.62,-2.89,594729.10,5430.62,-3.14,24776.49,2591.05,-3.10,2749.54,1046.16,-3.14,6010.75
3017400,460.65,824.32,1.00,0,0,0,842.91,2.84,79778.64,1819.11,-2.97,48444.83,835.16,-2.85,315381.56,2145.86,-3.14,30759.47,1115.13,-3.12,4821.65
3039700,406.19,809.03,1.00,0,0,0,2536.50,-2.87,84528.22,676.54,-2.81,51870.71,480.40,-2.80,15962.87,2141.22,-3.10,3457.11,1127.51,-3.09,1868.18
3069700,427.24,812.64,1.00,0,0,0,712.18,0.17,108189.42,674.15,-0.05,44197.15,129.86,-1.20,16724.64,456.39,-2.64,58152.69,1321.64,-3.08,6482.94
3083700,435.81,807.63,1.00,0,0,0,709.30,-0.53,34774.26,863.01,0.00,13744.67,190.38,-0.67,7246.41,193.78,-2.69,18784.88,1263.13,-3.07,4195.98
3113700,465.22,812.68,1.00,0,0,0,994.40,0.17,21410.67,358.36,-2.57,39363.31,195.57,-1.55,5465.91,143.51,-2.16,3329.88,1116.59,-3.08,4906.32
3134900,420.36,797.74,1.00,0,0,0,2230.14,-2.82,151729.46,1104.16,-2.74,35539.02,103.37,-0.09,9941.96,271.24,-0.37,15756.54,985.92,-3.10,6199.11
3150700,427.57,796.81,1.00,0,0,0,460.27,-0.13,167855.50,845.07,0.37,123352.08,290.35,-2.73,24314.28,95.46,-1.75,17068.55,248.35,-2.51,50034.09
3165100,444.19,806.86,1.00,0,0,0,1349.18,0.54,71526.51,740.96,0.39,7331.65,423.81,-0.15,47709.93,97.59,-0.93,5307.37,183.88,-2.58,4591.33
3179900,447.60,804.99,1.00,0,0,0,262.83,-0.50,83711.47,439.47,-1.48,65189.01,51.45,2.52,31771.91,156.25,-0.98,3985.94,155.33,-2.34,3351.95
3194700,445.41,793.91,1.00,0,0,0,762.75,-1.77,49153.86,636.79,-2.88,47931.66,162.98,-1.55,13389.70,328.31,0.01,18633.81,81.74,-1.03,10537.12
3217000,424.80,798.80,1.00,0,0,0,949.86,2.91,55620.64,64.54,2.01,28209.95,458.96,-0.32,19418.94,67.29,-1.12,13711.07,234.82,-0.58,7395.00
3231400,444.41,796.06,1.00,0,0,0,1375.14,-0.14,161285.38,1747.48,-0.07,123568.20,267.38,0.20,18167.13,175.29,-2.45,11947.77,310.19,-0.17,9358.23
3246800,476.76,795.38,1.00,0,0,0,2101.17,-0.02,48899.21,498.48,0.09,81678.84,168.55,-0.99,16704.23,173.92,-2.51,693.26,265.81,-0.29,3662.68
3276800,466.94,798.19,1.00,0,0,0,340.44,2.86,81064.65,1016.18,-2.98,50466.89,265.31,-2.89,11895.40,182.47,-2.91,2388.99,324.37,0.05,3810.33
3291700,431.70,788.26,1.00,0,0,0,2457.61,-2.87,145989.58,1420.47,-2.97,27152.92,657.83,-3.04,26694.07,448.48,-0.38,40753.06,406.28,0.08,5557.88
3306700,425.08,791.03,1.00,0,0,0,478.14,2.75,140272.29,151.63,2.65,86952.62,736.09,-2.93,7414.81,542.06,-0.05,12517.11,391.44,0.02,1931.84
3321800,427.68,790.42,1.00,0,0,0,176.61,-0.23,43241.87,188.46,-2.65,10876.29,800.89,-0.24,99122.97,400.24,-0.07,9421.13,310.26,-0.10,6031.09
3343500,418.97,787.75,1.00,0,0,0,419.79,-2.84,26695.44,1570.19,-0.26,78898.89,1292.80,0.01,25601.91,321.30,0.08,4440.69,387.63,0.08,4564.12
3358900,483.91,775.23,1.00,0,0,0,4294.81,-0.19,303222.26,2537.34,0.04,73999.48,1387.07,0.00,6138.03,744.17,0.16,27557.78,353.34,-0.03,3435.69
3386700,528.50,792.04,1.00,0,0,0,1714.05,0.36,106951.53,1327.21,0.28,46317.36,1068.49,0.15,13038.41,824.60,0.13,3006.98,310.29,0.06,1867.75
3401800,538.64,790.93,1.00,0,0,0,675.69,-0.11,76338.51,284.41,2.34,98164.51,782.11,0.45,26262.41,661.74,0.04,11613.12,255.61,-0.04,4087.46
3437600,518.43,802.45,1.00,0,0,0,649.64,2.62,36248.95,383.46,0.97,12023.26,454.79,0.41,9163.53,872.61,0.11,6060.11,334.53,-0.15,2368.91
3452100,549.62,806.79,1.00,0,0,0,2171.22,0.14,187236.68,1141.82,0.14,63929.73,94.53,0.45,24851.12,323.19,0.37,39081.78,388.51,-0.07,4255.07
3481400,567.98,809.25,1.00,0,0,0,632.40,0.13,52519.85,237.08,-1.77,42340.04,646.15,0.03,19154.43,105.29,0.61,7590.53,301.58,0.05,3253.45
3502600,547.23,795.06,1.00,0,0,0,1185.68,-2.54,83650.88,161.43,-1.17,6556.99,214.37,-2.43,38849.57,116.69,0.05,2941.64,373.80,-0.05,3719.87
3517900,570.30,803.83,1.00,0,0,0,1613.21,0.36,181687.53,353.87,3.10,29251.68,402.16,-2.86,14700.00,367.79,-0.37,17368.57,375.66,0.06,2655.23
3533100,536.44,795.48,1.00,0,0,0,2294.20,-2.90,256607.54,939.09,-3.07,38738.93,177.67,-0.31,36744.02,182.15,-1.55,22450.98,257.91,0.20,8275.77
3547700,542.39,801.75,1.00,0,0,0,592.03,0.81,192527.97,724.44,-0.17,113095.05,320.96,-1.66,22736.21,333.56,-2.86,23036.86,45.00,-0.18,14849.02
3562400,557.36,791.86,1.00,0,0,0,1220.29,-0.58,85718.38,897.65,-0.63,27496.98,318.39,-0.83,17530.79,73.79,-1.58,21764.52,56.12,0.39,2046.55
3583500,568.39,782.86,1.00,0,0,0,674.76,-0.68,26209.91,385.13,-2.12,44959.00,275.99,-2.86,23904.54,251.10,-2.88,11484.90,144.73,-0.13,4732.53
3597600,550.28,780.30,1.00,0,0,0,1297.74,-3.00,129389.87,1125.27,2.88,76746.58,156.79,-2.54,9656.31,195.65,-0.12,31117.93,82.39,-2.74,15589.99
3626700,521.48,795.59,1.00,0,0,0,1120.47,2.65,26335.71,124.54,2.18,35487.77,463.88,2.78,13622.03,83.28,-1.60,7037.70,59.43,-1.00,3758.59
3641700,547.13,784.80,1.00,0,0,0,1855.02,-0.40,198178.54,496.79,-0.04,38728.82,228.19,0.68,40806.09,42.55,2.04,8164.46,20.81,-2.44,4024.14
3657000,536.52,794.96,1.00,0,0,0,960.11,2.38,181241.54,510.05,0.38,13924.88,320.49,-0.28,17388.41,100.48,2.03,3786.07,99.73,-0.23,7419.38
3679000,564.77,791.92,1.00,0,0,0,1291.43,-0.11,96995.72,210.93,-0.77,21158.86,220.15,1.04,15492.37,186.07,2.52,4921.70,151.16,-0.06,2521.64
3693700,542.10,789.60,1.00,0,0,0,1550.24,-3.04,192260.71,396.31,2.65,40961.66,309.91,0.07,17579.68,342.42,-0.03,34543.57,35.63,-1.74,10822.53
3708200,554.57,797.40,1.00,0,0,0,1015.09,0.56,172525.79,468.56,0.35,54412.53,517.23,3.00,56751.09,47.33,2.22,25809.49,62.64,2.99,4937.76
3737900,561.52,796.77,1.00,0,0,0,234.97,-0.09,28286.11,618.36,-3.13,36061.80,368.25,0.11,29585.40,384.64,0.03,13937.80,169.43,-3.11,3653.72
3753200,526.75,797.18,1.00,0,0,0,2273.04,3.13,163878.59,310.42,-0.19,60451.45,139.87,-2.66,32761.11,111.14,0.06,17878.61,52.26,1.59,11636.33
3791500,577.88,793.70,1.00,0,0,0,1338.01,-0.07,94248.65,314.08,-0.38,1556.13,457.15,0.01,15274.30,10.52,2.63,3136.20,37.01,-1.33,2317.16
3806700,542.38,791.00,1.00,0,0,0,2342.36,-3.07,241550.93,735.48,0.15,32268.32,666.80,-0.08,14125.76,98.72,-3.00,5964.07,64.24,1.04,6207.22
3821700,599.83,797.06,1.00,0,0,0,3851.72,0.11,412897.60,1331.16,0.05,40296.35,490.99,-3.06,76939.09,306.67,-2.81,14025.16,138.31,2.56,9961.89
3836700,582.26,792.92,1.00,0,0,0,1203.27,-2.91,336513.59,1292.04,-3.03,174796.43,81.72,2.47,29026.86,139.03,-0.00,29364.32,384.46,2.94,17396.88
3867900,540.50,790.50,1.00,0,0,0,1340.78,-3.08,8309.53,969.60,3.10,11716.47,1137.54,-2.95,34813.05,382.64,-2.97,16672.86,702.69,2.93,10201.59
3882900,537.51,794.89,1.00,0,0,0,354.09,2.17,79857.53,915.52,-2.78,25573.43,392.61,3.01,51625.32,128.58,0.63,33394.57,617.55,2.98,6099.19
3897400,515.25,780.93,1.00,0,0,0,1812.28,-2.58,126428.48,341.51,0.18,86405.89,263.29,-2.79,13789.15,710.78,2.93,55302.30,493.05,2.90,9045.27
3919800,549.91,797.14,1.00,0,0,0,1708.31,0.44,156874.10,265.41,0.38,4373.80,315.03,0.34,25817.64,934.67,2.97,10108.62,493.71,2.80,2325.72
3933800,524.20,784.56,1.00,0,0,0,2044.50,-2.69,268047.19,295.25,0.58,4383.79,602.06,1.93,48971.11,1612.64,2.93,48574.65,831.22,2.89,24492.69
3948900,557.11,801.82,1.00,0,0,0,2461.33,0.48,298370.03,1363.75,2.17,92857.13,1711.94,2.96,98741.37,1309.55,2.95,20144.58,810.08,2.94,3118.67
3963800,501.09,818.32,1.00,0,0,0,3919.52,2.86,398636.52,3656.85,3.01,196761.18,2989.20,2.88,86499.99,768.95,2.67,40854.95,817.22,2.96,968.19
3977800,452.29,815.30,1.00,0,0,0,3492.24,-3.08,96513.28,4644.81,3.04,70946.62,2887.26,3.00,26143.75,1244.66,2.84,36111.21,687.10,0.02,106885.66
4000500,331.53,835.86,1.00,0,0,0,5396.43,2.97,94707.50,2293.08,2.99,103879.33,1085.41,2.98,79400.38,1331.21,2.77,5519.13,260.44,1.57,32108.71
4015200,367.58,828.63,1.00,0,0,0,2500.71,-0.20,537169.70,1891.38,-0.04,284162.01,928.66,2.69,22424.30,1675.15,3.00,32716.79,363.61,1.93,10309.29
4044500,414.70,832.74,1.00,0,0,0,1614.32,0.09,35984.68,603.89,0.85,53933.52,343.69,0.70,37984.30,919.93,2.98,25787.85,382.07,1.83,1480.80
4058600,384.90,848.29,1.00,0,0,0,2383.64,2.66,272608.49,2294.93,2.85,184735.00,689.22,2.98,67345.66,2224.45,-0.06,222729.87,359.86,1.57,6874.24
4073600,350.76,852.03,1.00,0,0,0,2289.66,3.03,57940.73,1929.84,-3.00,65593.88,721.20,2.98,2132.47,264.61,1.33,146156.17,331.83,1.24,7796.23
4096700,312.14,837.70,1.00,4,4,4,1783.25,-2.79,45847.29,518.66,-0.62,100980.29,5948.98,-0.13,288736.21,353.57,1.81,7312.10,252.62,0.95,5014.15
4111700,366.87,840.59,1.00,4,4,4,3653.69,0.05,358813.06,16220.63,-0.09,1051711.82,264.39,1.35,395390.77,377.23,1.76,1977.66,294.92,1.08,3712.84
4125700,780.79,797.18,1.00,4,4,4,29727.93,-0.10,1866114.44,269.81,1.37,1156610.96,355.99,1.77,11123.23,362.77,1.44,8565.39,255.12,1.05,2888.52
7420400,543.15,1715.72,1.00,4,4,4,287.97,1.82,9053.92,421.23,2.10,85.77,380.07,1.72,8.64,347.53,1.08,38.21,218.99,1.01,11.35
7434400,82.76,2003.52,1.00,4,4,4,38781.37,2.58,2755209.90,18243.22,2.34,1273946.61,388.13,1.75,898.98,303.99,0.73,8651.00,212.98,0.96,871.89
7449400,173.61,2094.33,1.00,4,4,4,8563.68,0.79,2770310.24,12900.34,0.15,1853882.74,6194.60,0.47,406341.90,322.78,0.96,4938.71,183.32,0.88,2296.64
7471100,550.76,2075.10,1.00,0,0,0,17402.65,-0.05,612023.96,20619.87,-0.26,469938.11,16491.05,-0.44,626755.04,239.32,1.42,6988.39,186.01,0.87,144.80
7486200,906.98,1899.49,1.00,0,0,0,26301.78,-0.46,821833.62,25094.41,-0.80,855219.06,13558.78,-0.41,197681.62,2015.60,-0.82,143900.86,158.73,0.80,1944.04
7501400,1081.20,1530.33,1.00,0,0,0,26855.74,-1.13,1153301.64,6193.47,-1.06,1261987.87,7860.62,-0.93,513274.02,6106.13,-0.65,271878.73,163.98,0.66,1539.36
7515300,994.77,1742.09,1.00,0,0,0,16454.55,1.96,3114800.06,4403.87,2.74,722541.17,5324.66,-1.96,492657.13,6127.97,-0.85,88195.92,151.13,0.72,1130.87
7545600,902.12,1606.60,1.00,0,0,0,5417.16,-2.17,658672.12,6696.27,-2.37,212568.63,3582.78,-2.87,139907.33,4873.63,-1.22,77395.31,116.57,1.67,4149.78
7567400,744.84,1498.68,1.00,0,0,0,8749.71,-2.54,191932.74,4977.80,-2.15,97358.65,4452.20,-1.95,168221.96,4195.98,-1.82,126564.43,1901.28,-1.06,92121.42
7582600,800.81,1452.79,1.00,0,0,0,4761.42,-0.69,728049.39,4032.03,-1.07,309638.47,3215.81,-1.90,82051.83,2889.94,-2.32,141670.95,2846.46,-1.19,65317.48
7613600,833.91,1335.07,1.00,0,0,0,3944.61,-1.30,87983.73,2161.40,-1.43,69167.89,3138.36,-1.57,33797.96,3725.44,-1.96,46399.81,2704.80,-1.49,27442.30
7628600,814.84,1354.36,1.00,0,0,0,1808.15,2.35,373035.44,3915.66,-2.44,221797.60,3389.85,-1.68,28476.48,2841.37,-1.96,58938.19,2811.36,-1.85,67074.32
7643500,744.19,1259.85,1.00,0,0,0,7919.26,-2.21,562485.88,5438.99,-1.83,213025.39,2540.35,-1.99,83296.11,1901.62,-1.31,117423.68,3018.82,-2.38,102585.22
7658600,772.88,1196.68,1.00,0,0,0,4594.66,-1.14,462479.34,2316.42,-1.17,257430.51,2392.96,-2.04,13313.82,3244.57,-2.66,223345.18,3016.33,-2.78,79017.15
7673800,771.80,1195.32,1.00,0,0,0,113.92,-2.24,298929.42,932.59,2.70,202457.33,1114.25,-0.33,182718.81,4261.77,-3.04,114871.49,3107.02,-2.46,63743.72
7695700,741.60,1211.47,1.00,0,0,0,1563.88,2.65,70669.97,1594.94,0.75,97081.22,5766.40,3.04,313079.93,3483.67,-2.94,39609.03,2522.68,-2.59,31022.45
7710700,814.95,1235.35,1.00,0,0,0,5142.53,0.31,421802.77,11980.75,3.07,874669.57,6728.52,2.99,66400.34,3411.29,3.13,48584.32,1987.33,-2.57,35740.06
7724900,392.69,1236.90,1.00,0,0,0,29736.89,3.14,2440727.23,13401.58,3.07,100189.94,5362.69,3.05,99015.33,3732.27,3.13,22625.85,2010.24,-2.71,18936.53
7753700,239.97,1273.93,1.00,0,0,0,5456.28,2.90,849390.67,1623.55,2.97,409287.56,7137.42,3.09,62251.00,3515.83,-3.04,15987.34,2076.02,-2.91,14400.49
7776500,310.10,1250.92,1.00,0,0,0,3236.84,-0.32,380998.20,258.36,-1.60,73630.66,2146.02,-2.95,222780.07,3180.57,-3.12,18494.23,1645.12,-2.73,23562.37
7791400,239.68,1264.20,1.00,0,0,0,4808.94,2.96,538876.27,3364.73,-2.66,217787.80,1920.26,-1.47,184549.49,3687.58,-3.04,38129.18,912.57,-2.89,50882.56
7806600,220.55,1203.61,1.00,0,0,0,4179.94,-1.88,393643.51,3970.76,-1.46,273970.41,1085.75,-2.46,105999.76,903.35,-2.88,184210.21,634.85,-2.83,18567.21
7822000,253.34,1143.46,1.00,0,0,0,4448.77,-1.07,220107.54,593.70,-0.14,251114.13,1137.84,-1.52,65911.99,523.18,-1.46,63208.83,777.66,3.13,17480.45
7851300,246.84,1199.99,1.00,0,0,0,1942.04,1.69,214719.64,834.37,1.82,40682.43,482.45,-0.09,40002.75,669.55,-1.13,8319.37,575.81,-2.59,14559.85
7866200,244.28,1179.21,1.00,0,0,0,1405.11,-1.69,223107.97,319.90,0.05,63710.25,649.13,1.66,58682.46,1549.92,-0.30,80762.01,728.56,-2.84,14946.91
7881100,256.36,1200.51,1.00,0,0,0,1643.26,1.06,200669.16,467.87,1.32,32328.78,1424.95,-0.39,121942.01,2135.80,-0.19,41571.43,624.58,-0.45,84400.12
7903400,248.55,1196.09,1.00,0,0,0,402.34,-2.63,89652.78,2077.24,-0.42,99004.08,2759.36,0.05,71312.73,1614.28,0.20,39967.90,1133.10,-0.31,23429.29
7933100,354.81,1156.09,1.00,0,0,0,3822.85,-0.36,137779.11,4891.89,-0.02,104076.46,3409.18,-0.20,34239.95,2136.84,-0.25,32902.76,1086.90,-0.57,9757.58
7949400,473.53,1191.51,1.00,0,0,0,7600.76,0.29,313556.41,5038.50,-0.10,25000.30,3074.10,0.01,46613.69,2138.03,-0.04,27233.96,1129.07,-0.58,2641.19
7978000,579.98,1134.19,1.00,0,0,0,4227.18,-0.49,191941.51,1163.92,0.14,136934.98,2870.12,-0.18,20707.59,1950.31,-0.16,10860.33,1176.03,-0.17,16374.17
7992900,523.67,1198.53,1.00,0,0,0,5738.20,2.29,658380.73,557.85,-1.29,81890.35,1529.06,-0.21,90141.06,2064.66,-0.09,12522.83,1101.78,0.02,15410.91
8014800,585.57,1114.43,1.00,0,0,0,4767.97,-0.94,479310.82,2101.82,-0.44,81485.57,248.71,2.02,77347.25,1703.14,-0.34,26995.78,1332.61,-0.36,23500.47
8029600,593.37,1165.47,1.00,0,0,0,3488.36,1.42,516384.16,1214.05,1.93,208740.98,832.38,-0.58,71187.85,873.51,-1.09,82346.16,1281.50,-0.24,11342.98
8045400,572.67,1149.27,1.00,0,0,0,1663.58,-2.48,306077.82,770.33,3.03,70231.79,635.88,-1.61,46906.29,96.39,0.40,55088.58,1203.63,-0.31,7444.89
8059800,570.24,1167.99,1.00,0,0,0,1310.91,1.70,179887.39,2450.39,-1.42,191207.72,1449.96,-2.11,65458.82,637.78,-0.52,40564.59,1368.92,-0.30,11502.68
8075800,584.16,1075.67,1.00,0,0,0,5835.24,-1.42,446619.82,2243.43,-1.90,71392.16,274.62,-0.43,93998.28,510.33,-0.93,16552.73,1067.07,-0.36,19415.31
8105600,537.05,1070.75,1.00,0,0,0,1589.49,-3.04,205279.77,1235.91,1.43,116289.94,483.70,-0.44,7016.49,596.73,-1.17,5342.01,749.19,-0.67,14191.81
8128200,593.33,1139.78,1.00,0,0,0,3940.93,0.89,229662.04,2864.33,0.86,85991.00,599.56,-0.41,5152.76,495.10,-1.05,5434.52,207.82,-0.85,24145.35
8142700,606.60,1151.09,1.00,0,0,0,1202.76,0.71,190780.36,3063.24,-1.17,346591.82,1345.33,0.17,62695.01,814.41,-0.93,22610.58,471.03,-1.10,18968.34
8158000,629.30,1055.88,1.00,0,0,0,6397.34,-1.34,459224.78,2217.31,-1.27,58081.08,898.62,-1.29,100536.71,429.42,-0.46,30958.79,229.84,-1.24,16046.65
8173200,626.62,1086.50,1.00,0,0,0,2021.80,1.66,552802.45,1300.48,2.15,229320.41,1386.52,-1.16,33587.07,800.38,-0.14,27234.21,317.31,-1.27,5772.44
8187800,608.04,1088.28,1.00,0,0,0,1278.91,3.05,149784.18,602.11,-0.72,129275.93,198.91,-0.64,83397.12,405.92,-1.09,44643.06,336.62,-1.01,5940.16
8202800,640.04,1074.76,1.00,0,0,0,2316.11,-0.40,237139.71,1679.80,-0.91,72969.59,528.78,-1.07,23826.54,532.27,-1.79,22842.29,448.85,-0.80,9221.24
8217600,638.80,1048.79,1.00,0,0,0,1756.86,-1.62,160547.58,525.61,-1.38,83513.78,146.84,0.02,32367.62,145.09,-2.85,32351.79,97.69,-1.93,28149.83
8240200,643.69,1055.45,1.00,0,0,0,365.46,0.94,91648.23,826.72,2.01,59391.54,533.20,-3.04,30074.42,89.75,-1.87,5359.74,365.94,-0.08,17875.21
8270700,620.21,1088.56,1.00,0,0,0,1330.93,2.19,41455.86,955.72,2.89,25259.28,324.09,3.12,7050.67,211.20,-0.94,5662.42,255.02,-1.17,10986.62
8299600,588.69,1069.52,1.00,0,0,0,1273.90,-2.60,61364.67,956.61,-1.88,45379.91,283.15,2.47,6882.23,181.38,-0.33,4225.14,216.58,-0.48,5659.66
8313700,607.66,1049.38,1.00,0,0,0,1962.04,-0.82,181156.98,913.06,0.09,110429.70,337.84,-1.26,42201.56,367.33,-3.10,38345.19,195.15,1.64,25449.32
8336600,622.35,1072.47,1.00,0,0,0,1194.68,1.00,110735.50,454.42,0.35,21375.22,1004.68,-0.06,40799.19,47.08,0.91,17439.34,186.37,0.06,11834.11
8366700,630.26,1057.72,1.00,0,0,0,555.83,-1.08,51324.73,1094.69,-0.17,24445.11,418.65,-3.05,47175.41,121.98,-1.41,5244.80,208.23,2.50,12307.75
8381400,670.71,1064.34,1.00,0,0,0,2788.82,0.16,181030.77,1954.61,-2.95,204302.48,378.68,-0.39,52735.79,643.80,0.60,47960.43,2054.50,1.79,129308.05
8396500,573.13,1046.35,1.00,0,0,0,6571.45,-2.96,619859.26,734.77,-3.03,81042.73,233.44,2.10,38514.94,468.54,1.30,27544.38,3550.22,2.06,110581.38
8411600,648.67,1061.80,1.00,0,0,0,5106.20,0.20,773318.65,1835.40,0.44,168404.25,951.03,1.69,49243.31,447.22,0.28,29805.02,3616.16,2.19,29166.46
8426600,623.16,1069.77,1.00,0,0,0,1781.60,2.84,448071.13,2042.56,1.32,110720.44,1416.82,0.91,66086.24,790.93,2.39,72670.69,3428.86,1.99,47106.54
8441700,664.11,1121.31,1.00,0,0,0,4359.07,0.90,348978.63,1464.29,1.52,44765.19,666.25,0.68,51957.60,4760.97,1.83,272185.43,3637.65,1.85,35600.01
8456900,625.43,1114.08,1.00,0,0,0,2588.73,-2.96,430148.41,1002.27,-1.02,155255.81,1298.15,2.43,102798.64,7851.09,2.01,215982.29,3441.74,1.64,51054.34
8478600,683.45,1089.79,1.00,0,0,0,2898.63,-0.40,242301.55,1885.42,2.96,122675.00,7580.88,1.84,301351.99,7980.32,2.19,66432.42,2025.97,1.34,74405.04
8493700,557.19,1126.65,1.00,4,4,4,8710.33,2.86,767894.28,14620.63,1.86,918440.55,13264.91,2.08,408463.26,7134.76,1.99,116734.45,1665.22,1.43,26213.87
8523400,497.32,1717.79,1.00,4,4,4,20005.36,1.67,625556.82,23358.81,2.03,313049.36,15136.10,2.23,95332.59,6935.90,1.94,13937.54,1912.72,2.11,40500.31
8537800,99.68,2049.60,1.00,4,4,4,35965.48,2.45,1790998.30,19209.33,2.67,962235.94,12015.53,1.95,341415.47,6312.79,1.66,132421.98,1321.09,2.02,42088.99
8553100,-9.80,1979.15,1.00,4,4,4,8509.01,-2.57,2247951.00,2430.20,-0.07,1402960.27,6252.25,2.07,383071.83,3843.73,1.45,175802.78,1229.19,2.23,18353.49
8575800,191.78,2042.96,1.00,4,4,4,9314.72,0.31,778305.29,8561.21,0.34,282380.22,6374.62,0.01,476997.44,2691.29,1.24,58635.98,1071.29,2.34,8894.24
8590800,294.37,2087.10,1.00,4,4,4,7445.15,0.41,136394.06,11254.65,0.03,268403.25,12199.36,-0.42,464400.73,1257.26,-2.21,260479.78,1003.27,2.68,24069.85
8606600,538.22,2055.08,1.00,4,4,4,15565.89,-0.13,628338.55,20876.74,-0.78,980451.46,9615.98,-0.80,302966.03,4257.68,-1.14,242174.46,926.41,2.78,7551.37
8621600,751.77,1635.18,1.00,0,0,0,31405.85,-1.10,1732950.59,12476.98,-1.28,774905.92,5887.08,-1.41,392593.11,4092.21,-0.97,47869.10,1234.35,2.82,20743.54
8650800,695.03,1526.36,1.00,0,0,0,4202.90,-2.05,998853.82,6349.23,-2.94,495820.54,6829.41,-1.79,86929.73,4382.43,-1.31,50577.37,698.36,2.95,18773.93
8681700,377.96,1558.53,1.00,0,0,0,10313.73,3.04,310267.72,6114.96,-2.77,34405.02,3899.85,-2.49,149312.05,4843.09,-1.47,28098.63,1831.65,-1.85,61640.84
8703200,396.15,1410.83,1.00,0,0,0,6921.64,-1.45,634253.16,3671.84,-1.42,298735.98,3889.74,-2.55,9937.02,4861.36,-1.80,73788.56,2894.61,-1.34,73215.81
8732700,406.48,1373.45,1.00,0,0,0,1314.61,-1.30,190661.16,2160.51,-1.70,57819.62,3690.25,-1.58,119938.51,3458.55,-2.38,92715.94,2630.44,-1.28,10659.03
8747300,383.92,1316.34,1.00,0,0,0,4205.80,-1.95,222849.53,3940.20,-1.84,125121.95,2475.94,-1.84,99615.46,3103.82,-2.36,24909.33,2699.61,-1.53,45093.67
8761800,375.88,1262.95,1.00,0,0,0,3723.72,-1.72,70166.68,2920.96,-1.98,77014.03,2848.94,-2.12,56692.99,2584.46,-1.66,137415.44,3074.80,-1.61,31054.27
8782800,343.09,1221.03,1.00,0,0,0,2534.64,-2.23,93523.32,2271.95,-2.51,71891.80,2323.18,-1.87,39226.53,1789.36,-1.89,44266.41,3103.16,-1.90,42053.25
8798300,308.90,1214.06,1.00,0,0,0,2250.78,-2.94,108088.46,1679.72,-1.66,110452.57,1328.74,-1.95,64823.56,1875.60,-2.24,41190.36,2211.41,-2.37,97813.03
8813200,338.35,1170.18,1.00,0,0,0,3546.43,-0.98,326821.05,1570.15,-0.78,93696.61,1066.05,-2.00,17994.94,1377.84,-2.44,39883.73,2073.44,-2.50,20146.77
8828500,342.68,1180.78,1.00,0,0,0,747.99,1.18,262224.41,804.72,-2.49,121877.55,1135.82,-2.47,33853.22,1325.38,-2.25,16743.50,1454.11,-1.88,79578.54
8857400,310.00,1148.71,1.00,0,0,0,1584.35,-2.37,79254.26,2131.59,-2.92,49733.14,1358.67,3.00,34938.51,1099.32,-2.48,12258.76,1142.18,-2.11,14752.64
8879500,236.67,1156.72,1.00,0,0,0,3337.94,3.03,119297.93,2430.57,2.71,68044.62,1409.54,-2.49,48857.81,624.29,-2.30,22482.68,976.04,-2.20,8747.79
8893600,230.25,1185.88,1.00,0,0,0,2117.90,1.79,236380.49,1664.27,-1.20,270112.77,1391.40,-2.89,40186.65,1073.60,-2.96,49164.84,506.58,-1.40,51226.52
8908100,253.80,1112.31,1.00,0,0,0,5327.57,-1.26,513027.31,2061.86,-1.71,69901.34,279.21,-0.46,111301.82,679.51,-2.87,27662.38,386.26,-1.30,8893.75
8922800,221.81,1126.27,1.00,0,0,0,2374.09,2.73,484496.92,1294.44,1.64,227086.02,972.71,-2.38,74806.03,651.67,-2.80,3834.92,375.86,-0.63,17058.67
8937000,251.07,1149.62,1.00,0,0,0,2635.85,0.67,302291.20,1116.27,2.75,89982.27,649.14,1.72,102057.19,68.94,-0.95,47449.11,497.13,-0.58,8639.45
8959200,184.22,1141.69,1.00,0,0,0,3032.20,-3.02,245579.60,161.81,2.19,44267.17,120.18,-1.70,34487.30,1120.67,-0.13,48416.50,238.98,-0.76,11953.34
8973700,247.60,1154.44,1.00,0,0,0,4458.47,0.20,516194.99,1005.67,-0.60,79946.50,110.08,-3.07,10077.72,976.01,0.23,27540.81,333.20,-0.87,6806.61
9003100,220.61,1116.69,1.00,0,0,0,1578.22,-2.19,194355.94,174.58,-2.35,35728.58,2353.45,0.09,83792.79,1240.54,0.11,9948.59,446.70,-0.09,10624.98
9017700,242.21,1148.97,1.00,0,0,0,2659.71,0.98,290236.82,3710.89,0.24,264398.82,1659.62,-0.04,50682.37,1076.09,-0.11,21336.89,654.51,-0.33,16748.93
9055700,410.38,1162.37,1.00,0,0,0,4439.75,0.08,91664.13,3139.66,-0.00,26316.18,2299.68,0.16,19616.50,1198.18,-0.12,3213.50,642.71,-0.22,1880.75
9070600,408.29,1148.16,1.00,0,0,0,964.01,-1.72,318743.09,712.68,-0.36,166739.20,2073.72,-0.11,41376.51,981.66,-0.32,20943.15,713.12,-0.04,9639.44
9099500,439.58,1151.32,1.00,0,0,0,1088.06,0.10,56069.34,872.88,-0.57,8005.67,602.74,-1.91,79297.66,1404.16,0.09,22079.23,580.37,0.01,4715.87
9113500,439.74,1127.83,1.00,0,0,0,1677.90,-1.56,148825.14,1576.92,-2.50,146282.01,615.24,-1.49,18379.02,1166.74,-0.30,39052.01,582.94,-0.28,12152.98
9135600,394.13,1117.03,1.00,0,0,0,2120.67,-2.91,108232.41,1069.49,-2.33,24868.59,257.57,-1.13,17397.37,148.94,-1.18,48750.51,934.29,-0.05,17739.84
9150700,412.28,1099.04,1.00,0,0,0,1692.59,-0.78,221220.27,1921.28,0.35,193256.10,592.74,-2.04,31654.12,538.81,-0.60,27936.84,539.26,-0.32,29180.47
9164700,446.69,1136.11,1.00,0,0,0,3612.49,0.82,288539.10,407.84,-0.55,121165.97,617.50,0.83,85625.98,353.16,-2.61,54329.85,968.73,-0.01,34694.48
9179300,422.25,1092.97,1.00,0,0,0,3395.85,-2.09,476783.44,1019.17,2.89,96873.18,940.00,0.09,43904.82,219.55,-1.86,16752.12,1209.16,-0.13,18900.65
9193500,418.26,1143.42,1.00,0,0,0,3563.57,1.65,468630.17,1442.60,0.22,168704.08,731.76,-2.97,117634.92,624.39,0.12,52107.29,1117.61,-0.12,6584.89
9215000,472.50,1104.22,1.00,0,0,0,3112.59,-0.63,281983.41,661.10,-2.45,95534.32,121.58,0.49,39435.19,3.87,2.00,29097.02,1198.59,-0.11,3799.33
9229600,399.86,1128.23,1.00,0,0,0,5240.35,2.82,565846.51,990.29,-2.98,36769.08,776.93,-0.23,47310.19,512.22,-0.29,35259.66,989.94,-0.17,15045.49
9257800,430.66,1097.48,1.00,0,0,0,1543.31,-0.78,236016.50,1660.50,-0.00,93701.80,756.04,-3.06,53704.22,1293.82,0.04,29300.37,1007.00,-0.05,4141.27
9280100,483.71,1127.82,1.00,0,0,0,2740.58,0.52,124128.33,500.64,3.03,96815.57,1477.33,-0.11,99739.29,2111.51,-0.06,37346.07,1213.03,-0.10,9475.35
9295200,412.05,1099.55,1.00,0,0,0,5101.77,-2.77,518142.19,1224.63,-0.37,113483.74,2694.95,0.01,82427.10,1971.00,0.03,14909.02,1059.79,-0.08,10242.46
9310100,518.00,1114.63,1.00,0,0,0,7182.67,0.14,818969.85,6811.54,0.00,381683.58,4099.79,-0.01,94426.94,2125.49,-0.07,17549.99,1164.86,-0.23,13611.32
9324200,609.58,1100.13,1.00,0,0,0,6575.95,-0.16,151171.96,7189.92,0.05,36888.49,5715.01,0.04,115636.49,2176.72,0.05,19828.57,1162.86,-0.13,8453.93
9338900,724.77,1125.80,1.00,0,0,0,8028.10,0.22,209617.91,4643.27,0.09,173749.60,2928.14,-0.05,191115.55,1848.98,-0.17,37962.30,1111.02,-0.19,5634.89
9353600,745.57,1112.10,1.00,0,0,0,1694.42,-0.58,473280.99,717.17,-2.23,350995.33,1657.58,0.12,89957.40,2170.67,-0.08,25260.80,844.04,-0.14,18497.91
9375300,708.69,1105.24,1.00,0,0,0,1728.83,-2.96,146313.00,773.70,3.11,31030.15,542.56,-1.32,77144.31,1814.16,-0.22,20725.92,1014.56,-0.05,8713.62
9389800,717.57,1112.87,1.00,0,0,0,807.53,0.71,169724.82,793.91,-0.67,102599.55,630.35,-2.33,39607.33,1080.35,-0.31,51442.85,805.07,0.03,15182.51
9418300,735.47,1084.07,1.00,0,0,0,1189.56,-1.01,53903.91,866.71,-1.75,30051.00,1031.33,-0.61,45184.12,339.09,-1.00,29713.73,813.33,-0.18,5968.19
9433300,710.87,1075.77,1.00,0,0,0,1730.66,-2.82,154203.56,1301.18,-0.57,83924.95,920.23,-0.85,17150.87,292.53,-2.05,21174.80,942.90,-0.04,11921.40
9456500,777.33,1057.27,1.00,0,0,0,2973.24,-0.27,194420.66,1351.89,-0.43,8522.28,234.63,-0.25,31848.27,59.93,1.95,14428.57,1135.40,-0.30,14002.35
9486500,776.39,1046.09,1.00,0,0,0,374.02,-1.65,97556.20,706.68,2.38,67726.78,172.27,-0.42,2370.58,312.53,-2.97,10192.36,1054.00,-0.15,5935.18
9501500,754.40,1079.30,1.00,0,0,0,2655.63,2.16,197212.81,1991.73,2.71,89709.58,1232.44,2.48,93337.15,146.93,3.08,11537.52,767.59,-0.22,19596.82
9515500,723.82,1070.03,1.00,0,0,0,2282.38,-2.85,211805.15,2045.40,2.53,26976.26,1876.90,2.65,49824.36,205.91,2.72,6111.74,828.08,-0.33,7411.58
9530900,705.21,1113.89,1.00,0,0,0,3094.23,1.97,236619.54,1791.94,2.60,18502.93,625.26,2.99,84707.68,462.56,-0.61,43233.90,59.93,1.95,56390.52
9552200,667.58,1104.11,1.00,0,0,0,1825.33,-2.89,157481.95,810.76,-1.28,115141.31,669.20,2.72,8438.03,1059.52,0.04,35105.15,312.53,-2.97,14355.43
9567500,713.59,1085.43,1.00,0,0,0,3245.66,-0.39,315961.19,721.98,-0.80,24488.54,2338.41,-0.64,195717.50,1400.08,-0.03,22900.73,146.93,3.08,11311.30
9582600,682.81,1088.30,1.00,0,0,0,2047.47,3.05,346987.66,4396.09,-0.51,245731.66,3479.66,-0.20,112674.93,1848.69,-0.15,32504.12,205.91,2.72,5666.52
9598100,830.87,1019.54,1.00,0,0,0,10532.34,-0.43,805184.00,5419.32,-0.15,131915.65,3169.55,-0.05,37879.99,2338.41,-0.64,72750.90,462.56,-0.61,42954.98
9628000,926.18,1052.22,1.00,0,0,0,3370.06,0.33,281979.82,2970.88,0.42,111261.16,4077.03,-0.19,34796.53,3479.66,-0.20,56902.72,1059.52,0.04,25008.02
9642900,952.30,1074.02,1.00,0,0,0,2283.06,0.70,99454.00,2069.03,-0.36,140326.30,2970.88,0.42,158945.72,3169.55,-0.05,39405.36,1400.08,-0.03,23515.52
9657800,983.91,1030.57,1.00,0,0,0,3606.10,-0.94,294914.05,3606.10,-0.94,147457.02,2069.03,-0.36,140326.30,4077.03,-0.19,69826.59,1848.69,-0.15,32940.42
