@RELATION gaze_labels

%@METADATA width_px 1920
%@METADATA height_px 1080
%@METADATA width_mm 540.00
%@METADATA height_mm 254.00
%@METADATA distance_mm 620.00


@ATTRIBUTE time INTEGER
@ATTRIBUTE x NUMERIC
@ATTRIBUTE y NUMERIC
@ATTRIBUTE confidence NUMERIC
@ATTRIBUTE handlabeller1 INTEGER
@ATTRIBUTE handlabeller2 INTEGER
@ATTRIBUTE handlabeller_final INTEGER
@ATTRIBUTE speed_1 numeric
@ATTRIBUTE direction_1 numeric
@ATTRIBUTE acceleration_1 numeric
@ATTRIBUTE speed_2 numeric
@ATTRIBUTE direction_2 numeric
@ATTRIBUTE acceleration_2 numeric
@ATTRIBUTE speed_4 numeric
@ATTRIBUTE direction_4 numeric
@ATTRIBUTE acceleration_4 numeric
@ATTRIBUTE speed_8 numeric
@ATTRIBUTE direction_8 numeric
@ATTRIBUTE acceleration_8 numeric
@ATTRIBUTE speed_16 numeric
@ATTRIBUTE direction_16 numeric
@ATTRIBUTE acceleration_16 numeric

%The number after speed, direction denotes the step size that was used for the calculation.
%Acceleration was calculated between two adjacent samples of the already low pass filtered velocity

@DATA
0,287.02,913.59,1.00,1,1,1,0.00,0.00,0.00,1769.00,0.70,0.00,507.50,-2.75,0.00,298.20,2.95,0.00,117.26,3.00,0.00
14500,306.60,930.17,1.00,1,1,1,1769.00,0.70,121999.79,507.50,-2.75,155655.58,1437.32,-2.48,66100.19,537.85,-2.67,24521.71,36.47,-1.94,7915.86
28800,273.49,908.07,1.00,1,1,1,2783.61,-2.55,317872.62,1437.32,-2.48,67024.67,298.20,2.95,88243.02,138.32,2.91,30878.55,95.20,0.55,8821.86
43300,273.91,904.77,1.00,1,1,1,229.65,-1.44,185470.09,295.92,2.12,103452.66,537.85,-2.67,24521.71,203.13,0.89,20075.06,419.47,-0.39,25621.47
65600,267.83,917.37,1.00,1,1,1,627.69,2.02,38055.69,250.65,1.45,8285.11,138.32,2.91,19801.04,117.26,3.00,12630.36,1299.58,-0.15,40217.36
80400,275.06,914.00,1.00,1,1,1,539.19,-0.44,74302.91,192.80,-2.23,28895.07,203.13,0.89,19668.13,36.47,-1.94,7755.41,1356.49,-0.05,10049.00
110000,262.55,910.63,1.00,1,1,1,437.49,-2.88,31018.47,213.72,0.49,13441.21,11.92,-1.24,7084.07,95.20,0.55,4261.91,1545.36,-0.06,6402.66
139200,286.13,919.94,1.00,1,1,1,868.09,0.38,44647.61,153.48,0.79,2745.32,279.00,0.33,9563.35,419.47,-0.39,12722.99,1613.14,-0.07,2404.67
162100,268.21,916.29,1.00,2,2,2,798.83,-2.94,72513.06,357.71,0.23,10549.12,271.13,0.24,1136.15,1299.58,-0.15,39163.63,737.55,-0.09,38244.81
191300,304.29,924.15,1.00,3,3,3,1264.61,0.21,70663.99,445.98,0.03,4027.24,872.58,-0.65,25159.00,1356.49,-0.05,5093.33,873.49,-0.13,4767.57
206200,287.86,916.94,1.00,3,3,3,1203.82,-2.73,164844.73,2053.32,-0.89,122081.02,2993.90,-0.15,152254.89,1545.36,-0.06,12719.38,1240.24,-0.10,24709.81
221200,342.96,876.47,1.00,1,1,1,4557.57,-0.63,350911.56,6802.14,-0.17,362140.09,3162.45,-0.11,14473.27,1613.14,-0.07,4681.09,1800.87,-0.04,37851.06
235800,486.37,883.27,1.00,1,1,1,9833.55,0.05,473646.31,4660.88,0.14,189261.44,3375.92,-0.10,14766.04,1626.20,-0.10,2559.09,2115.66,-0.02,21712.43
258900,516.87,901.58,1.00,1,1,1,1540.25,0.54,368328.45,819.64,0.38,167502.14,2742.48,0.14,41303.41,1973.78,-0.11,15071.86,2173.42,-0.01,2554.53
273900,515.35,894.91,1.00,1,1,1,456.58,-1.80,125701.10,340.99,0.05,33921.81,429.97,0.25,154394.38,2698.05,-0.12,48364.34,2143.10,-0.02,2358.28
289000,527.12,902.14,1.00,2,2,2,915.00,0.55,84563.13,134.06,-0.48,15640.49,890.85,-0.11,33924.81,3566.90,0.01,64087.74,2137.68,-0.01,1127.80
318000,520.58,892.15,1.00,2,2,2,411.69,-2.15,44805.47,1269.81,-0.14,39468.65,2081.74,-0.17,41152.64,3066.92,0.05,17674.84,2156.92,-0.03,1464.97
333100,582.58,894.38,1.00,3,3,3,4108.73,0.04,288711.65,4955.14,-0.15,244074.07,4350.25,-0.06,151735.41,3209.55,0.01,12522.68,1980.58,-0.08,13382.66
348000,667.48,869.38,1.00,3,3,3,5939.83,-0.29,162575.61,8855.62,-0.04,266395.31,6314.32,0.03,135490.59,2839.84,0.00,24820.97,1908.97,-0.05,5833.24
363300,849.78,882.97,1.00,1,1,1,11948.06,0.07,439623.30,7519.76,0.13,125860.47,5792.96,0.03,34090.65,2646.42,0.02,12998.98,1811.90,0.02,11440.82
385000,943.45,904.75,1.00,1,1,1,4431.92,0.23,350186.74,3323.18,0.18,193791.14,3732.14,0.11,96570.31,2748.91,0.01,4918.27,1249.24,0.01,25952.33
399900,969.41,904.93,1.00,1,1,1,1742.03,0.01,185177.84,953.20,-2.85,286714.83,1150.89,0.30,175288.62,1988.43,-0.05,52005.80,1272.14,-0.04,4410.35
415000,916.05,896.58,1.00,1,1,1,3576.77,-2.99,351385.55,682.32,2.95,31229.23,482.74,-2.90,108151.86,1241.09,0.08,51389.78,1276.33,-0.01,2718.68
444800,939.34,910.83,1.00,1,1,1,916.29,0.55,148890.55,166.52,-3.07,17567.95,1167.29,-2.86,22987.75,285.32,0.15,32103.64,1163.91,-0.02,3823.42
459200,908.71,896.05,1.00,1,1,1,2362.22,-2.69,227448.53,1887.11,-2.66,120525.29,495.06,-2.91,46742.91,351.11,-2.84,44062.80,1180.35,-0.02,1142.35
481700,877.64,878.56,1.00,1,1,1,1584.58,-2.63,34986.72,775.43,-2.88,50770.69,592.04,-2.69,6684.99,290.68,-2.75,2947.40,1112.11,-0.00,3227.78
511400,869.63,885.48,1.00,1,1,1,356.35,2.43,50571.12,479.11,0.56,41806.87,251.80,-2.75,11475.74,46.58,-0.66,10655.88,831.08,0.06,9645.37
526400,895.79,889.92,1.00,1,1,1,1768.86,0.17,134296.97,374.12,0.07,15335.23,465.89,0.15,47517.77,261.89,-2.72,19133.39,836.06,0.02,2022.56
555900,886.24,886.66,1.00,1,1,1,342.13,-2.81,71433.91,516.67,-0.18,6094.60,653.44,0.11,6394.88,177.92,-2.70,2852.11,1121.84,-0.02,9768.81
577400,921.72,885.23,1.00,1,1,1,1651.66,-0.04,91842.86,989.06,0.13,24274.97,64.85,0.69,27915.97,302.93,0.32,22327.23,1061.75,-0.02,2809.62
593000,922.61,891.52,1.00,1,1,1,407.06,1.43,106478.56,726.59,2.78,106775.09,75.79,-2.48,9014.55,364.25,-0.04,8560.16,1234.51,-0.00,11184.76
609400,899.94,893.35,1.00,1,1,1,1387.13,3.06,89557.22,1314.17,-2.95,48393.39,136.95,1.43,12096.89,1470.23,-0.01,67450.06,1330.43,-0.01,5900.41
624400,882.14,883.48,1.00,2,2,2,1357.03,-2.64,52989.25,772.74,0.01,138570.00,131.76,-1.69,17913.68,2787.57,0.03,87961.17,1468.20,0.00,9278.81
639100,922.89,893.60,1.00,2,2,2,2856.23,0.24,284454.92,1321.42,0.00,37331.93,3455.86,-0.03,236097.78,2714.75,0.03,4969.28,1454.12,0.02,2377.04
654300,921.65,883.50,1.00,2,2,2,669.54,-1.69,207763.59,6139.57,-0.03,317037.91,5196.81,0.03,115782.18,2732.73,0.01,3678.71,1634.75,0.01,11970.24
668800,1105.14,887.98,1.00,3,3,3,12658.76,0.02,880940.33,7464.90,0.04,96901.55,4761.31,0.01,31402.89,3167.87,0.03,30216.72,1495.53,-0.01,9739.71
705400,1302.83,898.03,1.00,1,1,1,5408.14,0.05,198194.24,3971.48,0.04,95450.79,4814.74,0.03,3303.11,3386.27,0.03,5967.10,1445.87,-0.02,1459.02
720300,1309.49,896.63,1.00,1,1,1,457.13,-0.21,333388.27,301.96,-0.30,247524.67,2964.16,0.07,124665.59,2762.39,-0.01,42692.20,1559.05,0.06,11222.12
735300,1311.46,895.39,1.00,1,1,1,155.14,-0.56,21093.93,1244.45,0.24,66505.32,918.89,-0.03,136794.17,2870.26,0.01,8878.78,1285.73,0.00,19145.79
750100,1345.49,905.54,1.00,1,1,1,2399.56,0.29,155443.65,1557.42,0.03,29382.78,138.05,-1.46,61479.18,1519.94,-0.00,91274.09,1365.01,-0.00,5369.64
764800,1357.39,896.56,1.00,1,1,1,1014.43,-0.65,134408.79,1330.56,-2.69,192042.32,493.55,-0.18,32177.17,141.13,-1.41,102251.39,1336.02,-0.00,2004.32
779400,1310.42,888.52,1.00,1,1,1,3264.02,-2.97,275838.59,423.90,-2.68,62102.12,365.32,-2.28,51311.41,505.74,0.23,36545.99,1302.45,0.01,2552.33
801300,1343.53,889.68,1.00,1,1,1,1512.97,0.03,217700.26,519.36,-0.07,41581.34,668.24,-2.80,18036.10,31.17,-0.86,22467.20,1214.17,-0.01,4168.07
816500,1329.64,887.18,1.00,1,1,1,928.58,-2.96,160242.10,869.94,-2.85,90006.41,829.19,0.33,98513.40,207.61,-2.72,14370.57,558.05,-0.03,43185.84
846300,1306.04,878.41,1.00,1,1,1,844.85,-2.79,5995.38,1055.35,0.45,64417.43,298.14,3.08,37268.73,288.88,-2.88,3042.80,70.93,-0.34,16471.63
875900,1386.19,914.22,1.00,1,1,1,2965.94,0.42,128697.31,304.88,0.98,27327.38,161.92,2.85,4889.16,158.30,0.37,15087.89,97.97,0.27,1905.52
898000,1314.76,891.54,1.00,1,1,1,3391.37,-2.83,287206.43,2012.19,-2.84,102155.36,54.02,1.26,7788.27,216.97,-2.91,16945.98,66.91,0.14,1481.80
913200,1314.62,891.62,1.00,1,1,1,10.69,2.58,222661.08,241.09,-2.29,119142.53,642.35,-2.84,44423.61,244.31,-3.03,2623.25,75.22,-0.44,2734.84
942900,1307.66,883.37,1.00,1,1,1,363.65,-2.27,12197.95,529.55,0.31,25111.03,172.69,-2.17,17410.71,130.77,0.63,12238.96,138.16,-2.95,6854.73
956800,1336.64,898.56,1.00,1,1,1,2354.35,0.48,193853.91,81.33,-1.64,40586.71,365.81,-2.82,18075.20,334.52,-2.94,32843.51,146.00,0.29,20420.68
972100,1307.50,881.00,1.00,1,1,1,2223.82,-2.60,299094.61,1415.20,-2.83,90671.14,263.21,0.46,41015.79,129.21,0.38,30212.52,229.24,-3.00,24459.18
994000,1286.54,882.41,1.00,1,1,1,959.53,3.07,70258.33,511.41,0.57,87412.81,91.94,1.33,9877.71,371.17,0.08,11439.19,104.79,0.72,14694.61
1008300,1323.11,890.95,1.00,1,1,1,2626.55,0.23,248618.18,1952.83,0.40,101442.69,453.57,0.62,27174.03,70.82,0.56,21689.15,106.24,0.49,1735.97
1022700,1338.07,904.45,1.00,1,1,1,1399.09,0.73,108115.04,383.43,0.71,110549.90,1387.10,0.17,69433.55,131.01,0.16,4951.51,334.52,-2.94,30377.15
1037100,1331.46,898.18,1.00,1,1,1,632.60,-2.38,141080.28,994.92,-0.30,59485.06,123.01,-2.81,104760.33,246.18,-3.11,26145.31,129.21,0.38,32100.81
1052100,1366.01,895.79,1.00,1,1,1,2308.68,-0.07,185056.94,511.27,-2.59,92367.41,242.76,-0.20,23625.85,525.35,0.37,50794.37,371.17,0.08,16701.22
1073800,1315.50,888.31,1.00,1,1,1,2353.00,-2.99,213573.39,380.08,2.72,19963.06,776.88,-2.84,45948.30,82.39,0.22,20467.88,70.82,0.56,14292.85
1087900,1353.59,901.36,1.00,1,1,1,2855.48,0.33,367867.19,1018.89,-2.95,52592.75,217.94,2.28,50913.47,242.76,-0.20,12102.04,131.01,0.16,5056.87
1117600,1271.71,879.72,1.00,1,1,1,2851.63,-2.88,192035.18,173.83,1.46,36513.14,263.03,0.27,13724.46,776.88,-2.84,33571.65,246.18,-3.11,12676.52
1133000,1354.49,909.14,1.00,1,1,1,5704.99,0.34,555197.60,2102.80,0.22,133307.72,173.83,1.46,16607.10,217.94,2.28,46615.58,525.35,0.37,49475.03
1148100,1334.36,893.45,1.00,1,1,1,1690.75,-2.48,485360.06,1690.75,-2.48,245067.04,2102.80,0.22,135956.22,263.03,0.27,26994.46,82.39,0.22,29414.10
