%@metadata width_px 1920.0
%@metadata height_px 1080.0
%@metadata width_mm 540.0
%@metadata height_mm 254.0
%@metadata distance_mm 620.0
% The number after speed, direction denotes the step size that was used for the calculation.
% Acceleration was calculated between two adjacent samples of the already low pass filtered velocity
@RELATION gaze_labels

@ATTRIBUTE time INTEGER
@ATTRIBUTE x NUMERIC
@ATTRIBUTE y NUMERIC
@ATTRIBUTE confidence NUMERIC
@ATTRIBUTE handlabeller_final INTEGER
@ATTRIBUTE EYE_MOVEMENT_TYPE {UNKNOWN, FIX, SACCADE, SP, NOISE, BLINK, NOISE_CLUSTER, PSO}

@DATA
0,108.6,872.23,1.0,1,FIX
21800,122.86,868.52,1.0,1,FIX
36400,98.14,868.12,1.0,1,FIX
51100,110.03,869.38,1.0,1,FIX
65900,130.2,871.61,1.0,1,FIX
80600,117.16,867.43,1.0,1,FIX
95300,113.55,871.97,1.0,1,FIX
132200,137.86,872.91,1.0,2,SACCADE
146900,124.85,877.58,1.0,2,SACCADE
176600,175.53,883.12,1.0,3,SP
191200,305.89,884.58,1.0,1,FIX
213300,424.04,881.87,1.0,1,FIX
228000,452.11,899.72,1.0,1,FIX
242700,472.23,913.38,1.0,1,FIX
257600,457.34,911.0,1.0,1,FIX
272200,476.41,920.05,1.0,1,FIX
286900,484.84,917.02,1.0,1,FIX
309000,456.45,909.54,1.0,2,FIX
323600,468.12,912.01,1.0,2,SACCADE
338500,464.27,918.85,1.0,2,SACCADE
353200,456.89,912.3,1.0,2,SACCADE
368000,603.34,903.52,1.0,3,SP
382800,781.17,876.67,1.0,3,FIX
405000,915.54,885.15,1.0,1,FIX
419700,935.6,884.41,1.0,1,FIX
449100,1044.2,889.4,1.0,1,FIX
463800,990.9,881.42,1.0,1,FIX
500900,1060.69,902.1,1.0,1,FIX
515400,972.44,897.08,1.0,1,FIX
530100,1006.08,887.7,1.0,1,FIX
559100,983.5,882.32,1.0,2,SACCADE
581400,996.09,887.63,1.0,3,SACCADE
595800,1034.72,869.39,1.0,1,SP
610500,1253.41,885.61,1.0,1,FIX
625400,1273.88,877.86,1.0,1,FIX
640100,1303.85,882.35,1.0,1,FIX
655100,1294.11,897.57,1.0,1,FIX
676900,1307.11,896.33,1.0,1,FIX
691600,1290.66,885.58,1.0,1,FIX
706300,1313.36,894.01,1.0,1,FIX
721000,1343.87,892.5,1.0,2,FIX
736100,1305.93,881.54,1.0,2,SACCADE
757900,1330.9,884.21,1.0,2,SACCADE
772300,1225.87,871.55,1.0,3,SP
786500,1094.92,899.7,1.0,3,FIX
801200,957.72,903.13,1.0,1,FIX
816000,941.77,903.02,1.0,1,FIX
830700,948.88,903.31,1.0,1,FIX
853100,951.22,906.2,1.0,1,FIX
882500,887.37,891.48,1.0,1,FIX
897200,911.5,898.82,1.0,1,FIX
926800,955.39,896.73,1.0,1,FIX
949100,940.6,890.29,1.0,2,FIX
964000,934.55,905.23,1.0,2,SACCADE
979000,901.66,889.03,1.0,3,SACCADE
993700,948.08,898.53,1.0,1,FIX
1008400,869.35,887.68,1.0,1,FIX
1023000,806.03,893.96,1.0,1,FIX
1045100,836.18,890.55,1.0,1,FIX
1059900,832.93,898.2,1.0,1,FIX
1074900,851.87,907.88,1.0,1,FIX
1089600,827.45,898.08,1.0,1,FIX
1104400,863.48,886.72,1.0,1,FIX
1119100,816.82,888.05,1.0,2,SACCADE
1141200,857.08,882.49,1.0,2,SACCADE
1155800,854.26,894.1,1.0,3,SP
1170500,920.71,898.53,1.0,1,FIX
1185500,1077.31,899.68,1.0,1,FIX
1200100,1037.45,874.91,1.0,1,FIX
1214700,1063.17,891.59,1.0,1,FIX
1251400,1099.85,895.07,1.0,1,FIX
1266300,1090.16,907.1,1.0,1,FIX
1281100,1072.55,875.49,1.0,1,FIX
1310900,1112.97,900.57,1.0,1,FIX
1333100,1105.11,879.02,1.0,1,FIX
1347900,1045.86,899.06,1.0,1,FIX
1362500,1070.56,869.82,1.0,1,FIX
1377200,1088.75,888.25,1.0,1,FIX
1392100,1105.66,878.17,1.0,1,FIX
1406700,1082.26,877.78,1.0,1,FIX
1428900,1074.23,895.51,1.0,1,FIX
1443500,1062.27,891.65,1.0,1,FIX
1457900,1095.3,894.04,1.0,1,FIX
1472600,1067.71,881.09,1.0,1,FIX
1487000,1088.24,883.45,1.0,2,SACCADE
1509300,1088.72,883.63,1.0,2,SACCADE
1523900,1001.89,890.87,1.0,2,SACCADE
1538700,848.81,901.55,1.0,2,FIX
1553100,760.39,925.25,1.0,3,FIX
1567400,636.47,933.25,1.0,1,FIX
1589600,641.83,943.39,1.0,1,FIX
1604100,574.3,934.72,1.0,1,FIX
1633500,547.72,923.45,1.0,1,FIX
1648200,504.7,919.48,1.0,1,FIX
1685400,487.25,914.84,1.0,1,FIX
1700200,534.89,930.67,1.0,1,FIX
1715000,526.39,922.36,1.0,1,FIX
1729700,523.49,918.66,1.0,1,FIX
1744700,488.74,916.53,1.0,1,FIX
1759400,505.82,919.11,1.0,1,FIX
1781700,490.85,913.14,1.0,1,FIX
