%@metadata width_px 1920.0
%@metadata height_px 1080.0
%@metadata width_mm 540.0
%@metadata height_mm 254.0
%@metadata distance_mm 620.0
% The number after speed, direction denotes the step size that was used for the calculation.
% Acceleration was calculated between two adjacent samples of the already low pass filtered velocity
@RELATION gaze_labels

@ATTRIBUTE time INTEGER
@ATTRIBUTE x NUMERIC
@ATTRIBUTE y NUMERIC
@ATTRIBUTE confidence NUMERIC
@ATTRIBUTE handlabeller_final INTEGER
@ATTRIBUTE EYE_MOVEMENT_TYPE {UNKNOWN, FIX, SACCADE, SP, NOISE, BLINK, NOISE_CLUSTER, PSO}

@DATA
0,526.13,787.61,1.0,1,FIX
14000,453.75,786.06,1.0,1,FIX
28100,494.9,777.79,1.0,1,FIX
49100,478.1,798.68,1.0,1,FIX
64000,479.71,778.17,1.0,1,FIX
78400,459.23,800.01,1.0,1,FIX
92700,473.02,785.84,1.0,1,FIX
114300,481.61,757.58,1.0,1,FIX
128800,478.48,777.94,1.0,1,FIX
143100,498.6,782.96,1.0,1,FIX
157000,529.61,797.36,1.0,1,FIX
171500,528.21,806.33,1.0,2,FIX
192800,521.22,784.18,1.0,2,FIX
206900,524.45,779.69,1.0,2,SACCADE
220900,497.85,802.2,1.0,2,SACCADE
235000,607.38,802.26,1.0,3,SP
256700,683.93,803.92,1.0,1,FIX
271000,798.9,769.46,1.0,1,FIX
285200,862.69,756.79,1.0,1,FIX
320700,800.71,773.53,1.0,1,FIX
334800,833.58,788.64,1.0,1,FIX
363100,884.12,744.8,1.0,1,FIX
384500,852.29,743.39,1.0,1,FIX
398800,794.36,757.56,1.0,2,FIX
413900,787.24,797.03,1.0,2,SACCADE
428400,825.83,752.21,1.0,3,SACCADE
443000,812.09,765.0,1.0,1,SP
464400,904.42,756.76,1.0,1,FIX
478900,920.55,743.18,1.0,1,FIX
494000,1002.91,762.31,1.0,1,FIX
507800,925.82,763.42,1.0,1,FIX
529100,946.84,785.34,1.0,1,FIX
543700,955.16,761.64,1.0,1,FIX
557600,1036.2,751.33,1.0,2,SACCADE
571600,1062.27,755.65,1.0,2,SACCADE
593700,1014.24,776.89,1.0,3,SACCADE
608000,1229.04,766.01,1.0,1,FIX
622700,1443.33,755.58,1.0,1,FIX
636600,1549.5,776.58,1.0,1,FIX
651000,1549.5,776.58,1.0,1,FIX
687000,1451.11,755.79,1.0,4,FIX
701200,1466.91,774.96,1.0,4,FIX
715300,1482.05,779.04,1.0,4,NOISE
751300,1432.5,812.33,1.0,4,NOISE
765300,1470.85,834.47,1.0,4,NOISE
779700,1642.02,895.16,1.0,4,NOISE
801400,1111.72,870.5,1.0,4,NOISE
815300,1197.67,885.68,1.0,4,NOISE
829200,1577.46,862.49,1.0,4,NOISE
844000,1294.14,841.95,1.0,4,NOISE
865100,990.06,858.27,1.0,4,NOISE
879300,866.97,918.49,1.0,1,NOISE
893900,793.06,917.26,1.0,1,FIX
908200,757.25,897.89,1.0,1,FIX
923100,760.16,843.71,1.0,1,FIX
944200,717.87,871.39,1.0,1,FIX
958300,746.13,867.39,1.0,1,FIX
972500,708.7,857.76,1.0,1,FIX
994000,764.3,861.94,1.0,1,SACCADE
1008400,688.77,850.63,1.0,1,FIX
1023800,702.2,843.96,1.0,2,FIX
1038100,682.92,825.8,1.0,2,FIX
1073700,584.75,869.08,1.0,1,FIX
1088000,586.92,839.23,1.0,1,FIX
1116600,553.7,854.9,1.0,1,FIX
1131600,562.34,846.54,1.0,1,FIX
1153000,554.48,844.11,1.0,1,FIX
1168000,526.94,861.63,1.0,1,FIX
1182700,571.04,859.18,1.0,1,FIX
1196500,584.38,852.77,1.0,1,FIX
1211200,543.75,813.91,1.0,2,SACCADE
1232300,534.78,848.22,1.0,2,SACCADE
1246300,482.62,839.39,1.0,3,SP
1260900,593.39,800.43,1.0,3,FIX
1275800,697.52,804.07,1.0,1,FIX
1296600,762.26,809.8,1.0,1,FIX
1311100,759.84,790.84,1.0,1,FIX
1325100,716.81,815.55,1.0,1,FIX
1339200,708.07,797.07,1.0,1,FIX
1361000,731.68,794.96,1.0,1,FIX
1375300,724.81,802.26,1.0,1,FIX
1389200,730.55,812.06,1.0,1,FIX
1403900,702.85,800.36,1.0,1,FIX
1439400,747.16,794.62,1.0,2,SACCADE
1453900,752.48,800.97,1.0,2,SACCADE
1489300,760.2,811.58,1.0,3,SP
1503700,868.23,792.57,1.0,1,FIX
1518500,953.38,754.05,1.0,1,FIX
1532900,961.89,783.04,1.0,1,FIX
1547200,1032.48,751.26,1.0,1,FIX
1567900,994.52,775.71,1.0,1,FIX
1582400,997.5,777.25,1.0,1,FIX
1596400,958.57,757.13,1.0,1,FIX
1617700,959.94,772.98,1.0,1,FIX
1646500,1009.46,775.85,1.0,1,FIX
1660900,981.07,773.38,1.0,1,FIX
1675100,1004.63,764.64,1.0,1,FIX
1696400,993.78,762.07,1.0,2,SACCADE
1710800,1012.29,770.14,1.0,2,SACCADE
1725100,1012.07,754.66,1.0,2,SP
1739500,949.44,799.75,1.0,3,SP
1761000,795.02,808.74,1.0,1,FIX
1775300,700.29,803.93,1.0,1,FIX
1803100,731.96,823.64,1.0,1,FIX
1824000,779.35,807.67,1.0,1,FIX
1838200,688.4,804.96,1.0,1,FIX
1874200,724.61,814.13,1.0,1,FIX
1888500,722.03,834.75,1.0,1,FIX
1902500,686.78,817.26,1.0,1,FIX
1916900,707.99,803.31,1.0,2,FIX
1931300,775.24,798.3,1.0,2,SACCADE
1952900,739.46,826.38,1.0,3,SACCADE
1966700,744.37,814.58,1.0,3,SP
1981100,564.63,811.04,1.0,1,FIX
1995300,561.62,806.49,1.0,1,FIX
2016500,564.23,798.69,1.0,1,FIX
2030700,573.91,836.86,1.0,1,FIX
2044700,522.02,871.94,1.0,1,FIX
2059300,512.06,842.72,1.0,1,FIX
2080900,455.63,829.33,1.0,1,FIX
2109500,553.54,860.15,1.0,2,FIX
2124100,588.26,867.99,1.0,2,SACCADE
2145500,543.21,848.37,1.0,3,SACCADE
2159500,573.75,826.88,1.0,1,FIX
2188200,714.35,856.6,1.0,1,FIX
2203100,722.69,820.35,1.0,1,FIX
2239100,690.98,803.23,1.0,1,FIX
2252900,750.02,791.57,1.0,1,FIX
2267100,783.1,809.6,1.0,1,FIX
2288100,720.03,801.07,1.0,1,FIX
2302500,730.8,791.16,1.0,1,FIX
2316600,784.68,793.54,1.0,1,FIX
2331300,755.21,803.44,1.0,1,FIX
2352100,739.07,834.57,1.0,1,FIX
