@RELATION gaze_labels

%@METADATA width_px 1920
%@METADATA height_px 1080
%@METADATA width_mm 540.00
%@METADATA height_mm 254.00
%@METADATA distance_mm 620.00


@ATTRIBUTE time INTEGER
@ATTRIBUTE x NUMERIC
@ATTRIBUTE y NUMERIC
@ATTRIBUTE confidence NUMERIC
@ATTRIBUTE handlabeller1 INTEGER
@ATTRIBUTE handlabeller2 INTEGER
@ATTRIBUTE handlabeller_final INTEGER
@ATTRIBUTE speed_1 numeric
@ATTRIBUTE direction_1 numeric
@ATTRIBUTE acceleration_1 numeric
@ATTRIBUTE speed_2 numeric
@ATTRIBUTE direction_2 numeric
@ATTRIBUTE acceleration_2 numeric
@ATTRIBUTE speed_4 numeric
@ATTRIBUTE direction_4 numeric
@ATTRIBUTE acceleration_4 numeric
@ATTRIBUTE speed_8 numeric
@ATTRIBUTE direction_8 numeric
@ATTRIBUTE acceleration_8 numeric
@ATTRIBUTE speed_16 numeric
@ATTRIBUTE direction_16 numeric
@ATTRIBUTE acceleration_16 numeric

%The number after speed, direction denotes the step size that was used for the calculation.
%Acceleration was calculated between two adjacent samples of the already low pass filtered velocity

@DATA
0,304.16,548.66,1.00,1,1,1,0.00,0.00,0.00,2980.50,0.47,0.00,1208.47,0.31,0.00,601.19,-0.06,0.00,311.99,-0.07,0.00
14400,342.44,568.08,1.00,1,1,1,2980.50,0.47,206979.25,1208.47,0.31,124872.81,458.19,-1.04,82866.02,464.66,-1.16,39495.78,152.37,-1.87,26224.42
44100,354.94,564.83,1.00,1,1,1,434.97,-0.25,89899.25,458.19,-1.04,40177.47,601.19,-0.06,17302.58,283.13,-1.24,6193.84,142.14,-1.61,1360.82
58900,352.79,550.51,1.00,1,1,1,978.38,-1.72,69476.17,519.38,-1.68,21333.63,464.66,-1.16,38428.33,119.30,1.59,26915.82,139.27,-0.52,9816.63
81000,352.77,545.79,1.00,1,1,1,213.68,-1.58,34730.87,481.12,-1.30,8879.84,283.13,-1.24,8323.85,311.99,-0.07,15550.76,185.13,0.77,8995.86
95600,357.57,533.51,1.00,1,1,1,902.78,-1.20,48526.17,285.22,0.16,36308.06,119.30,1.59,27284.53,152.37,-1.87,25865.18,254.91,1.47,11300.35
110300,361.03,547.10,1.00,1,1,1,953.85,1.32,120256.16,857.72,1.77,62173.61,85.47,-3.11,10056.13,142.14,-1.61,2749.41,214.76,0.31,17642.37
125200,352.65,558.42,1.00,1,1,1,945.02,2.21,54641.52,450.35,-3.03,62732.15,431.25,2.56,24472.03,139.27,-0.52,9750.75,638.21,0.16,28689.39
140000,347.73,545.62,1.00,1,1,1,926.48,-1.94,110857.41,659.38,-2.56,22103.53,102.79,-2.97,24541.77,185.13,0.77,13433.01,849.75,0.07,14883.44
155300,336.02,547.59,1.00,1,1,1,776.63,2.97,70871.01,174.01,0.04,53200.89,354.09,-0.81,27408.41,254.91,1.47,10783.34,1141.68,-0.01,19842.89
177400,354.24,545.90,1.00,1,1,1,827.98,-0.09,72556.92,915.48,-0.19,33813.14,408.43,0.64,23077.85,214.76,0.31,11734.97,1441.73,-0.02,13580.09
191800,368.83,541.26,1.00,1,1,1,1063.14,-0.31,21497.06,758.45,0.81,56678.19,461.51,0.62,3737.10,638.21,0.16,29685.55,1577.74,-0.01,9465.08
206600,369.47,561.97,1.00,2,2,2,1399.88,1.54,133475.46,863.09,1.89,56769.61,576.85,0.29,14112.24,1419.86,0.10,52914.86,1621.80,-0.02,3241.28
221300,360.73,565.40,1.00,2,2,2,639.07,2.77,90428.46,625.51,-0.36,91776.29,1179.71,0.44,41899.19,2409.16,0.05,67625.07,1459.66,-0.00,11254.87
236100,386.73,555.43,1.00,2,2,2,1881.50,-0.37,170307.91,2417.72,0.08,126368.40,2501.61,0.02,101499.24,2981.00,0.03,38794.58,1436.65,-0.07,6601.86
250800,431.84,570.81,1.00,3,3,3,3242.65,0.33,147178.80,4041.88,0.07,110506.25,4428.31,-0.00,131186.53,3123.15,0.01,10670.24,1516.70,-0.12,7346.92
273000,535.55,565.30,1.00,1,1,1,4677.83,-0.05,92781.14,6048.34,-0.03,92900.70,5114.51,0.01,31020.10,3123.78,-0.07,10896.09,1594.76,-0.07,4707.36
287600,654.32,564.07,1.00,1,1,1,8135.73,-0.01,237529.15,6457.94,-0.04,28235.73,4966.31,-0.08,30936.73,2694.86,-0.08,29564.52,1658.67,-0.05,4987.80
302800,727.86,558.04,1.00,1,1,1,4854.03,-0.08,217912.19,3641.87,-0.17,190291.50,3847.28,-0.13,75213.62,2495.77,-0.10,13269.52,1627.92,0.02,7775.34
317100,760.13,545.47,1.00,1,1,1,2422.31,-0.37,183579.37,1328.11,-0.62,175282.77,1315.32,-0.30,179115.54,2221.85,-0.18,23422.28,1583.18,0.04,3958.40
331600,759.08,535.94,1.00,1,1,1,661.19,-1.68,161427.28,269.07,-1.89,88031.41,558.47,-1.00,65943.85,1778.10,-0.19,30691.89,1441.70,-0.04,12800.04
368400,755.76,532.38,1.00,1,1,1,132.24,-2.32,15232.57,331.53,-1.99,1858.92,479.13,-0.99,2160.50,1073.75,-0.24,19221.39,1359.16,-0.10,3316.91
383200,752.17,520.29,1.00,1,1,1,851.99,-1.86,49718.20,879.09,-0.70,57202.69,535.11,-0.48,17582.69,575.25,-0.04,35336.27,1389.07,-0.06,4578.94
412400,785.24,507.33,1.00,1,1,1,1216.38,-0.37,48800.37,1203.05,-0.15,22174.46,838.19,-0.15,12899.79,394.91,0.22,7470.17,1629.39,-0.05,8238.17
427100,804.37,512.28,1.00,1,1,1,1344.51,0.25,54342.87,1101.45,0.39,42210.70,945.90,0.46,37017.94,154.87,0.39,16589.02,1843.63,0.01,16428.25
449100,822.69,522.55,1.00,1,1,1,954.38,0.51,22125.28,1225.65,1.21,42507.13,965.65,0.95,20986.30,76.45,-2.37,10343.95,1969.58,0.02,5740.11
463800,820.40,554.31,1.00,1,1,1,2166.40,1.64,133423.72,1248.42,1.58,31244.38,605.13,2.16,64018.88,244.46,0.34,21451.93,2042.45,0.00,5400.49
478500,822.37,559.25,1.00,1,1,1,361.69,1.19,125693.12,1338.18,-2.91,137274.77,1268.24,3.11,70770.41,986.51,0.30,50497.69,2005.74,-0.00,2512.80
493100,782.19,545.49,1.00,2,2,2,2908.46,-2.81,216163.54,2781.49,-2.71,102544.82,720.33,-2.58,53665.07,2009.81,0.22,70431.38,1991.15,0.01,1629.75
507900,748.15,524.90,1.00,2,2,2,2688.01,-2.60,43030.08,472.52,-1.41,181846.02,1340.81,-0.16,131198.60,3197.53,0.13,81959.39,2220.67,0.02,15576.23
522900,784.40,531.59,1.00,2,2,2,2457.08,0.18,337423.88,4434.87,0.13,296363.04,4279.61,0.09,199849.00,3940.51,0.01,57014.25,2149.38,0.05,6760.71
544700,910.05,545.48,1.00,3,3,3,5799.14,0.11,153813.75,7806.35,0.14,154711.20,7182.21,0.10,133174.37,4107.78,-0.03,10253.25,2161.22,0.07,1602.48
558900,1062.60,571.31,1.00,3,3,3,10895.98,0.17,360376.35,10683.04,0.09,205324.79,8061.98,0.05,67885.17,4250.49,-0.01,11625.06,2098.10,0.08,4680.66
573600,1217.55,573.18,1.00,1,1,1,10541.12,0.01,115919.48,8459.50,-0.05,176961.81,7264.53,-0.00,60826.88,4626.53,0.03,28146.47,1808.71,0.08,19717.07
588300,1310.97,558.30,1.00,1,1,1,6435.52,-0.16,295035.68,4064.66,-0.24,308343.91,4264.51,-0.11,208058.13,4181.20,0.03,30312.78,1251.69,0.04,38217.38
603000,1333.57,544.57,1.00,1,1,1,1799.14,-0.55,327803.18,1008.44,-0.50,210870.66,2174.48,-0.21,143675.96,3443.47,-0.00,51071.84,535.38,0.06,48741.38
625200,1343.66,540.52,1.00,1,1,1,489.56,-0.38,59398.05,678.55,-0.05,22194.69,379.55,-0.33,81013.12,2236.43,-0.06,54908.58,72.54,2.46,26617.49
639900,1358.58,543.26,1.00,1,1,1,1031.83,0.18,45642.44,444.16,2.32,71067.43,88.75,-0.07,20046.27,520.96,-0.17,116941.47,314.14,3.00,17332.14
654600,1334.75,550.07,1.00,1,1,1,1685.71,2.86,180283.93,649.06,3.10,30898.98,218.36,1.70,17111.89,1026.92,3.09,105148.22,561.10,3.14,17285.73
669400,1339.45,544.14,1.00,1,1,1,511.21,-0.90,143385.45,269.48,0.42,60703.30,1141.84,2.89,73050.01,2491.04,3.08,98930.58,1062.75,-3.13,33905.42
684100,1342.02,553.28,1.00,1,1,1,645.86,1.30,70217.09,1554.30,2.83,120012.55,2170.62,3.05,71887.52,4133.14,3.11,111924.68,1614.62,-3.11,37567.59
705900,1285.51,561.72,1.00,2,2,2,2621.09,2.99,127399.63,3554.92,3.07,95405.37,4611.06,3.08,112039.80,4337.42,-3.13,11884.49,2224.41,3.14,28105.07
735400,1160.14,566.50,1.00,2,2,2,4253.08,3.10,56706.03,7177.42,3.12,123155.08,7126.46,3.13,85915.06,4420.72,-3.12,3919.39,2596.22,3.12,12772.23
750200,967.60,567.35,1.00,3,3,3,13009.26,3.14,591877.42,13377.25,-3.12,419718.69,6567.35,-3.10,43292.10,4535.53,-3.14,10081.20,2577.43,3.09,3778.98
764800,766.94,557.97,1.00,3,3,3,13759.06,-3.09,69479.55,6061.62,-3.05,503045.29,6685.69,-3.08,14597.11,4587.84,3.14,4679.97,2682.82,3.11,7518.17
801700,656.80,538.08,1.00,1,1,1,3032.99,-2.96,291595.70,2898.26,-2.96,86241.70,4480.96,-3.07,59762.61,4563.69,3.12,1604.19,2787.00,3.11,2838.41
816400,619.72,531.69,1.00,1,1,1,2560.13,-2.97,32203.15,1738.01,3.09,86457.23,2064.99,-3.14,164953.31,4245.64,3.12,21644.98,2728.78,3.12,4337.82
831200,605.61,540.90,1.00,1,1,1,1138.19,2.56,127864.65,1103.41,2.25,87465.98,1452.90,2.71,65135.42,2664.30,3.11,106888.67,2743.87,3.11,2254.60
846000,599.26,557.15,1.00,1,1,1,1179.19,1.94,47866.21,1434.85,2.26,22409.11,1202.69,2.43,30156.65,1309.41,3.09,91570.98,2725.75,3.11,1421.67
860800,578.70,573.75,1.00,1,1,1,1785.73,2.46,64930.00,1337.35,2.59,31366.68,746.69,2.23,33325.46,816.36,2.84,37555.17,2549.70,3.10,12053.16
875400,565.86,577.89,1.00,1,1,1,924.06,2.83,67222.15,195.30,2.10,80036.66,409.72,2.75,30176.42,610.02,2.66,16659.67,2160.15,3.10,26682.33
897600,575.09,579.97,1.00,1,1,1,426.28,0.22,58974.90,362.84,-0.90,25081.55,308.78,-2.86,11485.14,480.29,2.64,5862.87,1437.21,3.07,32693.88
912200,574.16,567.43,1.00,1,1,1,860.93,-1.64,73021.13,680.25,-2.50,53502.12,266.32,-2.47,8093.05,341.26,2.69,9632.77,553.14,2.97,60822.92
926900,559.09,568.07,1.00,1,1,1,1025.96,3.10,89701.54,754.98,-3.12,30108.89,416.95,-2.71,11538.22,225.81,2.54,8363.64,96.63,0.34,43500.44
941500,552.05,566.97,1.00,1,1,1,488.64,-2.99,38029.19,217.65,2.89,37589.72,266.13,2.59,23921.01,96.14,1.05,16294.99,453.25,-0.04,25009.21
956200,552.92,569.68,1.00,1,1,1,194.08,1.26,40930.15,421.08,0.77,38433.11,349.38,1.79,17131.04,134.18,1.44,3908.36,635.91,-0.05,12433.72
970800,560.87,575.59,1.00,1,1,1,678.24,0.64,36451.64,569.55,1.52,26381.58,449.26,0.83,25980.54,374.45,0.34,22907.94,733.91,-0.05,6717.27
993000,554.06,590.61,1.00,1,1,1,742.89,2.00,40244.55,472.49,0.87,15468.45,547.85,0.83,4441.30,982.42,-0.18,30845.02,815.33,0.01,4156.36
1007800,572.14,588.96,1.00,2,2,2,1226.57,-0.09,116188.43,814.57,0.25,34458.81,869.78,0.13,38706.11,1425.14,-0.21,30031.65,762.42,0.02,3597.23
1022500,577.34,596.58,1.00,2,2,2,627.48,0.97,72946.57,1570.84,-0.12,58845.37,2273.41,-0.34,105528.75,1658.42,-0.17,16469.98,718.59,-0.20,11076.01
1037400,618.29,583.27,1.00,2,2,2,2889.57,-0.31,186528.88,3919.98,-0.46,167230.78,2658.88,-0.36,26086.03,1629.60,-0.12,6333.81,753.28,-0.20,2331.38
1051600,679.60,546.03,1.00,3,3,3,5051.93,-0.55,164481.92,3592.66,-0.45,23318.08,3067.25,-0.32,29710.83,1772.65,-0.06,12108.05,979.32,-0.18,15981.42
1073800,736.28,526.89,1.00,1,1,1,2694.82,-0.33,112279.06,2456.50,-0.15,64270.54,2290.91,-0.20,38195.36,1351.38,-0.03,19065.08,1191.63,-0.10,10195.82
1088400,768.93,532.15,1.00,1,1,1,2264.87,0.16,86491.61,1495.90,0.32,90380.70,1541.38,0.24,75803.19,1287.04,-0.28,22303.20,1340.01,-0.08,10434.59
1117500,798.29,547.60,1.00,1,1,1,1140.01,0.48,42576.20,1225.15,0.95,30402.48,802.15,0.80,32955.19,1100.45,-0.34,6852.33,1435.74,-0.03,4031.49
1131800,799.65,575.55,1.00,1,1,1,1957.31,1.52,118341.95,682.02,1.83,66008.37,113.63,0.79,48147.98,976.95,-0.17,14729.07,1538.74,-0.08,9009.25
1168700,789.45,581.38,1.00,2,2,2,318.32,2.62,49732.04,824.66,-2.15,37389.35,324.18,-2.08,11785.72,1007.29,0.03,5540.07,1492.28,-0.09,1398.43
1183400,776.50,539.84,1.00,2,2,2,2959.42,-1.87,207061.04,1916.72,-1.64,85658.12,820.65,-1.01,49233.59,1092.13,0.04,5837.11,1497.83,-0.13,4090.25
1198300,785.41,524.79,1.00,3,3,3,1174.28,-1.04,157103.31,2099.80,-0.34,163439.06,1923.40,-0.45,87435.76,1256.59,0.09,11623.75,1320.89,-0.10,12240.67
1212900,834.86,519.08,1.00,1,1,1,3409.42,-0.11,195679.41,3633.93,0.07,130178.60,2555.63,0.00,80969.98,1317.87,-0.10,17451.73,1082.21,-0.01,18097.23
1227400,890.92,531.88,1.00,1,1,1,3965.74,0.22,93869.30,3082.13,0.19,47270.00,3054.61,0.20,51370.76,1680.26,-0.16,25586.30,1009.12,0.18,14346.38
1249000,944.15,539.95,1.00,1,1,1,2492.49,0.15,69052.73,2643.29,0.34,28880.13,2461.94,0.23,27733.01,1803.94,-0.00,13645.74,827.56,0.20,8476.12
1263700,981.25,564.26,1.00,1,1,1,3016.97,0.58,87172.74,1711.14,0.32,63482.19,1620.02,0.16,58050.75,1657.09,0.09,14421.29,425.59,0.15,27442.60
1278400,991.85,555.95,1.00,1,1,1,916.51,-0.66,194470.80,725.11,-0.79,104281.70,962.47,-0.01,46940.98,1242.86,0.15,28849.18,166.25,-1.63,33185.26
1293400,996.46,549.02,1.00,1,1,1,554.87,-0.98,28434.81,635.17,-1.08,14633.90,446.54,-0.77,47281.17,1038.17,0.35,20063.90,631.50,-2.51,36050.25
1307600,1000.55,539.57,1.00,1,1,1,725.18,-1.16,14407.56,219.64,-0.72,30791.08,199.84,-1.21,19629.50,552.99,0.62,37199.59,951.08,-2.72,25207.43
1329800,1002.49,543.78,1.00,1,1,1,208.49,1.14,39550.94,153.72,2.35,16805.96,566.44,0.90,31068.13,547.20,3.14,47149.28,1231.96,-2.75,12733.02
1344500,996.57,543.62,1.00,2,2,2,402.87,-3.11,36015.69,1308.07,1.11,86167.87,612.03,1.58,26813.12,1566.58,-3.01,69862.41,1504.02,-2.83,20090.50
1359200,1019.69,578.18,1.00,2,2,2,2828.32,0.98,209444.28,1247.10,1.47,31454.11,1555.48,2.91,104401.78,2597.86,-2.96,70566.54,1819.27,-2.86,21636.59
1374000,1000.34,580.21,1.00,2,2,2,1314.13,3.04,245384.77,3609.33,-3.02,275513.55,3368.68,-3.08,130595.90,3448.66,-2.92,57912.22,2006.89,-2.87,12865.32
1389100,912.63,564.57,1.00,2,2,2,5900.63,-2.97,308111.83,7004.76,-2.90,228025.51,5600.03,-2.89,157039.02,4213.25,-2.87,52104.88,2049.61,-2.85,4055.68
1403900,796.91,530.40,1.00,2,2,2,8152.48,-2.85,160738.21,7253.95,-2.84,34045.92,7053.46,-2.84,100862.23,4073.73,-2.88,9528.73,2123.63,-2.87,5630.57
1425800,658.42,485.50,1.00,3,3,3,6647.78,-2.83,69279.38,7115.35,-2.78,19512.59,6798.68,-2.77,22726.09,4507.91,-2.84,20856.83,2597.86,-2.96,23475.53
1440400,553.65,439.44,1.00,3,3,3,7838.93,-2.73,95555.62,6277.79,-2.68,74453.67,4666.74,-2.77,146024.93,4138.73,-2.84,25422.82,3448.66,-2.92,58705.53
1455200,493.17,403.30,1.00,3,3,3,4760.51,-2.60,214231.29,2645.86,-2.75,246116.11,3530.16,-2.78,76809.17,3230.79,-2.82,61553.12,4213.25,-2.87,53161.06
1484600,445.64,394.60,1.00,1,1,1,1643.46,-2.96,111289.74,1762.67,-3.01,35745.13,1775.65,-2.83,59859.50,2572.07,-2.81,22425.28,4073.73,-2.88,4796.78
1499200,416.25,393.33,1.00,1,1,1,2014.58,-3.10,30661.70,810.04,3.12,66383.26,805.69,-3.05,68822.26,3530.16,-2.78,65868.82,4507.91,-2.84,31285.25
1522300,415.11,395.23,1.00,1,1,1,96.10,2.11,85296.84,59.14,1.66,34870.22,522.86,-3.10,12314.16,1775.65,-2.83,76184.82,4138.73,-2.84,16068.10
1551400,415.97,396.40,1.00,1,1,1,50.01,0.94,3081.00,280.48,-2.94,10058.74,59.14,1.66,17980.13,805.69,-3.05,34529.38,3230.79,-2.82,31305.37
1566100,403.06,392.80,1.00,1,1,1,911.33,-2.87,64704.80,911.33,-2.87,42988.80,280.48,-2.94,19912.20,522.86,-3.10,19350.82,2572.07,-2.81,44850.55
