@RELATION gaze_labels

%@METADATA width_px 1920
%@METADATA height_px 1080
%@METADATA width_mm 540.00
%@METADATA height_mm 254.00
%@METADATA distance_mm 620.00


@ATTRIBUTE time INTEGER
@ATTRIBUTE x NUMERIC
@ATTRIBUTE y NUMERIC
@ATTRIBUTE confidence NUMERIC
@ATTRIBUTE handlabeller1 INTEGER
@ATTRIBUTE handlabeller2 INTEGER
@ATTRIBUTE handlabeller_final INTEGER
@ATTRIBUTE speed_1 numeric
@ATTRIBUTE direction_1 numeric
@ATTRIBUTE acceleration_1 numeric
@ATTRIBUTE speed_2 numeric
@ATTRIBUTE direction_2 numeric
@ATTRIBUTE acceleration_2 numeric
@ATTRIBUTE speed_4 numeric
@ATTRIBUTE direction_4 numeric
@ATTRIBUTE acceleration_4 numeric
@ATTRIBUTE speed_8 numeric
@ATTRIBUTE direction_8 numeric
@ATTRIBUTE acceleration_8 numeric
@ATTRIBUTE speed_16 numeric
@ATTRIBUTE direction_16 numeric
@ATTRIBUTE acceleration_16 numeric

%The number after speed, direction denotes the step size that was used for the calculation.
%Acceleration was calculated between two adjacent samples of the already low pass filtered velocity

@DATA
0,-2.12,427.73,1.00,1,1,1,0.00,0.00,0.00,1588.72,-0.19,0.00,1084.14,0.25,0.00,1026.32,1.02,0.00,543.13,1.28,0.00
14500,20.52,423.47,1.00,1,1,1,1588.72,-0.19,109566.78,1084.14,0.25,52373.74,1153.47,1.35,80951.61,837.07,1.37,25681.68,486.43,1.66,14149.57
29200,28.55,435.56,1.00,1,1,1,987.45,0.98,102619.47,1153.47,1.35,79850.22,1026.32,1.02,26072.19,855.05,1.71,19738.27,341.71,1.58,10111.53
43600,27.77,456.24,1.00,1,1,1,1437.28,1.61,59627.34,1473.96,1.55,28507.79,837.07,1.37,25860.02,644.22,1.96,19365.22,74.20,1.31,18817.71
58700,29.46,479.03,1.00,1,1,1,1513.40,1.50,11973.47,587.78,1.39,59525.30,855.05,1.71,19215.40,543.13,1.28,26983.49,142.47,-1.70,14320.67
80500,31.71,477.57,1.00,1,1,1,123.15,-0.58,72308.84,417.42,2.18,19264.43,644.22,1.96,12791.71,486.43,1.66,9411.41,80.61,-1.16,3864.39
95300,20.66,491.53,1.00,1,1,1,1202.51,2.24,89173.59,920.28,2.40,35179.25,288.69,1.99,24045.96,341.71,1.58,10043.21,382.52,-0.17,23314.38
110000,11.64,495.86,1.00,1,1,1,680.57,2.69,44992.01,199.62,1.66,53362.23,318.46,2.22,5032.70,74.20,1.31,18433.67,860.44,-0.01,33097.45
139700,19.85,500.35,1.00,1,1,1,314.81,0.50,30337.34,95.06,1.31,3871.02,77.17,-0.08,12596.90,142.47,-1.70,7280.88,895.23,0.16,5225.99
176600,13.25,501.98,1.00,1,1,1,184.10,2.90,12662.13,241.78,-0.85,8279.08,300.59,-0.94,6973.83,80.61,-1.16,2283.02,1037.54,0.10,4204.13
191300,28.05,490.95,1.00,1,1,1,1255.58,-0.64,97080.30,852.77,-1.07,42113.98,488.16,-1.43,17986.12,382.52,-0.17,23472.98,1015.63,0.01,6146.40
220700,31.19,468.93,1.00,2,2,2,756.50,-1.43,30595.26,837.34,-1.62,15542.42,598.80,-1.00,8831.01,860.44,-0.01,16548.73,1022.39,-0.04,1910.24
235400,26.20,454.07,1.00,2,2,2,1066.53,-1.89,35216.74,242.57,-0.58,50694.19,744.85,-0.18,37416.13,1519.20,-0.12,45585.77,944.94,-0.11,6893.40
250100,37.16,465.04,1.00,3,3,3,1054.88,0.79,140491.45,1803.01,0.40,114298.64,2036.85,0.19,93120.18,2303.22,-0.15,53477.76,944.67,-0.06,2826.40
272300,87.41,480.15,1.00,1,1,1,2363.36,0.29,68411.66,3519.13,0.23,79820.46,3594.15,0.07,71560.33,2223.59,-0.17,3999.80,979.65,-0.16,4522.29
287100,164.02,494.38,1.00,1,1,1,5265.29,0.18,197776.24,5992.39,-0.05,187635.10,4432.78,-0.04,63849.03,2443.12,-0.08,19676.29,988.22,-0.18,1183.86
301900,264.57,471.55,1.00,1,1,1,6966.93,-0.22,201435.64,5834.76,-0.23,74287.15,4247.01,-0.16,38925.40,2212.61,-0.02,18279.81,1117.89,-0.15,8994.75
316800,332.64,454.41,1.00,1,1,1,4710.95,-0.25,151675.47,2628.65,-0.42,220841.35,3045.75,-0.29,86046.24,2104.33,-0.02,7271.86,1492.93,-0.09,25745.51
331500,335.55,439.67,1.00,1,1,1,1021.93,-1.38,297477.61,399.49,-1.19,160445.82,913.97,-0.41,145654.61,1823.18,-0.16,26634.94,1863.81,-0.02,26203.03
346300,336.99,443.45,1.00,1,1,1,273.55,1.21,85291.00,462.46,2.66,54589.10,247.57,2.84,78414.06,1202.90,-0.35,45883.36,2506.44,-0.00,43520.07
368400,320.40,447.53,1.00,1,1,1,772.71,2.90,38482.60,694.02,2.47,11570.01,347.71,2.96,4812.08,604.58,-0.25,27325.06,2913.05,-0.01,18408.36
383100,316.98,459.33,1.00,1,1,1,835.44,1.85,54808.20,285.04,-2.68,42718.70,469.63,-3.13,9830.23,614.17,0.18,17523.89,3030.64,-0.04,10045.33
397600,312.95,443.84,1.00,1,1,1,1103.79,-1.83,129034.97,667.00,-2.17,30403.21,313.24,0.28,53514.99,1542.69,0.19,64046.96,2868.08,-0.08,14077.66
412500,305.90,443.15,1.00,2,2,2,475.26,-3.04,69813.79,890.59,0.34,99439.60,1551.66,0.09,83580.28,2580.25,0.07,71630.27,2520.78,-0.11,23837.54
427700,338.25,452.69,1.00,2,2,2,2219.01,0.29,176795.33,3532.69,0.24,174216.44,3402.80,0.16,122156.82,3656.89,0.00,72129.73,2149.58,-0.10,24454.91
442400,408.60,467.84,1.00,2,2,2,4895.39,0.21,182830.40,5499.56,0.13,137414.63,5620.23,0.06,153357.64,4015.24,-0.05,27516.65,1827.84,-0.09,21945.02
464000,536.16,478.85,1.00,1,1,1,5927.66,0.09,57187.89,7390.50,-0.00,96342.45,6672.61,-0.01,53079.13,3809.18,-0.05,9547.49,1815.40,-0.05,3201.29
478900,678.35,466.50,1.00,1,1,1,9578.66,-0.09,260102.95,8231.11,-0.13,85768.86,6249.17,-0.08,41187.67,3677.22,-0.04,8918.66,1740.17,-0.04,5275.29
493700,778.61,447.54,1.00,1,1,1,6894.68,-0.19,189526.54,4907.48,-0.22,228138.77,4281.80,-0.19,138433.17,3476.69,-0.08,15959.94,1727.41,-0.06,2716.09
508300,819.09,434.73,1.00,1,1,1,2907.74,-0.31,275529.31,1669.45,-0.40,224520.49,2168.28,-0.27,145631.76,2789.14,-0.13,48530.60,1729.64,-0.10,4314.83
537800,846.41,418.83,1.00,1,1,1,1071.52,-0.53,63621.81,629.16,-0.47,35343.42,959.69,-0.46,42022.57,2111.36,-0.20,23672.57,1769.89,-0.09,1451.69
560100,848.16,420.00,1.00,1,1,1,94.80,0.59,46347.52,166.03,-1.23,23377.41,473.37,-0.62,22372.29,1059.05,-0.26,47343.77,1848.36,-0.08,3628.76
574900,848.48,413.03,1.00,1,1,1,471.92,-1.53,35631.39,320.42,-0.99,11068.26,147.42,-0.49,22153.48,295.92,-0.67,53803.16,1629.21,-0.09,14879.50
604200,855.92,408.20,1.00,1,1,1,302.82,-0.58,13130.24,192.40,0.02,9280.66,164.15,2.76,10617.98,148.84,-1.85,9418.97,1388.94,-0.14,8567.91
619100,856.98,413.19,1.00,1,1,1,342.59,1.36,35730.30,845.46,2.43,66936.79,400.92,2.99,16384.31,219.41,-2.49,8959.80,1209.07,-0.20,13289.06
633800,836.92,424.48,1.00,1,1,1,1566.05,2.63,102019.31,1109.10,3.03,42643.87,653.39,3.07,17358.17,153.36,-2.17,5988.11,1139.39,-0.15,6439.60
656000,816.32,417.79,1.00,1,1,1,976.02,-2.83,52051.03,747.10,-2.65,29284.19,585.51,-2.77,12703.41,314.69,-3.09,11433.60,1299.46,-0.07,8359.65
670900,812.46,411.45,1.00,1,1,1,497.95,-2.12,45705.89,650.08,-1.34,57396.61,335.41,-1.61,36708.62,416.64,3.05,7656.05,1567.91,-0.03,18480.62
685600,820.70,399.05,1.00,1,1,1,1012.53,-0.98,62551.46,865.67,-0.37,49739.49,233.13,-2.61,19577.93,156.07,-0.20,38914.12,1584.05,-0.00,2944.06
700200,836.09,402.23,1.00,1,1,1,1076.25,0.20,80128.92,682.91,2.51,105216.66,148.72,2.96,10551.40,1248.44,-0.04,74983.63,1577.84,-0.01,845.70
715000,804.45,410.84,1.00,2,2,2,2215.86,2.88,217088.39,1152.05,2.82,36560.78,865.73,0.18,68016.69,2677.89,0.01,96761.30,1597.08,-0.01,1301.86
729700,803.86,412.99,1.00,2,2,2,151.70,1.84,145750.08,1969.83,-0.02,210185.71,2519.58,0.10,112779.72,3665.22,0.02,67226.43,1730.29,-0.01,9079.24
752000,877.31,409.06,1.00,1,1,1,3298.65,-0.05,150216.35,5388.25,0.03,153478.58,5253.74,0.03,123085.65,3670.85,0.04,2881.69,1674.15,-0.06,4467.54
766600,1002.61,418.43,1.00,1,1,1,8605.92,0.07,366496.73,9448.34,0.05,278224.26,7065.63,0.02,124172.93,3340.22,0.03,22763.07,1403.80,-0.08,18638.35
781000,1151.03,421.43,1.00,1,1,1,10309.45,0.02,123535.16,9200.23,0.02,25833.09,6875.69,0.02,13230.92,3619.53,-0.00,21103.85,893.39,0.03,36425.00
795600,1269.38,422.54,1.00,1,1,1,8106.47,0.01,151040.90,4336.85,-0.03,333586.14,4174.40,-0.01,185346.26,3768.85,-0.02,11244.87,273.26,1.27,58007.01
810300,1278.06,418.15,1.00,1,1,1,661.69,-0.47,511913.57,288.04,-0.61,278902.21,2005.35,-0.09,148407.90,3126.09,-0.05,44415.95,848.54,2.50,54373.87
832600,1278.11,416.43,1.00,1,1,1,77.28,-1.54,28183.38,272.95,-0.98,4701.24,572.30,-0.55,67974.79,1533.82,-0.11,71619.47,1279.52,2.70,21421.01
847400,1283.67,409.72,1.00,1,1,1,588.72,-0.88,35809.64,933.34,-0.53,47171.35,578.52,-0.77,8541.73,492.09,3.10,136823.53,1245.62,2.78,7062.15
861800,1301.61,402.63,1.00,1,1,1,1339.64,-0.38,60478.98,844.42,-0.72,12967.03,417.21,-2.45,51884.87,2494.77,2.99,139349.41,1205.35,2.88,8819.70
891100,1311.51,385.50,1.00,1,1,1,675.26,-1.05,31151.05,840.00,-2.93,51426.05,2242.61,3.07,66999.23,3842.12,2.94,46220.80,1420.41,2.93,7783.15
927400,1247.73,391.10,1.00,2,2,2,1763.88,3.05,61197.64,4762.04,2.98,109956.52,4325.59,2.96,58225.30,4631.89,2.95,21774.57,1832.86,3.01,11827.65
942100,1071.82,424.65,1.00,2,2,2,12181.96,2.95,709424.90,9655.68,2.91,334638.44,7531.56,2.91,218908.37,4838.99,2.98,16776.81,2231.43,3.04,27437.18
971200,836.51,489.91,1.00,3,3,3,8391.46,2.87,133339.21,10770.78,2.87,40273.59,9770.38,2.91,76945.80,4909.07,3.02,6739.53,2639.69,3.07,14293.98
986000,616.26,551.30,1.00,3,3,3,15449.05,2.87,476865.65,9906.98,2.92,67342.57,7900.73,2.95,128164.44,5337.67,3.01,29007.61,2682.30,3.07,2899.11
1008100,480.00,570.76,1.00,1,1,1,6228.38,3.00,421190.83,4624.56,-3.12,250646.93,5900.59,3.09,100470.66,5730.04,3.02,17776.37,2794.26,3.06,5313.56
1022800,446.13,547.23,1.00,1,1,1,2805.63,-2.53,312258.61,2362.46,-2.09,270126.63,2504.93,-2.80,252132.58,4147.91,3.03,107750.36,2797.31,3.02,6059.38
1037500,445.83,510.29,1.00,1,1,1,2513.07,-1.58,167315.60,1802.70,-1.29,114669.07,1412.30,-1.84,140129.81,2858.12,-3.11,93572.17,2874.22,3.00,7069.45
1051900,460.46,496.76,1.00,1,1,1,1383.12,-0.75,130830.33,780.30,-0.99,75284.93,911.16,-1.18,61555.94,1343.08,-2.71,118438.40,2899.60,2.99,2080.92
1066300,458.18,491.51,1.00,1,1,1,397.43,-1.98,90717.23,262.86,-0.53,38645.44,516.16,-1.15,27476.56,732.05,-1.99,64629.35,2904.64,3.02,5124.53
1088400,468.72,491.89,1.00,1,1,1,477.11,0.04,33514.98,332.04,-1.45,12227.41,303.05,-1.83,15314.00,322.28,-1.46,21850.88,2362.86,3.07,25175.08
1103100,459.67,479.38,1.00,1,1,1,1050.15,-2.20,94912.63,668.61,-2.32,35358.76,235.35,-2.88,18830.24,112.74,1.42,29391.14,1753.05,-3.06,46573.00
1117800,455.39,477.45,1.00,1,1,1,319.88,-2.72,53655.30,626.51,2.69,52698.37,403.77,2.43,22714.55,124.04,0.93,3933.30,1151.58,-2.79,48453.09
1132500,443.13,487.49,1.00,1,1,1,1077.80,2.46,66580.54,1031.06,1.72,57573.40,788.17,1.83,34678.57,66.45,-0.59,9372.26,816.81,-2.60,25925.74
1147200,450.75,507.40,1.00,1,1,1,1450.44,1.21,102685.63,1261.67,1.44,27012.36,536.94,1.14,34243.28,333.71,-2.63,25096.58,583.22,-2.65,16030.32
1161800,447.95,524.14,1.00,1,1,1,1162.24,1.74,50661.89,527.95,0.13,84572.18,338.33,-0.04,35235.45,611.42,-2.80,19733.01,529.34,-2.99,13373.32
1184400,470.22,509.99,1.00,1,1,1,1167.41,-0.57,94144.21,1122.06,-1.13,48079.74,608.35,-2.05,35928.97,961.21,-2.91,15915.53,550.94,-2.99,964.61
1198700,465.51,486.65,1.00,2,2,2,1665.10,-1.77,115737.42,1856.19,-2.35,126305.24,1395.93,-2.28,57099.25,1116.99,-2.99,12271.04,539.73,-2.95,1964.79
1213500,432.26,471.56,1.00,3,3,3,2467.32,-2.72,136040.86,2873.92,-2.74,92053.67,2479.23,-2.72,91040.44,1007.92,-2.90,9656.18,575.87,-2.98,2667.68
1228100,387.59,453.99,1.00,3,3,3,3287.95,-2.77,57087.96,3286.41,-2.92,45969.68,2741.33,-3.02,56437.67,1007.99,-2.90,308.39,295.18,-3.11,19592.33
1242800,338.38,450.13,1.00,1,1,1,3357.56,-3.06,66956.49,2819.43,2.99,83097.45,1552.85,3.14,82929.14,1160.38,-2.92,10509.29,57.72,0.01,24006.18
1257800,304.77,466.38,1.00,1,1,1,2488.76,2.69,116149.28,751.80,2.53,144757.97,1117.27,2.75,44254.12,1041.85,-2.99,9156.23,568.27,-0.10,34062.13
1294500,306.48,472.34,1.00,1,1,1,168.81,1.29,67184.18,427.69,1.62,16211.85,442.89,2.39,19656.90,782.12,-3.09,7498.71,1093.36,-0.24,14638.22
1309300,303.64,488.38,1.00,1,1,1,1100.81,1.75,64328.23,211.91,0.40,27558.99,52.46,-1.33,32964.38,159.90,2.08,49049.85,1443.77,-0.27,23786.52
1323900,312.23,474.75,1.00,1,1,1,1103.43,-1.01,148160.40,607.65,-1.48,48077.88,97.02,-1.70,3561.49,838.46,0.20,61648.44,1509.76,-0.25,4807.17
1353700,306.00,461.50,1.00,2,2,2,491.24,-2.01,31388.22,236.25,-2.16,15025.97,887.80,-0.16,29868.35,1854.28,0.02,34957.75,1594.07,-0.17,5099.10
1375900,305.44,464.51,1.00,2,2,2,137.71,1.75,27407.47,1910.60,0.22,94000.79,1958.25,0.02,49407.41,3212.94,-0.09,62307.19,1662.21,-0.13,4362.62
1390600,374.85,476.64,1.00,3,3,3,4793.53,0.17,326317.40,5644.30,0.08,255842.36,4511.87,0.03,173745.22,3917.00,-0.14,49199.89,1782.83,-0.09,9522.60
1405500,471.99,477.66,1.00,3,3,3,6519.79,0.01,130877.17,7806.09,-0.02,151776.97,7637.73,-0.07,213843.65,3938.87,-0.13,3040.67,1858.50,-0.10,5297.07
1420200,605.86,471.72,1.00,1,1,1,9115.65,-0.04,178919.47,9731.14,-0.16,153969.00,8077.60,-0.13,43792.18,4620.64,-0.09,47780.13,1938.05,-0.11,5550.36
1435100,756.45,432.34,1.00,1,1,1,10446.22,-0.26,164518.33,8439.50,-0.23,97826.22,6406.82,-0.18,114486.88,4811.81,-0.09,12886.29,1942.87,-0.12,1023.51
1449800,848.95,414.15,1.00,1,1,1,6413.03,-0.19,276495.03,3738.22,-0.22,319836.76,4792.32,-0.20,110075.71,4211.43,-0.13,42442.64,2023.77,-0.12,5503.90
1471900,890.62,401.96,1.00,1,1,1,1964.54,-0.28,201811.60,1877.04,-0.07,86062.90,2293.01,-0.14,113390.38,3249.56,-0.20,45142.88,2275.78,-0.08,11953.14
1486600,917.83,409.00,1.00,1,1,1,1912.13,0.25,70135.38,625.24,0.49,94466.77,759.88,-0.09,104407.39,2087.40,-0.25,79649.80,2705.54,-0.03,30575.47
1501400,906.91,410.60,1.00,1,1,1,745.62,3.00,176709.01,634.43,3.11,82226.62,345.44,-2.91,73873.85,601.56,-0.27,100402.81,3079.07,-0.04,25454.49
1516100,899.12,409.65,1.00,1,1,1,533.64,-3.02,18417.11,1311.71,-2.79,51876.48,988.80,-3.09,44334.16,85.36,1.27,41172.45,2972.09,-0.03,7590.27
1530700,870.83,397.35,1.00,1,1,1,2112.79,-2.73,110156.04,1345.35,-3.05,23827.05,1117.77,3.14,9738.19,375.20,0.55,21668.07,2729.00,-0.02,16802.34
1545700,859.47,406.05,1.00,1,1,1,954.06,2.49,123161.52,1093.00,2.79,39063.23,745.72,2.83,31092.52,926.83,0.27,38401.45,2085.31,0.00,43054.61
1567400,833.14,411.08,1.00,2,2,2,1235.09,2.95,26404.41,554.19,1.93,38815.93,1009.19,0.45,75125.05,1608.18,0.08,33101.26,1597.52,0.05,22826.85
1582200,852.27,424.95,1.00,2,2,2,1596.75,0.63,175890.66,3397.43,0.16,240118.14,2325.08,0.20,92662.08,2042.27,0.12,29800.45,1280.46,0.11,22106.72
1596400,930.48,426.31,1.00,2,2,2,5508.69,0.02,302721.07,4362.18,0.09,69907.81,3848.89,0.06,111286.13,2405.99,0.17,26580.13,1140.95,0.06,10639.78
1626000,1042.48,442.98,1.00,3,3,3,3825.45,0.15,60350.11,4117.64,0.01,14155.77,3951.30,0.07,3597.29,2160.97,0.17,8279.70,1081.07,0.09,2308.72
1647600,1141.28,429.31,1.00,1,1,1,4617.81,-0.14,66385.64,3598.65,0.04,24375.83,3406.57,0.11,26310.18,2375.12,0.11,11813.21,1180.75,0.10,4633.22
1676600,1224.45,449.76,1.00,1,1,1,2953.19,0.24,74789.99,2637.23,0.29,42480.28,2033.58,0.14,47444.33,2221.94,0.08,5798.58,1144.80,0.11,1448.27
1691300,1251.78,462.03,1.00,1,1,1,2038.52,0.42,69122.98,644.15,0.77,142048.05,1151.66,0.25,60992.47,1718.51,-0.02,36461.97,930.97,0.16,14914.70
1728300,1248.34,472.96,1.00,1,1,1,309.53,1.88,54755.14,132.60,-2.20,20951.60,216.92,0.34,25295.17,1235.70,-0.03,13059.39,515.06,0.21,11281.37
1743000,1247.73,456.51,1.00,1,1,1,1119.92,-1.61,96278.86,637.67,-1.97,34658.87,549.09,-2.01,48889.74,776.82,0.13,32858.01,126.68,0.36,26538.12
1757700,1241.00,455.71,1.00,1,1,1,460.79,-3.02,77758.92,1286.70,-1.97,44151.66,618.95,-1.76,10761.41,167.50,-0.00,41573.09,256.05,-3.12,25707.48
1772400,1232.90,421.70,1.00,1,1,1,2377.84,-1.80,153785.15,628.14,-1.55,51588.37,296.82,-0.77,35470.13,677.44,-2.95,57307.12,637.75,-3.05,26056.36
1787000,1241.35,437.30,1.00,2,2,2,1215.04,1.07,244198.15,1197.86,0.69,113885.82,152.95,-0.64,10021.68,1889.17,-3.00,83074.79,975.76,-3.00,23274.57
1802100,1260.36,444.33,1.00,2,2,2,1342.20,0.35,60239.69,396.21,1.01,55052.76,1238.59,2.88,91521.47,3042.05,-3.06,76901.37,1317.00,-3.08,23366.47
1823800,1249.10,449.65,1.00,2,2,2,573.81,2.70,82548.30,2919.95,-3.13,145243.93,3417.87,3.13,103317.62,3745.34,-3.07,32503.40,1640.62,-3.04,15145.78
1838600,1153.78,443.23,1.00,3,3,3,6454.86,-3.07,402726.27,7936.40,-3.10,339124.52,5948.87,-3.09,171989.76,3769.05,-3.11,10301.33,1704.77,-3.02,4829.27
1853400,1014.41,439.36,1.00,3,3,3,9420.92,-3.11,201485.12,9713.38,-3.08,120799.07,8108.99,-3.09,145966.07,3392.75,-3.07,27609.47,1781.06,-2.98,6771.35
1868000,868.84,424.33,1.00,1,1,1,10023.63,-3.04,64803.50,8286.76,-3.08,97713.96,6370.84,-3.06,119990.75,3529.91,-3.07,9424.27,1849.32,-3.03,6986.26
1882300,775.44,423.61,1.00,1,1,1,6531.46,-3.13,250055.95,3690.30,-3.02,322267.69,3389.54,-3.00,209293.34,3551.73,-3.05,4922.13,1755.70,-3.05,7294.06
1904600,734.84,407.38,1.00,1,1,1,1960.64,-2.76,213408.92,735.76,-2.50,137835.90,1548.84,-2.98,82556.72,2794.88,-3.04,33950.19,1724.76,3.13,7946.02
1933600,745.30,400.88,1.00,1,1,1,424.77,-0.56,77200.13,265.21,-0.21,32102.18,346.98,-2.29,44855.41,1689.18,-2.97,38473.43,1611.64,-3.11,4523.62
1948200,746.14,404.94,1.00,1,1,1,283.97,1.37,40186.73,400.17,0.15,12185.41,442.77,-0.11,48096.88,839.93,-2.93,58250.90,1664.33,-3.10,3825.25
1963000,756.95,402.58,1.00,1,1,1,747.07,-0.21,54201.01,708.45,-0.05,21996.04,377.78,-0.14,4469.48,233.67,-2.80,41171.04,1735.83,-3.07,5799.15
1977700,767.01,403.86,1.00,1,1,1,690.50,0.13,17040.02,383.21,-0.37,24866.64,96.07,-1.27,23677.57,129.89,1.38,21773.90,1544.87,-3.07,13000.25
2000100,770.18,397.40,1.00,1,1,1,321.38,-1.11,29495.02,526.58,-2.88,38646.89,233.32,2.70,13691.89,135.83,1.66,1652.09,1217.71,-3.05,14635.18
2015000,748.03,398.81,1.00,1,1,1,1489.53,3.08,112247.65,750.33,2.73,31719.44,451.16,2.46,15517.13,115.14,1.53,1775.51,847.13,-3.08,24926.99
2044300,739.83,410.76,1.00,1,1,1,494.84,2.17,42546.38,677.18,1.89,19873.39,385.03,2.38,2496.01,199.31,2.78,6725.77,233.67,-2.80,21370.21
2059000,738.62,427.08,1.00,1,1,1,1112.80,1.65,49585.48,243.65,1.28,33816.14,259.46,1.61,18246.51,480.74,3.07,20080.75,129.89,1.38,21773.90
2096100,743.40,422.87,1.00,2,2,2,171.66,-0.72,33457.38,174.79,-0.39,8465.16,167.39,2.90,7203.28,788.13,3.06,8286.75,135.83,1.66,997.49
2110800,746.99,423.64,1.00,3,3,3,250.19,0.21,13761.37,646.24,-2.65,52366.75,647.95,-2.80,35121.42,869.91,3.07,5592.28,115.14,1.53,1799.67
2125500,726.62,413.96,1.00,3,3,3,1534.67,-2.70,121025.78,2028.93,-2.90,95983.53,1630.75,-2.98,68018.29,167.39,2.90,47988.57,199.31,2.78,13405.79
2140200,689.09,409.33,1.00,1,1,1,2572.63,-3.02,82787.96,2646.32,-3.05,48529.25,2267.48,-3.03,43787.52,647.95,-2.80,35121.42,480.74,3.07,20080.75
2155200,648.33,407.06,1.00,1,1,1,2721.47,-3.09,15417.72,2530.54,-3.13,14590.50,2646.32,-3.05,25663.10,1630.75,-2.98,66657.93,788.13,3.06,20495.89
2170100,613.43,408.11,1.00,1,1,1,2342.98,3.11,29278.15,2342.98,3.11,14688.04,2530.54,-3.13,14688.42,2267.48,-3.03,43199.77,869.91,3.07,5517.22
