%@metadata width_px 1920.0
%@metadata height_px 1080.0
%@metadata width_mm 540.0
%@metadata height_mm 254.0
%@metadata distance_mm 620.0
% The number after speed, direction denotes the step size that was used for the calculation.
% Acceleration was calculated between two adjacent samples of the already low pass filtered velocity
@RELATION gaze_labels

@ATTRIBUTE time INTEGER
@ATTRIBUTE x NUMERIC
@ATTRIBUTE y NUMERIC
@ATTRIBUTE confidence NUMERIC
@ATTRIBUTE handlabeller_final INTEGER
@ATTRIBUTE EYE_MOVEMENT_TYPE {UNKNOWN, FIX, SACCADE, SP, NOISE, BLINK, NOISE_CLUSTER, PSO}

@DATA
0,133.01,394.51,1.0,1,FIX
21900,210.33,406.78,1.0,1,FIX
36600,220.71,354.9,1.0,1,FIX
51300,162.3,425.97,1.0,1,FIX
66000,179.58,374.25,1.0,1,FIX
80500,197.39,378.44,1.0,1,FIX
102500,192.08,368.7,1.0,1,FIX
116900,187.42,407.48,1.0,1,FIX
131500,214.04,364.94,1.0,1,FIX
146100,189.95,354.38,1.0,2,SACCADE
183000,235.11,424.93,1.0,2,SACCADE
197900,276.73,388.21,1.0,2,SP
227300,419.61,400.73,1.0,1,FIX
241900,524.61,405.87,1.0,1,FIX
256700,543.31,424.78,1.0,1,FIX
272000,558.08,389.15,1.0,1,FIX
293800,595.09,437.26,1.0,1,FIX
308500,520.09,350.78,1.0,1,FIX
322900,583.25,395.82,1.0,1,FIX
337700,608.04,430.56,1.0,2,SACCADE
352500,598.17,425.24,1.0,2,SACCADE
374600,588.67,398.34,1.0,2,SACCADE
389400,734.17,523.98,1.0,2,SP
404100,1021.03,583.93,1.0,3,FIX
418800,1240.64,703.3,1.0,3,FIX
433500,1241.2,596.74,1.0,1,FIX
448200,1211.97,575.37,1.0,1,FIX
470300,1260.25,581.72,1.0,1,FIX
485300,1236.75,593.73,1.0,1,FIX
500000,1182.46,533.36,1.0,1,FIX
514400,1239.12,601.09,1.0,1,FIX
543900,1220.76,571.12,1.0,1,FIX
565800,1176.41,577.53,1.0,1,FIX
580500,1183.47,577.7,1.0,2,NOISE
610200,1140.99,531.43,1.0,2,NOISE
624800,1148.26,638.24,1.0,2,NOISE
647100,1115.55,723.74,1.0,4,NOISE
661700,1118.11,964.12,1.0,4,NOISE
676500,1103.17,1115.96,1.0,4,NOISE
691200,1099.49,1300.44,1.0,4,NOISE
706000,1058.76,1432.7,1.0,4,NOISE
720700,1049.02,1530.85,1.0,4,NOISE
4002000,1138.54,610.13,1.0,1,NOISE
4016700,1141.81,581.36,1.0,1,NOISE
4039000,1144.26,648.7,1.0,2,NOISE
4053800,1102.68,546.64,1.0,2,NOISE
4068500,1116.0,542.58,1.0,1,FIX
4083200,1025.24,507.54,1.0,1,FIX
4098000,963.85,566.6,1.0,1,FIX
4112600,968.45,511.02,1.0,1,FIX
4134800,1028.59,523.96,1.0,1,FIX
4149600,1007.83,503.93,1.0,1,FIX
4164300,1045.99,552.08,1.0,1,FIX
4179100,1067.22,493.95,1.0,1,FIX
4193900,983.19,521.88,1.0,1,FIX
4208700,994.55,480.03,1.0,2,SACCADE
4230800,947.95,521.74,1.0,2,SACCADE
4245500,954.34,488.2,1.0,3,SP
4260100,757.83,509.65,1.0,1,FIX
4289700,616.55,389.22,1.0,1,FIX
4304300,651.38,379.02,1.0,1,FIX
4326600,653.96,429.32,1.0,1,FIX
4355800,621.6,379.16,1.0,1,FIX
4370600,648.94,436.47,1.0,1,FIX
4385000,667.01,414.68,1.0,2,FIX
4399800,691.32,427.4,1.0,2,SACCADE
4422000,668.76,369.95,1.0,3,SACCADE
4436700,766.31,481.65,1.0,3,SP
4452300,1086.84,552.13,1.0,1,FIX
4466600,1175.76,544.5,1.0,1,FIX
4481200,1170.68,486.31,1.0,1,FIX
4496000,1188.54,520.49,1.0,1,FIX
4518400,1205.13,481.18,1.0,1,FIX
4532800,1182.77,535.0,1.0,1,FIX
4547400,1234.73,482.08,1.0,1,FIX
4561600,1233.25,478.91,1.0,1,FIX
4576300,1207.33,485.5,1.0,1,FIX
4598700,1172.83,490.51,1.0,2,SACCADE
4613500,1217.89,453.14,1.0,2,SACCADE
4628200,1170.36,521.96,1.0,2,SACCADE
4642900,1048.89,456.65,1.0,3,FIX
4672500,756.71,400.43,1.0,1,FIX
4694700,712.38,421.5,1.0,1,FIX
4724100,710.53,429.3,1.0,1,FIX
4738800,734.1,419.1,1.0,1,FIX
4753600,739.24,397.64,1.0,1,FIX
4768500,733.15,423.52,1.0,1,FIX
4790600,731.07,337.79,1.0,1,FIX
