%@metadata width_px 1920.0
%@metadata height_px 1080.0
%@metadata width_mm 540.0
%@metadata height_mm 254.0
%@metadata distance_mm 620.0
% The number after speed, direction denotes the step size that was used for the calculation.
% Acceleration was calculated between two adjacent samples of the already low pass filtered velocity
@RELATION gaze_labels

@ATTRIBUTE time INTEGER
@ATTRIBUTE x NUMERIC
@ATTRIBUTE y NUMERIC
@ATTRIBUTE confidence NUMERIC
@ATTRIBUTE handlabeller_final INTEGER
@ATTRIBUTE EYE_MOVEMENT_TYPE {UNKNOWN, FIX, SACCADE, SP, NOISE, BLINK, NOISE_CLUSTER, PSO}

@DATA
0,300.63,391.6,1.0,1,FIX
29500,262.48,412.21,1.0,1,FIX
44300,261.4,387.44,1.0,1,FIX
59300,258.34,384.02,1.0,1,FIX
74300,263.13,342.98,1.0,1,FIX
96000,276.88,402.93,1.0,1,FIX
110700,274.01,383.06,1.0,1,FIX
125300,321.69,403.06,1.0,1,FIX
140200,299.65,344.62,1.0,1,FIX
154700,269.75,405.57,1.0,1,FIX
177100,314.74,338.5,1.0,2,SACCADE
191900,317.74,397.12,1.0,2,SACCADE
206600,276.2,401.79,1.0,2,SP
220900,588.0,480.3,1.0,3,FIX
235700,749.06,566.55,1.0,1,FIX
250400,756.68,547.37,1.0,1,FIX
272600,823.4,469.15,1.0,1,FIX
287300,854.75,484.85,1.0,1,FIX
302000,735.07,516.65,1.0,1,FIX
316800,735.07,516.65,1.0,1,FIX
346400,889.5,506.9,1.0,1,FIX
368000,839.72,475.2,1.0,1,FIX
397300,880.81,506.45,1.0,2,FIX
412400,804.3,464.94,1.0,3,SACCADE
427200,830.99,499.49,1.0,1,SACCADE
442500,854.51,479.36,1.0,1,FIX
464300,955.29,522.56,1.0,1,FIX
478800,942.31,538.68,1.0,1,FIX
493300,983.77,489.29,1.0,1,FIX
507900,987.58,491.76,1.0,1,FIX
522500,987.58,491.76,1.0,2,SACCADE
544800,959.48,502.73,1.0,2,SACCADE
559400,953.98,509.88,1.0,2,SP
574000,1447.27,718.52,1.0,1,FIX
588700,1583.44,730.85,1.0,1,FIX
603300,1577.21,699.78,1.0,1,FIX
618500,1577.21,699.78,1.0,1,FIX
640400,1529.14,619.42,1.0,1,FIX
655100,1560.65,660.64,1.0,1,FIX
669800,1626.26,722.54,1.0,1,FIX
684500,1588.33,699.88,1.0,1,FIX
721200,1622.01,693.85,1.0,1,FIX
736000,1591.81,679.54,1.0,1,FIX
750700,1567.56,631.83,1.0,1,FIX
780500,1500.77,586.8,1.0,1,FIX
795300,1575.84,638.03,1.0,2,FIX
817300,1552.19,625.17,1.0,2,SACCADE
832100,1531.14,643.24,1.0,2,NOISE
846600,1543.41,624.21,1.0,2,NOISE
861600,992.53,715.01,1.0,2,NOISE
876200,743.21,879.71,1.0,2,NOISE
891000,757.0,826.99,1.0,2,NOISE
913200,614.85,767.76,1.0,1,NOISE
927800,553.48,777.58,1.0,1,FIX
942800,514.01,735.0,1.0,1,FIX
957600,545.17,640.41,1.0,1,FIX
986600,522.6,619.22,1.0,1,FIX
1023400,515.91,598.79,1.0,1,FIX
1038700,497.11,547.54,1.0,1,FIX
1052800,485.76,574.44,1.0,2,FIX
1067600,501.82,527.04,1.0,2,FIX
