%@metadata width_px 1920.0
%@metadata height_px 1080.0
%@metadata width_mm 540.0
%@metadata height_mm 254.0
%@metadata distance_mm 620.0
% The number after speed, direction denotes the step size that was used for the calculation.
% Acceleration was calculated between two adjacent samples of the already low pass filtered velocity
@RELATION gaze_labels

@ATTRIBUTE time INTEGER
@ATTRIBUTE x NUMERIC
@ATTRIBUTE y NUMERIC
@ATTRIBUTE confidence NUMERIC
@ATTRIBUTE handlabeller_final INTEGER
@ATTRIBUTE EYE_MOVEMENT_TYPE {UNKNOWN, FIX, SACCADE, SP, NOISE, BLINK, NOISE_CLUSTER, PSO}

@DATA
0,458.17,507.95,1.0,1,FIX
20900,432.01,518.56,1.0,1,FIX
49600,402.99,526.75,1.0,1,FIX
63800,346.0,448.61,1.0,1,FIX
98800,366.65,461.43,1.0,1,FIX
113300,394.46,523.53,1.0,1,FIX
148900,419.47,535.95,1.0,1,FIX
163300,450.97,549.67,1.0,1,SACCADE
177900,378.07,516.92,1.0,2,SACCADE
191900,338.75,418.52,1.0,2,SACCADE
213600,361.44,436.23,1.0,3,SP
227500,657.59,481.07,1.0,1,FIX
255800,766.37,468.31,1.0,1,FIX
277600,747.08,470.49,1.0,1,FIX
291900,785.61,466.66,1.0,1,FIX
305800,788.17,436.87,1.0,1,FIX
320000,779.1,479.97,1.0,1,FIX
341600,801.4,499.87,1.0,1,FIX
355800,777.43,433.47,1.0,1,FIX
369800,833.43,522.98,1.0,1,FIX
384600,833.96,503.08,1.0,1,SACCADE
419700,829.74,511.09,1.0,2,SACCADE
433600,837.0,453.02,1.0,3,SP
469100,1175.29,462.18,1.0,1,FIX
483900,1170.26,479.02,1.0,1,FIX
497800,1170.84,460.25,1.0,1,FIX
533300,1246.67,453.28,1.0,1,FIX
547800,1248.25,474.98,1.0,1,FIX
561900,1157.83,410.09,1.0,1,FIX
575900,1190.52,453.92,1.0,1,FIX
597700,1227.67,445.07,1.0,1,FIX
612100,1236.06,512.77,1.0,1,FIX
627400,1157.51,466.6,1.0,1,FIX
656500,1234.34,453.54,1.0,1,FIX
677500,1256.38,485.23,1.0,1,FIX
691500,1205.57,461.66,1.0,1,FIX
706000,1194.53,435.13,1.0,1,SACCADE
720400,1219.2,491.84,1.0,2,SACCADE
742500,1200.96,470.9,1.0,2,SACCADE
757500,1211.74,533.47,1.0,1,SP
771800,1011.95,494.67,1.0,1,FIX
800400,979.54,483.94,1.0,1,FIX
822200,1003.88,502.19,1.0,1,FIX
850100,1009.19,439.29,1.0,1,FIX
864400,981.72,490.12,1.0,1,FIX
900200,901.27,424.76,1.0,1,FIX
914900,1016.07,476.01,1.0,1,FIX
928900,1017.21,443.66,1.0,1,FIX
951000,1018.94,485.49,1.0,1,FIX
965000,991.3,490.53,1.0,1,FIX
978900,1053.64,493.99,1.0,1,FIX
993000,1057.4,510.76,1.0,1,FIX
1014600,965.27,451.07,1.0,2,SACCADE
1043300,987.43,463.27,1.0,1,FIX
1058700,973.46,523.71,1.0,1,FIX
1072600,956.07,510.54,1.0,1,FIX
1093600,915.73,524.66,1.0,1,FIX
1108200,919.7,445.28,1.0,1,FIX
1122200,960.1,484.67,1.0,1,FIX
1136500,867.72,490.8,1.0,1,FIX
1171600,856.14,489.44,1.0,1,FIX
1185700,904.11,509.94,1.0,1,SACCADE
1220900,971.57,562.25,1.0,2,SACCADE
1235000,949.35,506.27,1.0,2,SACCADE
1249200,1063.41,482.21,1.0,1,SACCADE
1284500,1066.64,418.04,1.0,1,FIX
1298900,1132.49,438.62,1.0,1,FIX
1313000,1087.81,464.05,1.0,1,FIX
1327800,1137.57,452.47,1.0,1,FIX
1349000,1152.22,503.94,1.0,1,FIX
1363400,1138.51,479.23,1.0,1,FIX
1377900,1166.79,469.19,1.0,1,FIX
1392100,1088.52,428.19,1.0,1,FIX
1413700,1132.58,498.77,1.0,1,FIX
1442200,1166.98,478.83,1.0,1,FIX
1456600,1070.17,428.07,1.0,1,FIX
1478300,1126.09,444.74,1.0,1,UNKNOWN
1492500,1142.44,457.93,1.0,4,NOISE
1506900,1223.2,509.77,1.0,4,NOISE
1521100,1165.82,639.47,1.0,4,NOISE
1535800,1093.98,892.58,1.0,4,NOISE
1570800,959.91,964.58,1.0,4,NOISE
1605900,363.01,581.5,1.0,4,NOISE
1620400,162.79,502.11,1.0,4,NOISE
1648700,806.48,1031.51,1.0,4,NOISE
1670000,976.41,1101.02,1.0,4,NOISE
1684600,1003.29,1092.41,1.0,4,NOISE
1699000,1179.77,952.23,1.0,4,NOISE
1714100,1122.58,698.72,1.0,4,NOISE
1728300,1181.42,702.84,1.0,4,NOISE
1749600,1252.51,571.6,1.0,1,NOISE
1763600,1241.57,525.1,1.0,1,NOISE
1792100,1215.22,468.45,1.0,1,FIX
1813400,1229.42,519.5,1.0,1,FIX
1827800,1203.5,430.97,1.0,1,FIX
1842100,1184.84,432.87,1.0,1,FIX
1857600,1217.15,414.53,1.0,1,FIX
1872100,1223.4,409.31,1.0,1,FIX
1893300,1240.01,491.57,1.0,1,FIX
1922000,1143.24,411.25,1.0,1,FIX
1936500,1189.91,438.77,1.0,1,SACCADE
1972000,1182.53,410.83,1.0,2,SACCADE
1986400,1095.89,450.74,1.0,3,FIX
2022400,932.19,443.41,1.0,1,FIX
2036900,869.13,459.27,1.0,1,FIX
2051400,933.97,450.49,1.0,1,FIX
2065900,921.51,443.13,1.0,1,FIX
2079900,921.51,443.13,1.0,1,FIX
2101900,905.52,443.28,1.0,1,FIX
2116600,940.67,460.05,1.0,1,FIX
2145900,944.27,466.73,1.0,1,FIX
2160000,920.64,494.92,1.0,1,FIX
2181700,921.92,460.96,1.0,1,FIX
2195600,969.14,527.57,1.0,1,FIX
2209500,981.03,512.61,1.0,1,FIX
2223900,954.43,467.85,1.0,1,FIX
2244900,967.79,454.27,1.0,1,FIX
2260500,1030.56,510.84,1.0,1,FIX
2288700,912.46,458.23,1.0,1,FIX
2309800,891.31,464.28,1.0,1,FIX
2339000,959.38,496.36,1.0,1,FIX
2353200,972.81,498.78,1.0,1,FIX
2374500,930.2,501.09,1.0,1,FIX
2403100,967.23,496.88,1.0,1,FIX
2417600,984.63,496.23,1.0,1,SACCADE
2431800,997.48,503.08,1.0,1,FIX
2452600,930.67,473.59,1.0,1,FIX
