%@metadata width_px 1920.0
%@metadata height_px 1080.0
%@metadata width_mm 540.0
%@metadata height_mm 254.0
%@metadata distance_mm 620.0
% The number after speed, direction denotes the step size that was used for the calculation.
% Acceleration was calculated between two adjacent samples of the already low pass filtered velocity
@RELATION gaze_labels

@ATTRIBUTE time INTEGER
@ATTRIBUTE x NUMERIC
@ATTRIBUTE y NUMERIC
@ATTRIBUTE confidence NUMERIC
@ATTRIBUTE handlabeller_final INTEGER
@ATTRIBUTE EYE_MOVEMENT_TYPE {UNKNOWN, FIX, SACCADE, SP, NOISE, BLINK, NOISE_CLUSTER, PSO}

@DATA
0,277.44,348.79,1.0,1,FIX
35300,290.04,359.18,1.0,1,FIX
49700,237.36,320.42,1.0,1,FIX
64600,214.82,311.33,1.0,1,FIX
86900,246.08,326.26,1.0,1,FIX
100700,234.7,299.81,1.0,1,FIX
114800,290.99,386.07,1.0,1,FIX
128800,173.93,323.11,1.0,1,FIX
150000,225.24,340.18,1.0,1,FIX
164300,231.2,388.53,1.0,1,FIX
192800,268.71,305.64,1.0,2,SACCADE
214100,265.55,342.41,1.0,2,SACCADE
228600,242.54,357.36,1.0,3,SP
242700,423.24,391.91,1.0,1,FIX
256600,488.0,386.83,1.0,1,FIX
278200,437.23,371.41,1.0,1,FIX
292600,434.72,361.25,1.0,1,FIX
321100,389.62,355.31,1.0,1,FIX
356900,475.17,402.59,1.0,1,FIX
371000,456.89,359.62,1.0,1,FIX
400000,517.78,374.3,1.0,2,FIX
420800,522.25,369.6,1.0,2,SACCADE
435400,543.57,417.48,1.0,2,SACCADE
450000,492.99,393.29,1.0,3,SACCADE
464000,753.44,431.94,1.0,3,SP
485900,1000.03,371.48,1.0,1,FIX
500100,1062.41,347.26,1.0,1,FIX
528800,1118.59,411.26,1.0,1,FIX
549800,1096.44,416.03,1.0,1,FIX
563800,1059.24,413.82,1.0,1,FIX
578400,1144.41,438.96,1.0,1,FIX
592300,1100.21,411.25,1.0,1,FIX
614300,1127.26,414.69,1.0,1,FIX
628300,1153.04,434.65,1.0,1,FIX
643000,1138.61,444.03,1.0,2,SACCADE
672600,1179.93,444.32,1.0,2,SACCADE
693800,1204.23,458.65,1.0,3,SP
722200,1364.49,415.9,1.0,1,FIX
736600,1395.41,421.77,1.0,1,FIX
757800,1441.27,445.37,1.0,1,FIX
786900,1429.9,399.17,1.0,1,FIX
800800,1390.88,449.32,1.0,1,FIX
822200,1398.66,431.19,1.0,1,FIX
837000,1425.98,487.04,1.0,1,FIX
851700,1378.66,441.05,1.0,1,SACCADE
880400,1355.75,379.12,1.0,2,SACCADE
901600,1420.57,423.98,1.0,3,SACCADE
915700,1298.54,429.1,1.0,1,SP
930100,1099.86,523.23,1.0,1,FIX
944100,1005.66,479.55,1.0,1,FIX
966000,949.45,444.94,1.0,1,FIX
980100,873.59,389.26,1.0,1,FIX
1008900,933.21,450.84,1.0,1,FIX
1030000,896.57,415.91,1.0,1,FIX
1044300,917.16,426.51,1.0,1,FIX
1058600,961.55,463.69,1.0,1,FIX
1072700,973.9,456.68,1.0,2,SACCADE
1109600,927.7,465.55,1.0,1,FIX
1123700,782.77,475.79,1.0,1,FIX
1152500,743.57,453.39,1.0,1,FIX
1173800,736.63,445.36,1.0,1,FIX
1188100,825.41,449.16,1.0,1,FIX
1202200,813.08,509.97,1.0,1,FIX
1216700,652.36,389.77,1.0,1,FIX
1238600,750.8,417.06,1.0,2,SACCADE
1252700,787.12,472.34,1.0,2,SACCADE
1281200,808.23,429.5,1.0,3,SACCADE
1302200,1008.99,472.72,1.0,1,SACCADE
1316700,1045.57,440.13,1.0,1,FIX
1330700,1097.17,399.55,1.0,1,FIX
1345300,1115.72,429.49,1.0,1,FIX
1367100,1193.43,461.53,1.0,1,FIX
1381200,1158.25,454.72,1.0,1,FIX
1395100,1143.62,454.81,1.0,1,FIX
1409500,1063.32,411.34,1.0,4,FIX
1430600,1086.7,422.58,1.0,4,NOISE
1445100,1088.13,432.19,1.0,4,NOISE
1473700,1042.68,827.56,1.0,4,NOISE
1488100,915.81,993.18,1.0,4,NOISE
1509700,387.11,639.64,1.0,4,NOISE
1539000,10.94,519.86,1.0,4,NOISE
1553100,151.12,684.56,1.0,4,NOISE
1574600,523.4,1111.18,1.0,4,NOISE
1588600,777.71,1189.08,1.0,4,NOISE
1602700,721.6,989.34,1.0,4,NOISE
1616800,658.9,962.08,1.0,4,NOISE
1638300,675.51,636.98,1.0,4,NOISE
1652400,759.51,551.59,1.0,4,SACCADE
1666800,769.43,439.52,1.0,1,SACCADE
1695900,705.57,395.96,1.0,1,FIX
1716800,721.99,417.77,1.0,1,FIX
1730700,663.93,441.85,1.0,1,FIX
1745400,667.56,405.62,1.0,1,FIX
1759900,682.19,428.49,1.0,1,FIX
1781300,599.15,412.81,1.0,1,FIX
1795600,680.01,407.94,1.0,1,FIX
1824300,712.75,418.94,1.0,1,FIX
1860100,691.14,453.7,1.0,1,FIX
1874600,667.89,436.55,1.0,1,FIX
1909800,682.63,427.47,1.0,1,FIX
1923800,729.06,437.24,1.0,1,FIX
1938200,786.01,497.32,1.0,1,FIX
1952200,663.58,445.74,1.0,1,FIX
1974100,723.2,433.3,1.0,1,FIX
1988000,771.39,462.22,1.0,1,SACCADE
2001900,653.77,432.41,1.0,2,SACCADE
2015900,738.84,467.04,1.0,2,SP
2038600,895.71,443.04,1.0,1,FIX
2066900,936.25,414.83,1.0,1,FIX
2080900,1020.45,413.0,1.0,1,FIX
2101900,934.08,415.5,1.0,1,FIX
2116500,976.62,400.42,1.0,1,FIX
2130500,1038.92,446.74,1.0,1,FIX
2144900,954.29,350.94,1.0,1,FIX
2160100,954.29,350.94,1.0,1,FIX
2195300,966.03,404.62,1.0,1,FIX
2223900,1049.58,394.51,1.0,1,FIX
2245600,942.71,378.35,1.0,1,FIX
2273900,920.27,379.64,1.0,1,FIX
2288400,914.94,373.41,1.0,1,FIX
2309900,990.7,395.75,1.0,1,SACCADE
2324000,996.72,420.31,1.0,1,NOISE
2338600,986.06,423.22,1.0,1,NOISE
2352700,959.52,371.51,1.0,1,NOISE
2373900,867.95,351.92,1.0,1,NOISE
2388100,899.92,385.05,1.0,1,NOISE
2402000,906.52,334.05,1.0,1,NOISE
2416900,877.43,329.36,1.0,1,NOISE
2438500,943.85,362.38,1.0,1,NOISE
