@RELATION gaze_labels

%@METADATA width_px 1920
%@METADATA height_px 1080
%@METADATA width_mm 540.00
%@METADATA height_mm 254.00
%@METADATA distance_mm 620.00


@ATTRIBUTE time INTEGER
@ATTRIBUTE x NUMERIC
@ATTRIBUTE y NUMERIC
@ATTRIBUTE confidence NUMERIC
@ATTRIBUTE handlabeller1 INTEGER
@ATTRIBUTE handlabeller2 INTEGER
@ATTRIBUTE handlabeller_final INTEGER
@ATTRIBUTE speed_1 numeric
@ATTRIBUTE direction_1 numeric
@ATTRIBUTE acceleration_1 numeric
@ATTRIBUTE speed_2 numeric
@ATTRIBUTE direction_2 numeric
@ATTRIBUTE acceleration_2 numeric
@ATTRIBUTE speed_4 numeric
@ATTRIBUTE direction_4 numeric
@ATTRIBUTE acceleration_4 numeric
@ATTRIBUTE speed_8 numeric
@ATTRIBUTE direction_8 numeric
@ATTRIBUTE acceleration_8 numeric
@ATTRIBUTE speed_16 numeric
@ATTRIBUTE direction_16 numeric
@ATTRIBUTE acceleration_16 numeric

%The number after speed, direction denotes the step size that was used for the calculation.
%Acceleration was calculated between two adjacent samples of the already low pass filtered velocity

@DATA
0,285.26,472.97,1.00,1,1,1,0.00,0.00,0.00,814.96,-1.20,0.00,803.73,0.90,0.00,604.33,-0.33,0.00,381.69,0.65,0.00
29800,294.11,450.35,1.00,1,1,1,814.96,-1.20,27347.54,803.73,0.90,47034.36,1068.38,1.55,21886.24,1143.18,0.50,28779.98,277.81,0.80,3852.74
44600,307.65,500.96,1.00,1,1,1,3539.74,1.31,285392.72,1068.38,1.55,44068.23,604.33,-0.33,93108.89,544.64,-0.82,76700.85,291.89,-0.09,16675.63
59200,294.73,481.76,1.00,1,1,1,1585.31,-2.16,346940.90,1602.24,-1.13,178350.36,1143.18,0.50,58742.70,733.27,0.40,51314.11,1044.45,0.44,55307.82
73800,327.47,458.58,1.00,1,1,1,2747.63,-0.62,215036.40,1788.70,0.07,132220.19,544.64,-0.82,77751.55,381.69,0.65,25676.63,2862.23,0.40,124629.27
96300,360.91,486.64,1.00,1,1,1,1939.94,0.70,130379.24,451.79,1.28,74646.89,733.27,0.40,33297.16,277.81,0.80,5102.74,3513.39,0.34,30010.96
110900,332.35,474.62,1.00,1,1,1,2122.41,-2.74,275129.56,878.45,2.55,59189.53,704.28,1.56,53910.58,291.89,-0.09,16904.07,3041.70,0.26,36587.42
125600,339.49,500.91,1.00,1,1,1,1853.52,1.31,243252.88,1058.58,1.72,54778.98,551.40,-2.93,66854.90,1044.45,0.44,54931.57,3070.72,0.21,11172.95
140300,327.86,505.41,1.00,1,1,1,848.50,2.77,133107.99,656.57,-2.25,107445.81,354.60,0.89,58260.82,2862.23,0.40,123781.45,1808.61,0.22,85863.81
169900,321.19,478.30,1.00,2,2,2,943.20,-1.81,45503.63,467.35,-0.36,31031.40,1299.88,0.46,33385.18,3513.39,0.34,22812.38,1932.19,0.30,6715.54
192000,350.49,496.93,1.00,3,3,3,1570.92,0.57,106108.37,3598.35,0.55,150786.40,5007.54,0.29,168919.64,3041.70,0.26,24170.88,1861.48,0.25,5365.63
206700,433.92,547.78,1.00,3,3,3,6646.71,0.55,345316.80,13140.01,0.33,657515.61,8027.57,0.33,206153.24,3070.72,0.21,11172.95,2645.59,0.41,58817.20
221500,717.50,621.66,1.00,1,1,1,19800.54,0.25,917034.09,13719.10,0.26,75087.97,6833.52,0.22,97193.58,3202.34,0.17,12527.72,4158.35,0.10,123992.87
236100,824.02,650.27,1.00,1,1,1,7554.51,0.26,838793.98,1519.61,-0.94,907118.71,5574.12,0.13,94375.55,3716.29,0.26,41507.33,3617.74,-0.00,45465.10
251000,743.84,585.38,1.00,1,1,1,6922.70,-2.46,950527.31,2931.67,-2.39,209943.55,1277.73,-0.45,306125.85,3728.20,0.28,4736.03,3737.38,0.05,15715.94
265800,760.55,590.67,1.00,1,1,1,1183.88,0.31,543009.71,1355.10,-0.01,271460.41,772.91,-2.10,104404.43,4333.10,0.41,53282.60,4054.96,0.05,21534.79
287900,793.84,584.63,1.00,1,1,1,1531.13,-0.18,33277.70,1094.02,0.39,24953.73,1042.94,0.63,80494.15,5646.36,-0.05,117396.01,4516.43,0.19,34579.61
302700,797.94,605.90,1.00,4,4,4,1463.17,1.38,142327.66,1424.03,1.43,86901.45,3747.68,0.71,183031.08,4062.19,-0.28,129745.82,4226.90,0.31,41359.96
317400,799.77,626.22,1.00,4,4,4,1388.20,1.48,10965.42,6026.49,0.75,339774.69,9324.35,-0.01,471801.15,4429.07,-0.07,65065.96,3514.75,0.37,50316.07
346700,991.20,787.45,1.00,4,4,4,8542.00,0.70,260027.07,14588.03,-0.06,387107.41,7595.76,-0.20,80268.10,4960.38,-0.04,18737.68,2792.98,0.40,24962.63
368800,1548.17,579.96,1.00,4,4,4,26893.98,-0.36,1080548.29,13794.33,-0.63,364637.54,6963.95,-0.14,34821.46,5772.11,0.20,68767.48,1664.01,0.39,51102.77
383500,1399.93,486.39,1.00,4,4,4,11925.35,-2.58,2409234.90,2220.15,-2.68,1016295.71,7597.11,-0.38,127833.40,4652.32,0.35,91934.25,868.79,0.96,70882.71
413100,1460.11,536.16,1.00,4,4,4,2638.31,0.69,491418.70,4042.51,0.42,211532.59,2973.02,0.99,256355.62,3369.15,0.44,45012.64,1094.22,0.80,9212.56
427800,1563.51,559.25,1.00,4,4,4,7207.85,0.22,340307.45,10476.80,0.83,473408.24,4816.84,1.29,147607.15,1333.22,0.39,138645.02,1105.56,0.74,4714.25
442500,1668.14,763.31,1.00,4,4,4,15599.40,1.10,837413.23,8367.70,1.76,587431.38,5444.74,2.05,259009.09,3184.05,2.62,281131.98,988.36,0.97,18246.71
464700,1506.51,862.71,1.00,4,4,4,8547.61,2.59,774629.95,10388.74,2.89,461074.04,7428.88,2.48,152510.86,4039.44,2.44,48571.97,752.44,0.81,12238.43
479600,1294.58,858.18,1.00,4,4,4,14226.71,-3.12,565796.45,11228.49,3.14,187703.27,7621.67,3.06,290278.05,4501.21,2.64,64977.28,749.48,0.73,4239.33
494400,1173.02,863.07,1.00,1,1,1,8219.93,3.10,408354.71,4874.07,-2.75,470894.79,9079.75,-3.13,111690.14,4904.98,2.73,41367.03,103.47,-1.70,56093.62
509300,1160.59,803.37,1.00,1,1,1,4092.49,-1.78,574458.58,6927.52,-3.10,192800.65,5606.30,-3.00,240727.20,5356.89,3.06,117027.60,2054.31,2.88,139024.56
524000,968.14,854.71,1.00,1,1,1,13549.97,2.88,977542.31,6589.63,3.10,44023.48,3133.20,-2.82,175772.14,3975.79,-2.98,120847.46,1607.50,2.50,54848.22
539200,963.73,811.43,1.00,1,1,1,2861.82,-1.67,939848.43,1926.75,-1.06,511674.65,3088.71,3.06,80635.32,2382.62,-2.90,106038.79,1035.62,2.58,38179.82
553800,996.31,804.68,1.00,1,1,1,2278.96,-0.20,237695.33,314.69,2.40,152601.16,1039.53,-1.73,217559.75,1516.96,-2.63,69019.65,1319.02,2.73,22853.89
576000,955.19,819.26,1.00,1,1,1,1965.16,2.80,190735.47,1035.98,-2.46,46675.94,426.84,-1.41,29211.56,1308.35,-2.74,11983.37,1505.98,-2.88,42450.75
605400,954.65,771.17,1.00,1,1,1,1635.61,-1.58,99850.79,999.73,-1.25,39582.10,586.84,-1.76,8001.02,738.69,-1.00,54715.55,1023.52,-2.54,21799.88
620300,969.25,777.26,1.00,1,1,1,1061.68,0.40,152671.68,1197.46,-0.39,62789.01,1277.15,-1.18,56880.30,1930.93,-0.45,91043.32,686.15,-1.86,44150.80
635000,987.50,757.85,1.00,2,2,2,1812.34,-0.82,118975.43,1698.61,-1.12,77739.13,1095.31,-0.12,82533.89,1742.17,-0.41,14079.28,810.95,-1.33,27537.43
649900,991.07,731.96,1.00,3,3,3,1753.82,-1.43,72812.64,1078.12,0.12,113590.25,4009.43,-0.35,198178.87,2172.89,-0.52,32371.28,562.12,-0.63,35416.82
672100,1027.21,762.63,1.00,3,3,3,2135.21,0.70,153785.28,6326.50,-0.19,239249.45,3781.84,-0.22,24365.42,2293.61,-0.22,30149.33,1140.10,-0.59,26082.14
686800,1220.15,687.03,1.00,1,1,1,14096.69,-0.37,899263.73,7297.13,-0.28,77474.06,3314.71,-0.30,37145.49,1796.57,-0.42,43439.00,1121.02,-0.50,6685.41
701400,1232.61,703.26,1.00,1,1,1,1401.31,0.92,943401.43,998.34,-0.89,445373.59,3384.99,-0.25,11928.47,1704.97,-0.50,11919.57,916.92,-0.66,17876.83
731000,1247.96,652.77,1.00,1,1,1,1782.80,-1.28,95845.88,818.29,-0.07,24943.48,340.74,-1.06,106745.55,1899.86,-0.09,25596.63,1181.87,-0.60,9179.80
745800,1268.84,700.56,1.00,1,1,1,3523.68,1.16,338825.92,252.97,2.69,71481.38,823.05,-1.59,37605.72,1609.52,-0.41,41909.45,1051.20,-0.41,16815.42
782900,1236.12,658.45,1.00,1,1,1,1437.49,-2.23,132875.69,1640.59,-2.03,44664.24,874.83,0.79,42468.04,395.29,-0.72,33408.85,999.46,-0.52,3233.12
798000,1230.93,623.77,1.00,1,1,1,2321.95,-1.72,84747.98,2601.75,0.62,273019.35,482.88,-1.91,87902.01,456.89,-1.74,27633.94,1045.99,-0.39,9494.86
812300,1298.25,703.07,1.00,1,1,1,7274.16,0.87,652306.70,1632.30,1.02,88065.06,529.48,-0.40,48537.19,247.09,-1.53,15440.28,987.61,-0.32,6359.49
826800,1255.71,663.72,1.00,1,1,1,3996.33,-2.40,775987.18,1793.20,-2.05,236049.92,187.21,2.59,49330.17,427.46,-2.20,19289.98,868.87,-0.68,24320.20
848900,1268.25,644.70,1.00,1,1,1,1030.74,-0.99,179227.83,1323.03,-2.38,31537.97,1505.18,-2.08,68917.73,224.40,-1.72,11372.03,174.53,-1.03,32014.50
863600,1220.44,630.16,1.00,1,1,1,3399.43,-2.85,259982.31,1152.60,-2.16,22040.83,418.93,-2.61,79087.35,394.81,0.21,35225.40,255.42,-1.82,12345.02
878400,1249.42,616.38,1.00,1,1,1,2168.45,-0.44,352107.22,760.86,1.05,129226.88,551.20,-2.70,9414.32,466.73,-1.82,49480.34,197.46,-2.83,15257.20
893200,1231.71,649.66,1.00,1,1,1,2546.85,2.06,302636.14,477.33,2.59,59866.63,830.82,0.08,91975.69,474.64,-1.92,3269.20,1435.50,-3.01,83904.46
922500,1231.52,627.46,1.00,1,1,1,757.55,-1.58,110334.56,1117.56,-0.24,53881.14,466.88,0.56,15972.48,150.37,-3.01,14533.61,2331.58,-3.10,31063.07
944700,1287.58,635.82,1.00,1,1,1,2552.97,0.15,124951.59,1374.86,0.18,26100.65,637.66,-1.57,43690.94,60.78,-2.53,4519.40,2558.68,3.12,12475.69
959400,1281.44,636.50,1.00,1,1,1,419.98,3.03,201422.59,2272.13,-2.54,243028.22,321.12,0.74,60255.26,384.25,2.85,23803.43,2876.09,-3.02,34453.37
974400,1231.77,597.88,1.00,1,1,1,4194.67,-2.48,260310.99,1161.47,2.99,108682.35,1025.15,-2.99,86952.55,2489.95,-3.13,141759.40,2593.24,-3.10,23417.02
989100,1247.36,641.83,1.00,1,1,1,3172.50,1.23,481415.26,746.59,2.19,56801.15,1130.09,-3.12,11441.01,4500.67,3.14,136857.81,2668.95,-3.10,5172.13
1018500,1212.74,624.74,1.00,2,2,2,1313.30,-2.68,143354.45,1129.16,-3.01,34783.92,5022.39,3.03,132871.06,5346.28,3.13,28764.80,2366.24,-3.07,10625.61
1040600,1189.71,634.23,1.00,2,2,2,1127.05,2.75,46137.50,10464.95,3.09,423378.35,8392.69,-3.13,157153.47,5463.68,-3.10,14137.17,2435.97,-3.05,3602.41
1055300,828.13,644.33,1.00,3,3,3,24607.01,3.11,1602500.23,21044.76,-3.14,721832.98,9290.89,3.12,65478.84,4618.68,3.11,63614.21,2484.09,-3.03,4937.41
1070200,566.79,631.82,1.00,3,3,3,17559.54,-3.09,484633.22,8321.79,-3.14,853891.18,10238.56,-3.09,78993.41,4665.56,-3.10,23320.74,2498.49,-3.12,14657.66
1099600,459.47,643.18,1.00,1,1,1,3670.58,3.04,474261.16,3060.15,-2.89,183813.25,4305.29,-3.10,201813.98,4576.32,-3.08,5165.98,2805.83,-3.07,11342.69
1114300,435.96,598.70,1.00,1,1,1,3422.93,-2.06,270862.58,920.84,-2.79,146056.10,1522.37,-2.99,190284.89,4611.07,-3.02,17264.71,2950.14,-3.11,12338.37
1151400,414.77,626.54,1.00,1,1,1,943.22,2.22,105507.13,332.24,2.46,21714.03,842.83,-1.39,47533.93,2503.04,-2.93,57428.56,2581.59,-3.12,9954.56
1166000,422.65,609.56,1.00,1,1,1,1282.71,-1.14,151593.67,2607.48,-0.72,201336.01,815.73,-0.86,29473.20,688.78,-2.94,124270.44,2658.24,-3.08,7869.02
1180700,472.06,576.00,1.00,1,1,1,4062.89,-0.60,206454.31,2800.16,-0.83,22938.13,1232.29,-1.07,31788.94,478.56,-1.84,43501.04,2516.03,-3.11,10529.93
1195800,479.26,548.24,1.00,1,1,1,1899.03,-1.32,193285.32,892.22,-2.62,206853.14,519.41,0.01,72081.10,319.13,2.97,36364.82,2456.59,-3.06,8828.14
1210100,449.29,562.98,1.00,1,1,1,2335.02,2.68,269422.08,1781.25,1.92,148728.46,467.37,-3.11,68999.74,350.63,-1.59,35552.50,1406.02,-2.97,74479.66
1232500,457.19,609.78,1.00,1,1,1,2118.97,1.40,119081.38,393.90,2.17,62685.76,1619.27,2.57,56443.82,164.16,-2.36,11581.71,384.03,-2.55,47620.11
1247200,441.00,575.01,1.00,1,1,1,2609.40,-2.01,318791.33,2304.21,-3.09,144398.54,470.88,2.75,78905.21,300.44,2.62,20599.84,1066.53,-0.01,95214.02
1261900,389.53,606.59,1.00,1,1,1,4108.12,2.59,347763.54,616.57,3.05,115353.72,726.85,-2.83,32442.93,267.70,2.45,3868.41,1154.91,0.13,12039.32
1291300,413.92,577.50,1.00,1,1,1,1291.45,-0.87,181926.11,485.71,-0.67,35976.53,300.68,1.87,26845.45,274.77,2.97,4774.40,1296.16,0.04,5966.97
1306000,406.36,593.35,1.00,1,1,1,1194.67,2.02,167777.75,775.87,0.81,59565.84,836.15,-0.51,73107.48,321.62,-1.27,34602.36,1396.92,0.04,6896.07
1328300,433.72,598.28,1.00,2,2,2,1246.75,0.18,87028.65,1261.77,-0.44,56277.67,135.72,-2.11,38180.42,2367.33,0.20,105661.16,1022.04,0.11,17249.55
1343200,448.84,573.38,1.00,2,2,2,1955.23,-1.03,127823.37,1269.68,-2.28,135189.40,1040.64,-0.39,71762.48,2692.70,0.09,28235.39,1022.07,0.21,6727.34
1357900,409.25,569.76,1.00,2,2,2,2704.24,-3.05,270204.86,767.82,-0.30,117404.99,5673.95,0.13,326427.48,2705.14,0.18,16134.92,1159.76,0.19,9434.94
1372800,470.56,566.68,1.00,3,3,3,4119.60,-0.05,456881.32,12341.03,0.20,783274.98,5493.11,0.21,34395.98,2995.23,0.07,28001.88,1045.88,0.05,13088.08
1387400,766.41,640.33,1.00,3,3,3,20882.18,0.24,1163124.75,10356.13,0.25,142024.15,5501.02,0.20,4899.58,2358.34,0.03,44434.20,1020.56,0.18,9499.39
1402200,765.70,641.46,1.00,1,1,1,89.98,2.13,1412851.68,71.74,0.72,695420.91,5099.60,0.17,29292.38,2282.05,0.11,13719.75,1232.43,-0.02,20759.91
1424500,768.41,642.08,1.00,1,1,1,124.68,0.23,7892.39,1148.30,-0.45,50310.82,402.25,-1.62,233282.74,2655.59,0.15,17406.44,1404.75,0.10,10657.62
1439100,803.91,623.14,1.00,1,1,1,2755.81,-0.49,182395.30,783.00,-1.68,79073.23,407.41,-1.53,2636.19,1898.27,0.19,52174.00,1237.82,0.08,11677.01
1468700,764.70,607.67,1.00,1,1,1,1424.10,-2.77,129566.71,893.55,-2.76,29336.16,246.15,-1.06,7367.17,145.00,-2.69,68871.55,1328.12,0.11,3334.32
1483500,767.09,608.36,1.00,1,1,1,168.35,0.28,107553.48,763.15,0.98,107047.28,316.05,3.09,33292.47,261.48,-1.65,15228.40,1148.03,0.19,14028.26
1498100,777.25,626.27,1.00,1,1,1,1409.89,1.05,88673.62,337.02,1.19,30127.50,364.30,2.29,18513.22,339.02,-0.44,23793.48,1912.14,0.23,52441.61
1535300,773.54,624.59,1.00,1,1,1,109.51,-2.72,40316.74,620.69,3.03,20948.76,128.22,-2.06,11493.26,208.92,-3.11,14333.40,1660.62,0.17,7187.48
1550100,745.19,630.00,1.00,1,1,1,1950.02,2.95,125781.01,955.11,-1.99,65686.52,483.01,-0.17,36266.71,395.52,0.59,39441.85,799.86,0.04,59159.42
1564400,762.26,599.18,1.00,1,1,1,2463.68,-1.07,279916.68,2474.94,-0.15,201586.41,65.95,-2.47,37020.04,195.20,1.40,20807.57,816.30,0.17,7732.97
1578900,815.72,619.68,1.00,1,1,1,3948.39,0.37,300223.70,660.83,1.24,168198.61,1046.44,0.15,76142.09,1284.52,0.36,82660.52,664.79,-0.01,14057.70
1600800,770.15,621.91,1.00,2,2,2,2083.23,3.09,270079.61,557.18,1.70,13669.59,588.83,1.32,44859.63,1383.54,0.15,13265.25,733.57,0.23,8365.97
1615600,813.01,639.95,1.00,2,2,2,3141.91,0.40,344623.41,506.22,1.45,9560.85,2165.32,0.47,123679.32,1837.26,0.07,31882.73,783.72,0.32,5589.07
1629900,771.86,636.54,1.00,3,3,3,2887.43,-3.06,416396.98,3838.85,0.36,254308.77,2666.02,0.16,62154.76,1812.06,0.33,32483.37,887.50,0.26,8038.02
1659700,971.69,698.95,1.00,1,1,1,7025.08,0.30,330973.97,4329.75,0.09,39869.22,2480.69,0.05,11894.79,1049.78,0.13,27183.19,794.87,0.16,4102.77
1674400,963.76,653.82,1.00,1,1,1,3116.89,-1.74,605255.01,1766.98,-0.87,246446.34,3039.02,0.19,47085.42,1820.58,0.20,52932.72,790.66,0.11,2968.60
1696500,1013.49,649.14,1.00,1,1,1,2260.16,-0.09,180712.91,1604.12,0.54,99420.48,904.82,-1.62,152703.21,1170.37,0.23,29470.41,1014.39,0.20,10835.85
1711200,1014.25,684.40,1.00,1,1,1,2399.26,1.55,232161.43,1565.97,-2.92,212785.78,889.88,0.34,101426.93,1623.92,0.16,31579.32,1327.12,0.18,21361.28
1725800,968.69,639.22,1.00,1,1,1,4395.08,-2.36,434514.38,410.64,-1.15,116337.57,542.56,2.21,80318.15,394.90,-0.61,93598.95,1024.62,0.11,21505.28
1740500,1019.21,673.44,1.00,1,1,1,4151.08,0.60,578865.32,1050.04,1.11,91733.89,233.05,-0.35,50919.11,238.83,-0.14,14302.92,1147.09,0.05,9340.23
1770400,989.42,681.21,1.00,1,1,1,1029.67,2.89,163606.09,262.65,0.34,29456.54,707.24,0.48,19276.45,338.10,0.94,10369.94,1048.52,0.00,3679.84
1792100,1031.98,677.98,1.00,1,1,1,1966.85,-0.08,137587.10,925.96,-0.47,35485.61,397.23,-2.27,50012.25,938.92,-0.08,37604.44,1093.30,0.09,4699.54
1806800,1019.42,665.84,1.00,1,1,1,1188.75,-2.37,197023.05,1510.10,-2.42,138987.60,691.10,0.18,70017.58,1004.12,0.09,12015.89,598.85,-0.38,42312.91
1821500,998.53,648.79,1.00,2,2,2,1833.99,-2.46,44698.68,805.37,0.80,157389.08,1646.24,-0.04,67054.73,671.42,-0.29,30784.22,625.62,0.19,23483.10
1851000,1044.18,691.40,1.00,3,3,3,2117.02,0.75,133859.03,3236.06,0.14,89793.20,1320.16,-0.09,11253.33,992.50,-0.25,10933.71,482.34,-0.26,9562.75
1873900,1166.51,671.95,1.00,1,1,1,5408.78,-0.16,193604.06,2079.50,-0.35,74017.45,1403.25,-0.07,3800.55,554.58,-0.12,19580.13,512.60,-0.37,2750.01
1903000,1145.94,654.80,1.00,1,1,1,920.43,-2.45,208049.27,1055.07,-2.37,93206.23,1384.35,-0.46,18665.43,805.59,-0.28,9342.46,502.59,0.25,10639.59
1917800,1133.35,639.62,1.00,1,1,1,1332.76,-2.26,31062.27,457.49,-1.62,53026.22,672.96,-3.05,134456.68,989.91,0.26,34371.57,439.54,-0.36,19630.18
1932500,1145.28,641.32,1.00,1,1,1,820.18,0.14,137209.95,1096.90,2.09,102250.59,404.69,-1.82,44824.34,919.40,-0.62,55714.44,644.41,-0.24,14615.90
1947200,1117.37,667.63,1.00,1,1,1,2609.22,2.39,216713.98,373.55,-2.07,90506.87,824.80,1.18,83471.38,315.20,-1.75,56654.51,428.07,-0.50,17324.67
1962300,1139.91,631.57,1.00,1,1,1,2815.88,-1.01,356334.98,1167.82,0.55,99616.92,462.65,-1.27,80594.49,237.28,2.33,32737.89,456.03,-0.19,9035.25
1984100,1154.06,690.23,1.00,1,1,1,2767.66,1.33,236133.60,667.48,-0.93,59251.24,858.52,-0.75,23299.35,173.11,-0.71,18803.14,369.94,-0.04,4902.86
1998800,1154.51,612.07,1.00,1,1,1,5316.86,-1.57,546333.49,2101.44,-1.49,107402.69,622.76,1.91,98028.49,261.92,-0.20,9547.84,695.91,3.08,72503.38
2013500,1158.83,628.63,1.00,1,1,1,1164.12,1.32,438678.58,1673.94,2.01,252666.41,830.57,-1.59,97273.24,398.14,-1.06,20676.74,1495.07,3.12,54441.80
2042900,1123.05,678.85,1.00,1,1,1,2097.42,2.19,55065.17,162.28,-2.40,58818.33,443.55,0.65,39437.28,114.04,0.49,14008.10,1412.34,3.13,2815.69
2065100,1152.66,622.96,1.00,1,1,1,2848.97,-1.08,222337.73,2029.68,-0.64,93049.55,220.30,-2.38,29861.83,453.31,-2.33,25345.03,1393.60,3.11,1342.34
2079900,1183.16,633.82,1.00,2,2,2,2187.27,0.34,225114.01,321.53,-2.36,142025.09,764.22,-0.89,52508.23,2313.56,2.86,144837.54,1387.80,3.13,1904.12
2094700,1145.88,616.29,1.00,2,2,2,2783.57,-2.70,335473.52,992.54,2.95,57657.41,809.68,2.67,103953.94,2945.65,3.02,51500.35,1212.93,-3.06,14278.23
2109100,1154.71,639.39,1.00,3,3,3,1717.81,1.21,291272.76,1560.40,2.47,56730.92,5900.25,2.94,355815.94,2727.86,-3.09,37099.30,1278.32,3.04,16278.22
2123800,1110.28,644.47,1.00,3,3,3,3042.49,3.03,261771.81,10774.62,2.94,639933.91,6779.04,2.98,62860.01,3187.09,3.07,39646.46,1317.96,-3.01,20634.40
2138500,844.47,703.37,1.00,3,3,3,18520.94,2.92,1054297.67,11988.68,3.05,116937.14,5902.64,3.09,74193.39,3116.82,3.11,10531.42,1169.58,3.01,24509.22
2154200,747.51,679.50,1.00,1,1,1,6360.17,-2.90,836118.70,2510.31,-2.67,634205.12,5332.25,3.12,38267.69,2691.10,3.08,27859.39,1298.93,3.03,8394.35
2176000,760.42,660.98,1.00,1,1,1,1035.50,-0.96,311973.64,766.85,-1.37,111184.46,1391.96,-2.62,192893.72,2642.06,3.06,2908.02,1179.65,-2.97,17139.90
2190800,753.10,651.99,1.00,1,1,1,783.14,-2.25,75233.45,463.19,-2.35,43053.39,559.64,-1.06,100924.27,2159.09,-3.12,36075.69,1275.21,3.05,22675.98
2220200,746.05,646.40,1.00,1,1,1,306.15,-2.47,16617.29,461.53,-0.62,23918.04,126.09,1.09,21672.85,365.61,-2.32,65436.07,1359.20,3.04,2870.00
2234800,769.61,640.18,1.00,1,1,1,1669.39,-0.26,128001.94,825.80,0.89,63146.43,151.58,-1.18,17257.29,138.15,-0.27,30584.11,1278.45,3.01,6501.11
2257000,765.15,670.03,1.00,1,1,1,1359.45,1.72,114209.89,214.30,-2.99,44784.72,732.69,0.23,32606.42,320.04,-0.95,10364.01,1140.80,3.11,8384.04
2286700,758.61,638.54,1.00,1,1,1,1082.72,-1.78,80965.56,905.60,-0.26,37230.04,413.32,1.59,25688.18,214.52,0.12,9701.38,953.32,3.04,6757.91
2301300,803.94,659.78,1.00,1,1,1,3428.56,0.44,285533.79,1264.18,1.28,104985.24,747.21,-1.12,77787.69,368.39,0.48,12616.40,117.08,-2.49,59704.18
2315600,769.00,673.57,1.00,1,1,1,2626.70,2.77,389483.72,1440.84,-1.94,189025.10,514.44,0.55,66239.32,191.18,1.13,17091.86,332.23,-0.63,26716.86
2330300,789.04,620.74,1.00,1,1,1,3843.66,-1.21,403983.16,686.61,-0.75,91245.75,232.99,2.26,40456.49,314.48,-0.42,24821.47,118.55,-0.81,14739.55
2352600,787.55,656.21,1.00,1,1,1,1591.83,1.61,241160.13,1374.96,1.47,84016.67,224.07,-0.56,20236.86,523.90,0.49,18621.74,165.23,0.16,6226.01
2367500,794.08,671.64,1.00,1,1,1,1124.78,1.17,50362.69,376.25,2.13,73897.60,439.23,0.96,32396.42,165.65,1.07,26564.60,177.37,0.39,2750.38
2382200,781.66,665.66,1.00,1,1,1,938.24,-2.69,131381.81,599.18,-0.95,66323.00,533.64,0.45,17970.42,556.05,-0.73,41843.69,59.86,-0.26,9171.50
2411800,809.56,650.07,1.00,1,1,1,1079.70,-0.51,60541.20,951.77,0.18,29762.48,289.91,0.42,8241.16,99.67,1.84,21694.21,75.23,0.07,906.48
2426500,823.14,673.19,1.00,1,1,1,1823.75,1.04,142780.52,856.09,1.38,69581.87,830.50,-0.76,52336.94,109.10,0.25,10179.91,156.00,0.33,5823.33
2448900,815.64,681.25,1.00,1,1,1,491.65,2.32,78033.07,1474.82,-1.44,102765.25,432.02,-2.59,45883.77,33.25,-1.26,4998.74,128.97,-2.12,11964.10
2463700,830.52,618.82,1.00,1,1,1,4336.16,-1.34,322301.63,1880.24,-2.15,83720.55,368.62,-2.57,4304.52,189.93,-1.38,10605.93,165.16,-1.18,9192.41
2478400,785.08,634.96,1.00,1,1,1,3280.69,2.80,456564.76,1688.35,2.17,201653.96,335.50,-2.51,2666.84,206.32,2.36,25754.93,48.70,0.99,13392.36
2493200,802.42,659.95,1.00,1,1,1,2055.37,0.96,290844.04,759.41,1.25,92537.55,567.91,2.77,32235.89,202.11,-2.40,19028.07,87.68,-1.69,8986.97
2522500,795.66,666.73,1.00,1,1,1,327.00,2.35,69028.29,557.50,-2.12,44674.04,451.48,1.49,21025.80,409.77,-2.10,7675.61,153.07,-1.64,2240.34
2544800,787.53,635.34,1.00,1,1,1,1454.35,-1.82,73763.94,246.32,2.59,27393.07,87.19,-1.76,24135.34,281.52,2.95,18586.08,205.81,-0.56,8508.76
2559600,787.87,671.51,1.00,1,1,1,2444.40,1.56,261598.05,752.40,0.92,55128.01,517.56,-1.86,29115.52,71.92,-0.08,23855.10,279.60,0.57,18000.24
2574400,801.10,652.99,1.00,1,1,1,1538.04,-0.95,256551.26,1026.27,-1.66,115563.44,110.04,-1.53,28026.87,205.13,-2.10,16543.46,236.75,-0.90,23387.78
2603700,783.69,626.45,1.00,1,1,1,1083.49,-2.15,52151.49,659.70,-2.05,16471.52,406.27,-1.31,10234.40,269.92,-1.68,3967.89,971.88,-0.10,28129.69
2618300,787.82,627.26,1.00,1,1,1,288.49,0.19,89144.44,309.46,0.49,63775.16,310.66,-2.17,21328.93,320.85,-0.09,29039.58,1364.38,0.02,28505.17
2655200,797.75,633.95,1.00,1,1,1,324.50,0.59,3440.23,73.34,2.78,9811.95,96.42,-0.43,9229.95,621.50,0.25,9115.50,1239.59,-0.12,5904.73
2669800,784.29,628.59,1.00,1,1,1,992.52,-2.76,89822.95,431.98,-2.14,28948.42,606.60,0.08,35919.77,477.28,-0.50,29104.95,1227.13,-0.07,3750.34
2684900,790.80,623.17,1.00,2,2,2,560.93,-0.69,89612.10,1770.64,0.04,135844.43,1752.83,0.64,84802.57,2208.46,0.08,121074.12,1178.17,-0.22,12042.97
2699600,837.00,630.96,1.00,2,2,2,3187.37,0.17,194140.03,3942.13,0.68,185046.76,1284.05,-0.15,84341.47,3085.57,0.00,61283.17,1513.51,-0.02,28838.75
2714200,880.94,695.39,1.00,3,3,3,5341.50,0.97,266113.14,958.36,-0.44,248283.97,4822.50,0.09,245806.09,2713.20,-0.12,34597.37,1334.74,-0.09,13867.98
2736500,868.99,615.88,1.00,3,3,3,3605.62,-1.72,391518.21,6289.10,-0.19,240664.13,6141.50,-0.01,63958.11,2896.28,0.01,17700.54,1245.91,-0.15,5320.48
2750900,1107.73,652.49,1.00,1,1,1,16773.28,0.15,1262002.40,12836.29,0.03,474710.05,3856.15,-0.34,195045.00,2464.12,-0.10,35846.78,1479.91,0.01,22219.62
2765600,1242.33,627.92,1.00,1,1,1,9307.65,-0.18,580677.38,2076.69,-0.75,779227.60,4379.55,0.05,115234.12,2765.14,-0.02,25121.14,1465.16,0.02,1211.19
2795300,1175.29,589.75,1.00,1,1,1,2597.52,-2.62,384512.42,1183.71,3.06,104116.66,963.20,-0.97,133450.30,2131.10,-0.19,25791.85,1485.17,-0.04,2645.77
2809900,1190.04,631.94,1.00,1,1,1,3061.79,1.23,363167.20,640.46,-3.06,38353.63,52.54,-0.87,62393.49,2176.09,-0.06,19169.06,1432.90,-0.02,3924.63
2832100,1151.80,587.88,1.00,1,1,1,2628.38,-2.29,251764.55,1488.59,-0.13,95453.99,716.46,1.27,33608.61,741.10,-0.21,65189.21,1324.04,-0.07,5842.77
2847200,1245.09,624.64,1.00,1,1,1,6640.59,0.38,599547.84,2042.16,0.90,119517.61,589.54,-2.01,86301.17,238.25,2.95,64854.23,1261.24,0.00,7443.00
2861700,1189.45,635.16,1.00,1,1,1,3904.70,2.95,700666.39,2612.60,-2.76,310363.20,1209.31,0.64,120669.96,307.79,0.82,33065.81,889.54,-0.44,41021.32
2876700,1173.44,596.23,1.00,1,1,1,2806.24,-1.96,288259.27,693.27,-0.23,213847.52,626.41,2.88,111564.18,134.11,-2.49,29371.21,980.39,-0.14,19731.76
2891500,1209.59,630.54,1.00,1,1,1,3367.21,0.76,407981.00,1778.49,0.81,104442.64,310.75,-0.84,60968.54,146.76,0.43,18861.70,305.06,-2.58,83085.86
2906100,1209.44,634.16,1.00,1,1,1,248.05,1.61,219830.74,340.51,-2.10,144619.25,376.59,1.48,43178.28,327.78,2.99,31338.73,1521.66,3.14,87314.30
2928400,1203.25,619.69,1.00,1,1,1,705.59,-1.98,41951.30,974.27,-2.77,33130.55,640.97,-2.42,42621.66,507.12,-2.37,18133.84,1585.06,3.01,9050.31
2943100,1175.83,621.12,1.00,1,1,1,1867.75,3.09,119331.73,912.38,-2.52,16400.27,123.63,-2.89,36277.14,145.79,-2.05,25275.85,1483.40,3.10,11488.74
2972400,1170.52,596.44,1.00,1,1,1,861.67,-1.78,65821.19,592.17,0.41,51096.64,879.38,-2.62,25964.88,1125.22,-2.99,35686.54,1344.13,2.89,11025.77
2987200,1199.73,631.64,1.00,1,1,1,3090.61,0.88,261830.70,858.43,-2.71,98010.67,499.11,-1.85,42246.11,2639.12,-3.13,103585.16,1870.70,-3.07,49131.93
3024000,1130.26,577.98,1.00,3,3,3,2385.51,-2.48,147919.92,1311.31,-2.16,20053.99,1745.18,3.09,46194.81,3112.72,3.08,13929.39,1450.51,3.13,12025.74
3038700,1162.47,575.32,1.00,3,3,3,2198.91,-0.08,290792.65,3552.52,2.89,228253.45,5167.72,-3.14,233076.81,2621.14,3.07,33477.75,1402.62,3.09,5060.02
3053200,1029.68,603.38,1.00,3,3,3,9360.19,2.93,796207.75,13112.96,3.00,661165.55,7013.06,2.97,146309.83,2736.72,2.93,28441.18,1510.15,-3.12,10541.25
3068000,782.19,630.08,1.00,1,1,1,16819.78,3.03,511207.87,10429.16,3.00,181341.99,6296.46,2.96,48582.88,3347.64,-3.05,74806.94,1492.82,-3.13,1757.63
3082900,723.17,648.00,1.00,1,1,1,4139.54,2.85,857444.75,954.02,2.56,642646.97,3989.75,2.84,160310.58,2748.16,2.98,65808.09,1583.14,-3.12,6311.70
3104800,752.94,649.50,1.00,1,1,1,1361.34,0.05,248404.73,1749.14,0.57,105387.08,1278.34,-2.60,149654.90,2962.75,3.04,12510.54,1511.37,-3.11,3287.57
3119500,777.21,682.31,1.00,1,1,1,2776.07,0.93,148465.73,2590.39,-2.18,289600.09,357.82,-0.24,105735.01,1949.11,3.08,69348.81,1479.20,3.05,12546.28
3134300,709.35,586.74,1.00,1,1,1,7919.79,-2.19,722666.86,1097.60,-2.13,100993.71,416.62,-1.64,33846.27,234.65,3.13,115865.23,1529.83,-3.13,10793.73
3163800,751.30,641.17,1.00,1,1,1,2329.36,0.91,347381.93,1191.19,0.66,76405.85,869.35,-2.08,17751.05,274.33,-1.51,12652.36,1345.73,3.04,8115.78
3178400,750.88,618.91,1.00,1,1,1,1524.77,-1.59,251264.80,600.74,-1.96,119029.96,714.69,0.85,107898.55,379.48,-2.24,17426.70,2962.75,3.04,110758.85
3200600,742.91,620.72,1.00,1,1,1,368.15,2.92,73847.76,322.35,1.85,39491.03,635.83,-2.22,60802.27,439.22,-2.43,4291.08,1949.11,3.08,45920.15
3215500,747.58,630.41,1.00,1,1,1,721.88,1.12,59120.25,732.08,-2.50,60367.03,495.77,-2.80,23438.52,276.07,1.16,46863.50,234.65,3.13,115087.61
3230200,725.61,607.66,1.00,1,1,1,2150.92,-2.34,193564.63,1212.75,-2.46,32765.78,326.89,2.36,31364.39,174.93,-1.78,30533.01,274.33,-1.51,25390.79
3245000,719.74,607.93,1.00,1,1,1,397.14,3.10,129177.69,682.13,1.56,116760.32,256.63,-3.02,17870.35,495.77,-2.80,29182.52,379.48,-2.24,17191.21
3274300,725.87,637.74,1.00,1,1,1,1038.68,1.37,39879.10,413.17,1.22,11073.64,273.36,0.39,17935.96,326.89,2.36,15735.72,439.22,-2.43,3251.26
3296200,727.03,627.79,1.00,1,1,1,457.59,-1.45,67585.32,810.92,-0.82,48593.02,413.17,1.22,13952.79,256.63,-3.02,12076.76,276.07,1.16,31884.30
3310900,746.04,615.98,1.00,1,1,1,1522.56,-0.56,87629.70,1522.56,-0.56,52434.17,810.92,-0.82,72393.68,273.36,0.39,35749.90,174.93,-1.78,30533.01
