@RELATION gaze_labels

%@METADATA width_px 1920
%@METADATA height_px 1080
%@METADATA width_mm 540.00
%@METADATA height_mm 254.00
%@METADATA distance_mm 620.00


@ATTRIBUTE time INTEGER
@ATTRIBUTE x NUMERIC
@ATTRIBUTE y NUMERIC
@ATTRIBUTE confidence NUMERIC
@ATTRIBUTE handlabeller1 INTEGER
@ATTRIBUTE handlabeller2 INTEGER
@ATTRIBUTE handlabeller_final INTEGER
@ATTRIBUTE speed_1 numeric
@ATTRIBUTE direction_1 numeric
@ATTRIBUTE acceleration_1 numeric
@ATTRIBUTE speed_2 numeric
@ATTRIBUTE direction_2 numeric
@ATTRIBUTE acceleration_2 numeric
@ATTRIBUTE speed_4 numeric
@ATTRIBUTE direction_4 numeric
@ATTRIBUTE acceleration_4 numeric
@ATTRIBUTE speed_8 numeric
@ATTRIBUTE direction_8 numeric
@ATTRIBUTE acceleration_8 numeric
@ATTRIBUTE speed_16 numeric
@ATTRIBUTE direction_16 numeric
@ATTRIBUTE acceleration_16 numeric

%The number after speed, direction denotes the step size that was used for the calculation.
%Acceleration was calculated between two adjacent samples of the already low pass filtered velocity

@DATA
0,214.57,934.86,1.00,1,1,1,0.00,0.00,0.00,2059.49,0.31,0.00,223.70,-3.11,0.00,511.96,-0.02,0.00,34.06,-2.14,0.00
14000,242.07,943.53,1.00,1,1,1,2059.49,0.31,147106.08,223.70,-3.11,162555.44,701.19,-2.79,35249.85,812.55,-2.73,92562.34,14.20,-1.10,2110.42
51100,203.14,934.47,1.00,1,1,1,1077.16,-2.91,84489.48,701.19,-2.79,13301.83,511.96,-0.02,32165.41,166.59,-2.38,17754.78,128.54,2.47,3817.38
65100,208.41,931.24,1.00,1,1,1,441.03,-0.55,101797.93,1794.57,-0.01,176002.00,812.55,-2.73,92562.34,60.94,-1.44,9947.64,144.03,3.00,5226.28
80400,255.72,934.18,1.00,1,1,1,3098.52,0.06,179688.72,1007.82,-2.66,178127.69,166.59,-2.38,43052.45,34.06,-2.14,2679.60,114.44,-2.98,3190.07
95000,181.74,917.21,1.00,1,1,1,5198.84,-2.92,566534.68,2027.68,-3.03,78866.84,60.94,-1.44,9538.83,14.20,-1.10,2023.70,664.54,-0.02,53244.91
110000,196.06,927.69,1.00,1,1,1,1182.63,0.63,420167.74,962.11,0.37,197876.37,652.85,-3.06,43897.34,128.54,2.47,9441.66,828.85,-0.23,15075.68
125200,208.87,927.61,1.00,1,1,1,843.09,-0.01,46852.71,425.35,0.18,36143.01,987.75,0.38,106784.88,144.03,3.00,4813.68,623.22,-0.32,14085.47
147800,211.87,930.61,1.00,1,1,1,187.54,0.79,32023.73,1009.05,0.39,26515.06,238.81,1.94,44831.05,114.44,-2.98,2159.65,373.34,-0.40,11208.33
161800,243.02,941.66,1.00,1,1,1,2361.47,0.34,156691.91,633.40,2.56,104361.64,240.46,2.85,15136.84,664.54,-0.02,55526.84,261.67,-0.54,8541.59
190900,189.13,945.72,1.00,1,1,1,1857.29,3.07,141894.51,882.35,-3.02,19753.99,271.80,0.03,17388.56,828.85,-0.23,7770.97,326.62,-0.36,2860.37
227800,185.22,934.62,1.00,2,2,2,318.93,-1.91,48798.10,987.28,-0.29,49599.39,567.27,-0.45,9440.78,623.22,-0.32,5802.14,347.28,-0.35,572.80
242000,237.46,931.26,1.00,3,3,3,3686.83,-0.06,266603.96,2621.63,-0.17,115847.36,1656.17,-0.33,77085.15,692.67,-0.36,5321.01,241.27,-0.46,7786.06
272000,299.34,914.52,1.00,1,1,1,2136.60,-0.26,54942.95,2432.79,-0.35,16378.07,1828.74,-0.31,5910.75,470.86,-0.53,8027.38,449.56,-0.10,7966.07
286100,338.09,894.04,1.00,1,1,1,3108.39,-0.49,79927.15,857.91,-0.99,128586.48,1208.05,-0.46,46713.80,685.27,-0.41,15936.37,367.66,-0.20,6525.30
301300,313.20,893.55,1.00,1,1,1,1637.54,-3.12,303267.43,372.13,-2.66,63859.81,321.23,-0.75,59547.08,842.56,-0.31,11375.89,341.45,-0.28,2567.54
323500,325.73,887.64,1.00,1,1,1,624.01,-0.44,99727.78,180.98,1.32,23029.57,485.10,3.03,34534.25,582.57,-0.34,11746.47,459.76,-0.20,5527.81
338200,314.89,900.01,1.00,1,1,1,1119.22,2.29,116303.07,663.09,2.76,45236.04,10.71,-0.57,33653.70,199.41,-0.41,26110.39,330.01,-0.39,10188.68
366200,299.45,898.18,1.00,1,1,1,555.13,-3.02,33076.80,139.91,-1.70,25397.75,157.05,1.59,5830.91,189.21,2.77,13876.44,513.64,-0.27,6793.07
388400,313.99,893.05,1.00,1,1,1,694.39,-0.34,54835.78,722.41,0.07,34345.31,144.91,0.27,8374.86,24.76,1.23,8569.80,691.50,-0.21,8171.92
402300,325.47,900.01,1.00,1,1,1,965.94,0.55,54100.34,539.19,0.70,30638.47,211.89,0.43,5220.89,225.15,0.47,14952.71,693.07,-0.22,601.95
417300,325.94,903.04,1.00,1,1,1,204.58,1.42,56571.28,457.46,2.85,58537.70,66.86,1.46,12447.15,175.18,0.07,6176.51,358.03,-0.40,23102.74
432500,312.24,904.00,1.00,1,1,1,903.66,3.07,62069.47,437.38,-2.65,22399.93,469.25,0.06,30419.44,319.46,0.12,9514.65,245.82,-0.24,8028.89
447100,314.42,896.95,1.00,1,1,1,505.54,-1.27,81109.01,1385.64,-0.05,121585.64,221.85,-0.09,17289.01,533.54,-0.03,15258.30,357.62,-0.12,8041.22
462400,353.61,901.80,1.00,1,1,1,2581.10,0.12,166105.40,840.29,0.19,39679.44,441.15,-0.03,14389.69,826.27,-0.13,19602.30,463.57,-0.04,7257.27
477100,339.15,901.83,1.00,2,2,2,983.64,3.14,242120.73,327.01,3.03,78663.80,908.87,-0.08,31906.02,520.79,-0.40,23984.84,535.77,-0.03,4915.08
499200,341.65,903.13,1.00,2,2,2,127.52,0.48,49692.21,975.14,-0.22,58854.86,1098.11,-0.19,9840.64,637.45,-0.27,6213.96,550.18,-0.11,1954.33
530000,389.49,890.58,1.00,1,1,1,1605.96,-0.26,49155.21,2270.58,-0.18,42098.93,748.62,-0.47,13908.14,675.45,-0.15,2889.74,950.85,-0.06,13057.28
543900,441.46,884.73,1.00,1,1,1,3762.34,-0.11,157220.60,582.76,-1.31,150175.83,787.29,-0.37,6018.81,699.71,-0.17,2037.92,1308.37,-0.05,25726.25
558900,393.86,874.32,1.00,1,1,1,3248.72,-2.93,461185.07,609.37,-2.86,55530.26,436.73,-0.30,23532.88,809.91,-0.05,9583.41,1579.27,-0.02,18387.81
594700,411.77,875.99,1.00,1,1,1,502.40,0.09,104689.51,584.80,0.21,33333.74,293.80,-0.10,4458.56,732.97,-0.18,3542.92,1615.23,-0.01,1009.11
608800,422.39,880.46,1.00,1,1,1,817.05,0.40,26231.58,1841.74,0.12,89400.90,942.76,0.21,47457.69,1320.87,-0.07,42416.79,1546.47,-0.02,4887.47
623700,464.79,882.40,1.00,2,2,2,2848.97,0.05,141015.17,1288.94,0.21,38271.38,706.95,0.07,17619.00,1735.50,-0.02,28267.39,1357.01,-0.03,12738.06
660400,487.42,894.39,1.00,2,2,2,697.84,0.49,60983.56,82.96,-0.61,33629.71,2194.22,-0.03,40653.91,2546.75,0.05,22471.99,1391.85,-0.04,1119.23
674800,468.26,879.95,1.00,3,3,3,1666.45,-2.50,163759.00,3882.30,-0.16,264435.53,3153.33,-0.01,66641.51,2659.49,0.05,7831.14,1444.17,-0.02,4430.28
689800,600.06,875.96,1.00,3,3,3,8791.16,-0.03,676323.68,8390.94,-0.00,306554.03,5291.63,0.00,142610.71,2450.97,0.02,14758.82,1200.45,-0.03,16325.28
704900,720.82,879.02,1.00,1,1,1,7999.81,0.03,60822.61,6728.02,0.09,120082.20,4720.27,0.05,40569.31,2010.28,0.02,29192.56,1055.48,-0.01,9702.69
720300,804.39,894.93,1.00,1,1,1,5523.93,0.19,175425.20,2330.76,0.16,286117.89,2728.71,0.06,129357.70,2141.53,-0.04,11892.14,1212.92,0.03,10668.97
750700,826.15,896.39,1.00,1,1,1,717.34,0.07,158309.40,161.58,-1.16,75524.35,909.58,0.15,60033.45,2340.81,0.05,9078.60,1268.46,0.01,1905.39
765900,807.36,888.18,1.00,1,1,1,1348.96,-2.73,134116.23,812.85,-2.95,56777.93,208.20,-2.38,71513.70,1079.12,0.01,83096.72,1185.30,0.02,5510.30
788500,795.99,890.53,1.00,1,1,1,513.71,2.94,43164.21,440.75,-2.82,16798.55,391.63,-3.13,12260.01,355.19,0.01,32032.64,1011.32,0.00,7760.32
802700,791.95,883.11,1.00,1,1,1,594.49,-2.07,46693.65,245.25,0.91,46403.98,502.61,-2.88,10924.64,128.21,-2.63,33237.64,1483.60,-0.01,33276.15
816800,800.26,895.99,1.00,1,1,1,1087.25,1.00,119196.12,556.36,-2.92,54056.39,308.12,-2.64,15326.92,231.14,-2.68,7318.50,2570.15,0.02,77158.08
845900,768.50,877.83,1.00,1,1,1,1257.21,-2.62,78284.58,651.04,-2.55,8350.08,74.86,2.85,8961.16,171.06,3.14,3778.55,2185.12,0.03,13301.78
861200,776.33,879.78,1.00,1,1,1,527.24,0.24,115711.02,520.25,0.37,76095.72,191.79,-1.86,13440.39,178.55,-2.83,3633.79,1760.86,0.03,27733.48
882500,786.22,884.81,1.00,1,1,1,520.84,0.47,5563.06,538.33,0.07,7569.70,259.19,0.65,20144.47,813.33,0.06,46344.68,1498.67,-0.01,12620.25
897500,795.82,881.17,1.00,2,2,2,684.54,-0.36,33986.05,174.16,2.43,44846.82,75.51,2.49,19252.84,2772.15,-0.01,130753.02,1569.35,0.00,4773.64
912500,782.28,888.24,1.00,2,2,2,1018.48,2.66,113342.79,777.17,3.07,43103.22,2002.84,0.04,137427.36,3341.12,0.04,39131.86,1576.37,-0.00,813.44
927800,772.33,882.83,1.00,2,2,2,739.76,-2.64,56355.99,4184.75,0.01,324156.57,5559.82,0.03,232508.30,3102.22,0.03,15741.62,1715.65,0.00,9121.66
941800,904.88,889.88,1.00,3,3,3,9481.07,0.05,725280.77,9278.90,0.02,363888.82,5858.25,0.02,21431.47,3156.63,0.01,5556.96,1634.53,0.03,6753.31
979400,1251.01,893.44,1.00,1,1,1,9205.96,0.01,12915.73,6774.87,0.02,66597.88,5268.01,0.03,15712.25,3217.81,0.03,2158.44,1574.30,-0.01,2448.87
995300,1267.23,898.67,1.00,1,1,1,1072.03,0.31,514999.99,730.59,0.08,380229.15,3853.30,0.01,89163.26,3194.65,-0.00,7406.28,1904.60,0.03,21219.43
1025000,1284.21,896.16,1.00,1,1,1,577.90,-0.15,20535.56,395.60,-0.39,14050.74,707.70,0.07,105967.44,3384.65,0.01,6757.83,1676.08,0.01,7736.62
1040100,1283.66,892.01,1.00,1,1,1,277.68,-1.70,42236.17,674.13,0.04,23488.02,323.41,-0.55,31992.11,2323.48,0.02,70284.17,1725.61,0.01,3291.87
1055800,1304.95,897.06,1.00,1,1,1,1394.32,0.23,96560.59,246.40,-0.96,36970.54,357.16,-0.25,6822.19,206.40,-0.14,135035.72,1613.09,0.02,7245.63
1070800,1287.99,885.81,1.00,1,1,1,1357.47,-2.56,180607.17,214.69,-1.56,9297.21,129.87,0.72,20243.16,387.14,-0.12,12055.34,1669.36,0.00,4145.58
1085200,1305.02,890.75,1.00,1,1,1,1231.66,0.28,177743.44,330.47,1.38,37680.69,396.34,-2.84,35960.36,76.83,-1.18,24723.76,1858.85,0.02,13296.95
1107700,1290.27,897.79,1.00,1,1,1,726.45,2.70,81724.80,686.81,-3.08,36966.12,519.26,0.19,40624.23,135.03,-0.11,5296.76,1052.27,-0.01,35911.78
1121600,1280.06,889.28,1.00,1,1,1,955.49,-2.45,66737.42,1107.38,-0.18,128200.08,212.56,-2.87,52607.51,120.16,-2.79,17871.13,751.30,3.12,129750.86
1136300,1321.42,892.07,1.00,1,1,1,2819.58,0.07,247387.27,196.63,-0.37,62238.93,198.43,-0.57,25536.95,40.64,0.81,10721.67,1280.48,3.12,35999.31
1166700,1288.33,886.09,1.00,1,1,1,1105.85,-2.96,128963.26,414.73,-3.03,19600.01,104.18,0.20,4702.00,221.28,0.09,6335.29,1362.15,-3.12,3318.45
1181800,1302.67,889.89,1.00,1,1,1,982.36,0.26,138180.06,134.65,1.56,29887.40,360.08,-3.08,30697.60,478.98,-2.95,46325.14,1318.64,-3.12,2898.63
1202900,1288.36,890.96,1.00,2,2,2,679.97,3.07,77723.97,293.01,3.12,15179.69,761.62,0.16,53114.24,1676.52,3.10,57599.79,1309.54,-3.12,466.99
1217900,1292.10,890.15,1.00,2,2,2,254.74,-0.22,62191.83,1696.71,0.06,132593.60,1206.00,-3.08,131039.24,2883.89,3.11,80493.66,1224.81,3.12,6699.32
1231800,1337.32,893.76,1.00,2,2,2,3263.76,0.08,217333.85,2372.21,-3.07,292716.02,3876.51,3.11,192670.40,2720.14,3.14,13415.07,1328.17,-3.12,8445.02
1246200,1225.16,885.08,1.00,3,3,3,7812.48,-3.06,769183.15,8248.94,3.12,409095.68,6059.58,3.10,151649.04,2605.89,-3.13,8486.00,1254.19,-3.13,5313.15
1268600,1033.80,898.93,1.00,1,1,1,8564.88,3.07,64051.95,8926.12,3.07,35706.55,5546.52,-3.13,27238.43,2396.36,-3.13,9377.61,1308.48,-3.14,2438.72
1282800,899.18,906.83,1.00,1,1,1,9496.47,3.08,66170.92,3255.50,-3.06,403334.08,3551.10,-3.14,140576.73,2360.54,3.13,3720.69,1343.06,3.14,2585.17
1311800,893.65,887.32,1.00,1,1,1,699.61,-1.85,323109.10,441.53,-2.10,104243.19,1391.20,-3.06,74722.41,2609.64,-3.11,9153.88,1380.04,-3.11,2089.66
1341700,886.03,884.40,1.00,1,1,1,272.82,-2.78,19367.82,128.50,0.12,17714.25,170.53,-0.92,49837.65,1869.47,3.11,25109.30,1309.99,-3.14,2639.07
1364800,900.40,888.16,1.00,1,1,1,643.30,0.26,39608.89,650.38,0.38,22814.40,202.28,-2.81,13092.80,991.94,-3.08,38393.12,1205.27,-3.14,4533.50
1380100,909.23,893.63,1.00,1,1,1,678.94,0.55,13091.37,596.39,-2.86,81389.67,167.62,0.85,23367.81,95.37,-2.34,60363.80,1420.25,3.12,14133.07
1409000,875.07,880.87,1.00,1,1,1,1261.85,-2.78,66858.30,334.40,3.07,10564.18,466.86,-3.14,20453.60,204.57,-2.72,4200.40,1817.70,3.11,13765.00
1422900,894.96,894.67,1.00,1,1,1,1741.51,0.61,214437.71,391.19,2.46,16131.68,274.64,3.09,13902.28,92.48,0.34,21357.11,2093.25,3.12,19859.28
1437800,866.32,887.97,1.00,1,1,1,1973.71,-2.91,244949.12,204.87,3.13,17739.86,210.67,-2.60,10375.59,170.97,0.10,5653.62,1558.76,3.13,35881.20
1459400,887.48,894.72,1.00,1,1,1,1028.17,0.31,138877.94,394.11,-1.79,18734.76,102.84,-0.96,11150.89,326.91,3.06,22964.95,1208.08,-3.11,16458.42
1474900,863.19,873.69,1.00,1,1,1,2073.04,-2.43,196462.48,417.98,-0.46,32265.09,862.90,0.04,52392.44,845.51,2.90,33905.34,1130.51,3.11,7055.89
1490000,898.94,889.03,1.00,2,2,2,2576.14,0.41,304287.16,2104.73,0.27,120200.00,396.19,3.03,83173.63,2358.85,3.13,102564.11,1181.01,3.11,3348.85
1505000,924.25,890.56,1.00,2,2,2,1690.90,0.06,75920.68,1223.20,2.91,215441.58,1464.33,2.81,72107.93,2209.21,3.09,11861.24,1332.31,3.10,10148.86
1519500,863.81,897.29,1.00,2,2,2,4194.26,3.03,404655.18,3701.54,3.03,171776.77,4341.14,3.12,205425.15,2625.82,3.14,29923.93,1468.81,3.14,10197.25
1549800,759.50,909.45,1.00,3,3,3,3465.76,3.03,24051.62,6112.72,3.14,81515.80,4742.64,3.10,13372.99,2222.73,3.06,14792.16,1233.08,3.08,8158.05
1571900,543.50,897.77,1.00,1,1,1,9788.01,-3.09,289553.83,6040.79,-3.12,7102.10,4261.76,-3.13,23475.73,2508.20,3.12,14567.20,1230.57,3.13,2807.15
1586400,538.46,904.71,1.00,1,1,1,591.14,2.20,653762.86,989.40,-3.05,348599.84,3150.63,-3.09,77326.65,2817.97,3.10,21641.15,1276.71,3.12,3418.93
1601500,514.35,894.96,1.00,1,1,1,1722.12,-2.76,111248.00,398.72,-0.45,89101.25,35.44,-1.41,208923.38,2589.23,-3.14,16836.82,1149.46,3.09,8704.98
1616600,549.28,899.42,1.00,1,1,1,2331.83,0.13,266307.28,979.83,0.02,43208.15,219.90,3.08,15255.88,1662.63,-3.11,61522.18,1165.45,3.08,1331.80
1631600,543.84,895.69,1.00,1,1,1,440.06,-2.54,182047.55,824.74,2.89,119177.91,311.60,3.09,6115.74,85.04,0.05,116510.26,1175.21,3.12,3380.92
1646700,525.23,905.57,1.00,1,1,1,1395.38,2.65,83043.64,1601.81,3.13,54688.04,187.60,2.97,8408.19,311.49,-2.97,26229.29,1443.27,-3.14,17864.84
1661700,495.62,896.01,1.00,1,1,1,2074.16,-2.83,99323.05,331.63,-0.33,127918.38,159.23,0.24,22633.64,349.70,0.35,43903.92,1166.47,-3.12,18514.73
1683800,536.85,901.53,1.00,1,1,1,1882.24,0.13,178306.40,1546.83,0.04,56287.81,384.71,-2.88,24612.11,217.31,-3.03,25491.20,1151.01,-3.13,948.19
1699700,554.36,898.31,1.00,1,1,1,1119.49,-0.18,55884.93,938.06,-3.04,156215.44,821.87,0.24,75879.80,22.74,0.14,15096.74,941.58,3.05,14838.73
1729000,494.66,897.32,1.00,1,1,1,2037.68,-3.12,107267.14,343.32,1.11,39547.86,247.96,-2.87,36509.50,271.75,-2.77,10030.75,311.49,-2.97,22046.55
1743700,561.14,911.81,1.00,1,1,1,4628.37,0.21,451588.71,460.04,-0.08,31309.33,81.46,-2.84,11329.81,82.80,-0.45,22675.08,349.70,0.35,44799.92
1774000,515.29,895.59,1.00,1,1,1,1605.02,-2.80,205413.21,457.57,-2.29,27048.27,165.33,-2.50,3062.62,714.84,3.09,26123.81,217.31,-3.03,18592.59
1789200,547.39,896.18,1.00,2,2,2,2111.88,0.02,241435.52,886.47,-2.94,38931.89,710.60,-2.75,36325.60,1786.79,3.05,70598.51,22.74,0.14,15791.99
1810100,483.91,889.30,1.00,2,2,2,3054.77,-3.03,246969.04,1126.18,-2.99,11669.94,1369.74,3.02,39512.76,165.33,-2.50,79780.25,271.75,-2.77,14062.25
1824800,507.76,890.08,1.00,3,3,3,1623.14,0.03,318021.77,2026.98,2.85,75998.56,4121.88,3.04,187255.30,710.60,-2.75,37561.16,82.80,-0.45,22675.08
1840400,425.03,906.76,1.00,3,3,3,5409.96,2.94,448696.12,7726.77,3.00,367189.60,2026.98,2.85,138691.80,1369.74,3.02,52936.97,714.84,3.09,50740.47
1854800,278.37,923.41,1.00,1,1,1,10250.41,3.03,339064.83,10250.41,3.03,176313.71,7726.77,3.00,397788.74,4121.88,3.04,191156.45,1786.79,3.05,74520.65
