@RELATION gaze_labels

%@METADATA width_px 1920
%@METADATA height_px 1080
%@METADATA width_mm 540.00
%@METADATA height_mm 254.00
%@METADATA distance_mm 620.00


@ATTRIBUTE time INTEGER
@ATTRIBUTE x NUMERIC
@ATTRIBUTE y NUMERIC
@ATTRIBUTE confidence NUMERIC
@ATTRIBUTE handlabeller1 INTEGER
@ATTRIBUTE handlabeller2 INTEGER
@ATTRIBUTE handlabeller_final INTEGER
@ATTRIBUTE speed_1 numeric
@ATTRIBUTE direction_1 numeric
@ATTRIBUTE acceleration_1 numeric
@ATTRIBUTE speed_2 numeric
@ATTRIBUTE direction_2 numeric
@ATTRIBUTE acceleration_2 numeric
@ATTRIBUTE speed_4 numeric
@ATTRIBUTE direction_4 numeric
@ATTRIBUTE acceleration_4 numeric
@ATTRIBUTE speed_8 numeric
@ATTRIBUTE direction_8 numeric
@ATTRIBUTE acceleration_8 numeric
@ATTRIBUTE speed_16 numeric
@ATTRIBUTE direction_16 numeric
@ATTRIBUTE acceleration_16 numeric

%The number after speed, direction denotes the step size that was used for the calculation.
%Acceleration was calculated between two adjacent samples of the already low pass filtered velocity

@DATA
0,351.82,906.55,1.00,1,1,1,0.00,0.00,0.00,1728.34,-2.72,0.00,359.20,2.96,0.00,165.06,-2.43,0.00,138.96,-2.33,0.00
15000,328.16,895.94,1.00,1,1,1,1728.34,-2.72,115222.99,359.20,2.96,96449.83,204.80,1.74,23113.04,201.40,1.48,22649.71,172.09,-2.89,6119.09
52900,333.13,909.97,1.00,1,1,1,392.54,1.23,53280.71,204.80,1.74,9147.64,165.06,-2.43,8502.46,26.35,-0.26,5472.59,344.93,-2.99,4598.91
66900,326.35,906.42,1.00,1,1,1,546.57,-2.66,62572.18,517.40,-0.96,50596.09,201.40,1.48,24267.55,187.54,-1.86,13589.56,132.12,-0.38,33102.26
81600,341.60,897.77,1.00,1,1,1,1192.55,-0.52,105984.30,226.32,1.07,44272.45,26.35,-0.26,14109.59,138.96,-2.33,6112.23,396.71,-3.00,35063.79
97100,329.63,912.41,1.00,1,1,1,1220.15,2.26,153006.35,438.74,2.10,24304.74,187.54,-1.86,12274.45,172.09,-2.89,5921.70,78.87,-2.55,21119.90
112800,334.66,909.57,1.00,1,1,1,367.86,-0.52,99919.51,598.25,-1.94,59629.96,107.42,-2.13,5640.39,344.93,-2.99,11101.82,451.39,2.75,26305.53
127300,323.12,895.56,1.00,1,1,1,1251.47,-2.26,94072.14,594.31,-1.37,22999.37,521.36,-2.43,28965.48,132.12,-0.38,31960.80,368.72,2.69,5914.14
142600,338.15,892.21,1.00,1,1,1,1006.08,-0.22,126008.12,565.61,-2.85,51104.29,619.27,-3.00,21856.11,396.71,-3.00,33688.74,293.20,3.14,10748.52
163800,303.34,889.65,1.00,1,1,1,1646.12,-3.07,123842.90,1060.49,2.95,29127.78,258.20,0.19,41381.35,78.87,-2.55,15441.44,136.01,2.68,8549.43
193400,285.25,902.44,1.00,2,2,2,748.46,2.53,39511.06,929.65,0.24,65695.08,646.80,-3.10,30511.70,451.39,2.75,13952.60,43.11,2.04,3543.49
208500,343.72,899.47,1.00,2,2,2,3876.91,-0.05,299794.26,420.28,-1.52,72185.79,310.15,0.77,59758.30,368.72,2.69,5679.14,847.72,-0.15,57830.45
223500,285.87,889.81,1.00,3,3,3,3909.81,-2.98,516081.15,774.54,2.86,66179.28,541.32,1.87,32382.72,491.00,2.94,10810.42,1068.46,-0.02,16706.47
240000,320.26,906.16,1.00,1,1,1,2307.30,0.44,373394.49,1451.09,1.80,76942.57,1064.12,2.86,54035.77,175.47,2.04,24570.79,1111.51,-0.07,4216.66
255000,275.43,934.31,1.00,1,1,1,3529.02,2.58,343276.50,1308.68,2.86,93302.57,379.25,2.43,49133.22,319.54,0.41,24921.15,927.68,-0.11,12498.58
277300,273.36,919.70,1.00,1,1,1,661.78,-1.71,172495.91,777.26,-1.90,66867.69,371.09,2.87,7300.24,1485.20,-0.13,54831.56,1040.05,-0.04,5887.60
292300,266.12,906.85,1.00,1,1,1,982.96,-2.08,29244.70,394.20,-0.29,58922.77,648.30,-0.25,67954.30,2363.78,0.00,60818.04,888.91,-0.05,10081.29
323000,290.61,914.52,1.00,2,2,2,836.05,0.30,55116.01,1377.77,0.23,34309.12,3405.75,-0.17,89912.46,2169.44,-0.05,7502.26,1243.94,-0.01,11614.73
338100,327.62,920.96,1.00,2,2,2,2487.81,0.17,110099.48,6447.22,-0.16,344050.69,4367.50,-0.04,71068.24,2002.26,-0.16,18389.47,1200.52,-0.05,3976.53
368300,579.04,868.57,1.00,1,1,1,8503.78,-0.21,207255.44,7442.16,-0.09,36289.07,4949.55,-0.07,19811.72,2237.94,-0.10,8937.38,916.59,-0.07,9427.33
383500,664.08,890.04,1.00,1,1,1,5770.62,0.25,274123.85,2868.06,0.22,315433.76,3160.06,-0.14,119237.27,2075.51,-0.08,11078.11,1250.02,0.01,22637.32
398600,663.83,887.59,1.00,1,1,1,163.05,-1.67,385986.41,665.51,-2.74,233441.27,985.56,0.16,148393.95,2584.06,-0.08,33681.39,2398.99,-0.03,76235.20
435500,632.20,876.58,1.00,1,1,1,907.68,-2.81,23080.22,148.64,-2.27,14565.22,492.13,-2.86,39986.89,2043.07,-0.11,14843.95,2696.90,-0.05,8201.67
450400,658.88,881.70,1.00,1,1,1,1823.25,0.19,182853.16,245.50,2.82,15787.73,416.69,-0.11,59859.92,300.73,0.28,118726.08,2743.29,-0.02,5918.74
465800,625.13,878.92,1.00,1,1,1,2198.55,-3.06,260783.74,1276.26,0.05,97887.42,294.41,0.48,15389.24,67.86,0.39,15158.21,2754.84,-0.03,913.15
481100,698.00,883.83,1.00,1,1,1,4773.32,0.07,455666.92,783.57,0.25,34653.50,638.91,-3.11,59699.70,2642.41,-0.01,168637.30,2696.52,-0.04,4556.92
495900,647.98,884.77,1.00,2,2,2,3380.21,3.12,550418.60,2611.77,-3.10,228542.99,746.81,0.30,92789.90,3601.25,0.03,65200.81,2631.36,-0.03,4662.88
510900,620.24,880.44,1.00,2,2,2,1871.65,-2.99,104694.54,718.96,0.35,220340.73,5353.47,-0.00,309713.13,3369.07,0.04,15683.65,1871.88,0.01,51039.06
533600,673.48,893.95,1.00,3,3,3,2419.78,0.25,188845.84,11598.27,0.01,481172.83,6050.66,0.01,30818.50,3584.65,0.01,10361.37,1391.16,-0.05,21617.30
548900,1060.97,883.75,1.00,3,3,3,25334.38,-0.03,1504239.24,10593.32,-0.01,66760.54,6311.81,0.04,20087.28,2824.83,-0.01,49756.19,1519.73,-0.01,9107.15
578200,1145.93,889.72,1.00,1,1,1,2906.84,0.07,765965.48,1813.84,0.19,301162.39,6174.81,-0.02,13246.67,3264.32,0.02,15249.47,1854.13,0.00,11454.58
593300,1140.00,899.24,1.00,1,1,1,742.70,2.13,219862.26,332.11,-2.51,140358.97,527.35,-0.05,374022.46,3390.84,-0.01,10992.49,1542.00,0.01,20671.07
608800,1137.72,883.73,1.00,1,1,1,1011.33,-1.72,106409.91,1438.87,-2.73,72038.27,174.00,2.66,44489.02,2808.04,-0.06,38869.38,1093.96,0.01,28906.37
623500,1100.25,881.68,1.00,1,1,1,2552.56,-3.09,173553.64,316.91,1.76,104892.48,440.06,-2.15,31082.49,434.66,-0.03,161470.94,259.09,0.26,57503.96
645300,1135.56,895.09,1.00,1,1,1,1732.80,0.36,194329.52,689.00,-0.28,40297.37,1075.45,-2.95,38077.69,117.85,-0.71,16085.87,239.90,0.24,892.97
659500,1124.09,874.83,1.00,1,1,1,1639.71,-2.09,223415.23,2455.25,-2.78,213856.95,349.50,0.00,99999.59,103.17,-2.08,9880.29,347.70,0.21,7618.00
674500,1068.41,869.98,1.00,1,1,1,3726.15,-3.05,207132.70,182.62,1.00,173588.99,379.71,-0.61,14833.73,1085.78,-3.13,69236.86,60.64,-0.67,20860.01
704400,1128.52,881.73,1.00,1,1,1,2048.55,0.19,192884.84,2018.01,0.10,63879.21,126.38,0.90,13132.06,1806.65,3.07,24429.75,1110.59,3.14,38751.66
719400,1158.58,878.91,1.00,1,1,1,2012.33,-0.09,38724.79,80.93,0.69,130104.02,1112.82,3.03,79039.20,2412.56,3.12,41045.29,1431.73,-3.13,21459.19
757100,1131.80,884.46,1.00,2,2,2,725.35,2.94,72530.53,3755.36,3.13,101251.58,3591.31,3.08,65778.26,2302.13,3.07,4454.78,1401.97,-3.13,835.60
772200,960.31,881.63,1.00,3,3,3,11358.38,-3.13,705420.11,7866.03,3.08,272696.94,4496.89,3.09,60035.56,2128.68,3.11,13061.09,1894.82,3.14,32676.02
802100,778.43,905.00,1.00,1,1,1,6133.18,3.01,179330.49,5388.02,3.05,83188.99,5417.67,3.09,30820.58,2574.72,3.14,15048.47,1657.09,3.13,7960.89
816500,722.61,903.36,1.00,1,1,1,3877.51,-3.11,165431.60,1674.73,-3.12,258917.19,3362.46,3.14,143417.64,2739.72,3.13,11467.53,1856.36,-3.11,14649.21
831500,729.20,903.99,1.00,1,1,1,441.05,0.10,287845.28,1101.61,-2.58,61804.22,1134.25,-2.86,152916.72,2969.00,3.12,15657.60,1647.85,3.12,14913.27
853000,688.63,881.88,1.00,2,2,2,2149.30,-2.64,119108.31,822.40,-2.44,14407.78,370.33,-2.16,41096.26,2740.87,3.13,10758.51,1677.10,3.13,1408.77
868500,706.02,884.28,1.00,2,2,2,1132.83,0.14,208629.57,657.65,0.04,90380.26,284.29,-2.68,12077.41,1478.73,-3.06,82319.42,1894.39,3.12,14021.54
883600,708.73,882.75,1.00,2,2,2,206.17,-0.51,64691.94,427.04,1.07,37798.18,2076.36,3.11,121257.94,1199.57,-3.00,19248.61,1820.41,3.11,5082.32
898500,712.13,895.54,1.00,3,3,3,888.17,1.31,64489.59,3938.44,3.12,278529.90,1813.88,3.11,17626.67,915.25,-3.00,19083.26,2034.02,-3.13,15436.75
928500,531.95,887.20,1.00,1,1,1,6012.42,-3.10,211229.14,3158.75,-3.09,27488.13,2059.86,-3.12,8837.86,1115.85,-3.12,7684.29,1277.13,3.12,25313.98
943600,569.86,888.28,1.00,1,1,1,2511.29,0.03,564464.93,741.73,-0.35,255088.05,1435.08,-3.05,42041.46,1113.23,3.10,5254.12,506.81,-3.03,51492.40
959100,553.25,879.36,1.00,1,1,1,1216.34,-2.65,234819.93,602.13,-0.14,12905.91,145.62,-1.90,89215.50,758.98,3.03,23159.58,346.04,-2.94,10638.31
982000,592.76,885.09,1.00,1,1,1,1743.39,0.14,127347.73,659.12,-3.08,54803.25,337.94,3.00,14972.81,1109.05,-3.01,18053.56,288.52,-0.22,27119.40
996300,528.78,877.85,1.00,1,1,1,4502.84,-3.03,436755.81,1569.96,3.00,65305.60,766.24,0.30,75583.88,533.60,0.04,114755.44,474.20,0.02,14400.21
1011300,547.22,891.59,1.00,1,1,1,1533.07,0.64,391895.04,2571.89,0.22,271792.90,647.24,-2.87,94221.43,521.61,0.02,943.28,631.00,0.05,10505.22
1025400,601.75,894.48,1.00,1,1,1,3872.74,0.05,193751.60,666.31,-1.05,174655.72,1221.01,0.17,132329.35,566.84,0.07,3714.36,464.02,-0.01,12055.24
1039900,556.66,875.03,1.00,2,2,2,3386.42,-2.73,492837.17,183.98,-2.03,40224.80,1397.03,-0.02,20570.12,1556.30,0.00,68375.31,484.84,-0.00,1445.58
1054900,599.36,889.61,1.00,2,2,2,3007.67,0.33,425947.62,2242.67,0.18,157071.36,427.71,-0.35,66777.80,2098.25,0.02,36217.02,1195.88,-0.01,47402.74
1077500,639.68,889.77,1.00,2,2,2,1784.48,0.00,63462.99,789.12,-0.17,67364.81,3090.71,0.04,119469.76,2398.43,0.01,13408.34,1833.36,-0.01,28208.44
1092800,628.85,884.65,1.00,3,3,3,783.21,-2.70,164441.43,3827.39,-0.02,199243.32,2738.91,-0.02,25942.56,1524.07,-0.05,57588.35,2803.64,0.02,63589.59
1122300,811.11,885.79,1.00,1,1,1,6178.26,0.01,233775.28,4434.37,0.00,20860.31,3288.80,0.02,18995.86,1852.44,0.07,12990.78,2905.87,0.02,3467.62
1136600,823.08,884.93,1.00,1,1,1,839.25,-0.07,373568.03,2490.40,0.10,138007.50,2309.38,-0.01,68708.97,1705.81,-0.01,14392.02,3226.73,0.02,22440.60
1152000,884.67,893.46,1.00,1,1,1,4038.00,0.14,209219.19,526.22,-0.12,128602.25,612.08,0.19,111306.99,2954.49,-0.01,81083.13,3237.13,0.02,744.90
1188700,850.30,881.70,1.00,2,2,2,989.90,-2.81,136601.04,467.18,3.07,27060.45,684.21,0.01,3730.36,4706.66,0.02,47849.23,2684.14,-0.01,15274.42
1204200,860.35,895.19,1.00,2,2,2,1085.37,0.93,127900.83,967.97,0.13,92196.05,2654.16,-0.05,127182.81,4238.78,0.03,30437.99,3069.35,0.03,25724.53
1219200,879.59,885.40,1.00,3,3,3,1439.16,-0.47,109989.83,8085.06,-0.05,475589.60,8459.50,0.03,387786.79,4333.14,0.02,6906.10,2834.20,0.00,16265.02
1234200,1102.61,883.33,1.00,1,1,1,14868.59,-0.01,906322.76,15882.67,0.02,522818.36,9184.01,0.02,48977.63,4064.50,0.03,18054.66,2629.67,-0.02,14444.43
1250000,1368.62,897.55,1.00,1,1,1,16860.54,0.05,140880.23,10306.51,0.07,354645.05,9315.06,0.02,8898.96,4159.57,0.01,8115.19,2936.98,0.05,22852.60
1264400,1413.15,904.46,1.00,1,1,1,3128.81,0.15,954938.72,2504.60,0.01,542247.39,5997.20,0.07,232004.10,4477.07,0.01,22063.40,4238.78,0.03,90469.45
1279700,1443.01,897.96,1.00,1,1,1,1997.61,-0.21,95124.44,1703.73,0.12,54390.69,299.25,-0.60,376947.45,4137.52,0.01,22261.31,4333.14,0.02,6770.69
1294700,1464.43,910.39,1.00,1,1,1,1650.80,0.53,90567.76,1569.38,-2.94,218001.04,1028.89,-0.07,52439.80,2269.78,-0.04,124901.11,4064.50,0.03,18054.66
1317300,1385.20,886.12,1.00,1,1,1,3666.38,-2.84,233961.16,675.53,-0.34,96295.64,316.93,-0.22,31731.95,970.04,0.20,59494.14,4159.57,0.01,5673.45
1346500,1497.42,898.74,1.00,1,1,1,3867.42,0.11,256901.03,1885.69,0.07,44387.18,700.33,-2.39,31414.28,1028.89,-0.07,9235.88,4477.07,0.01,10880.58
1361500,1468.32,892.34,1.00,1,1,1,1986.75,-2.93,389801.24,2726.39,-2.79,304686.02,1681.88,0.31,155664.66,316.93,-0.22,47809.47,4137.52,0.01,22706.53
1375500,1423.12,871.72,1.00,1,1,1,3548.63,-2.71,118537.70,1604.88,0.75,303524.20,2726.39,-2.79,314831.63,700.33,-2.39,65521.22,2269.78,-0.04,133822.62
1390500,1502.30,924.14,1.00,1,1,1,6330.75,0.58,656762.33,6330.75,0.58,317057.68,1604.88,0.75,283289.26,1681.88,0.31,155664.66,970.04,0.20,89637.84
