%@metadata width_px 1920.0
%@metadata height_px 1080.0
%@metadata width_mm 540.0
%@metadata height_mm 254.0
%@metadata distance_mm 620.0
% The number after speed, direction denotes the step size that was used for the calculation.
% Acceleration was calculated between two adjacent samples of the already low pass filtered velocity
@RELATION gaze_labels

@ATTRIBUTE time INTEGER
@ATTRIBUTE x NUMERIC
@ATTRIBUTE y NUMERIC
@ATTRIBUTE confidence NUMERIC
@ATTRIBUTE handlabeller_final INTEGER
@ATTRIBUTE EYE_MOVEMENT_TYPE {UNKNOWN, FIX, SACCADE, SP, NOISE, BLINK, NOISE_CLUSTER, PSO}

@DATA
0,301.72,416.42,1.0,1,FIX
22100,387.6,399.89,1.0,1,FIX
36900,375.38,413.34,1.0,2,SACCADE
51200,355.51,439.31,1.0,2,SACCADE
66000,332.58,402.63,1.0,3,FIX
95500,217.69,499.0,1.0,1,FIX
117300,245.96,472.8,1.0,1,FIX
131900,253.11,459.62,1.0,1,FIX
162100,231.15,487.46,1.0,1,FIX
176700,216.37,483.11,1.0,1,FIX
191600,252.06,469.37,1.0,1,FIX
213700,252.12,481.18,1.0,1,FIX
228500,217.14,508.15,1.0,1,FIX
242900,253.68,519.9,1.0,1,FIX
257600,226.12,504.68,1.0,1,FIX
271600,255.48,470.49,1.0,1,FIX
294100,248.3,495.58,1.0,1,FIX
308800,248.23,505.11,1.0,1,FIX
338200,256.98,475.86,1.0,1,FIX
352800,226.41,466.33,1.0,2,SACCADE
367600,218.92,487.4,1.0,2,SACCADE
389800,251.88,506.26,1.0,3,SP
404500,382.18,538.28,1.0,1,FIX
419400,501.26,569.47,1.0,1,FIX
434100,473.75,560.8,1.0,1,FIX
448700,503.46,556.59,1.0,1,FIX
485900,486.31,552.67,1.0,1,FIX
500200,500.34,555.04,1.0,1,FIX
530000,484.99,553.64,1.0,1,FIX
544800,465.69,500.99,1.0,1,FIX
559700,468.4,528.84,1.0,1,FIX
581800,465.25,515.6,1.0,1,FIX
596500,518.37,534.03,1.0,1,FIX
611200,538.12,509.65,1.0,2,FIX
625600,476.58,508.92,1.0,2,SACCADE
640200,519.47,527.18,1.0,3,SACCADE
662400,531.83,558.53,1.0,1,FIX
677200,670.12,582.16,1.0,1,FIX
706500,656.21,581.14,1.0,1,FIX
720800,658.73,603.09,1.0,1,FIX
735700,650.11,556.13,1.0,1,FIX
757800,690.79,585.33,1.0,1,FIX
773200,696.03,591.3,1.0,1,FIX
788000,701.45,557.86,1.0,1,FIX
802900,643.81,563.33,1.0,1,FIX
817600,629.99,553.75,1.0,1,SACCADE
854400,670.59,548.88,1.0,2,SACCADE
869300,696.64,580.55,1.0,3,SP
898700,838.5,617.28,1.0,1,FIX
913100,889.85,620.18,1.0,1,FIX
927800,889.6,628.36,1.0,1,FIX
949800,899.86,587.55,1.0,1,FIX
964400,887.07,616.62,1.0,1,FIX
979300,883.17,556.96,1.0,1,FIX
994100,936.9,556.33,1.0,1,FIX
1008800,920.87,607.1,1.0,1,FIX
1023600,901.84,564.5,1.0,1,FIX
1045800,937.1,574.48,1.0,1,FIX
1075500,924.37,587.39,1.0,1,FIX
1090300,926.87,575.91,1.0,1,FIX
1105000,926.54,588.9,1.0,1,FIX
1119600,952.22,587.29,1.0,1,FIX
1141800,905.91,561.96,1.0,1,SACCADE
1156800,912.09,570.28,1.0,1,SACCADE
1186200,941.5,577.91,1.0,2,FIX
1215700,1021.51,596.13,1.0,3,FIX
1237800,1076.59,553.11,1.0,1,FIX
1252200,1061.09,617.94,1.0,1,FIX
1282100,1050.25,596.38,1.0,1,FIX
1296600,1040.48,573.14,1.0,1,FIX
1311600,1058.76,577.78,1.0,1,FIX
1333700,1080.95,597.34,1.0,2,FIX
1348400,1034.9,595.59,1.0,2,SACCADE
1363300,1041.97,548.12,1.0,2,SACCADE
1377700,1096.62,584.93,1.0,3,SP
1392400,1262.89,590.54,1.0,1,FIX
1414700,1394.08,630.04,1.0,1,FIX
1429800,1418.19,592.93,1.0,1,FIX
1458800,1438.21,628.07,1.0,1,FIX
1473500,1415.36,586.39,1.0,1,FIX
1488300,1436.21,604.17,1.0,1,FIX
1510400,1421.8,579.18,1.0,1,FIX
1525200,1447.3,607.86,1.0,1,FIX
1539800,1454.46,567.87,1.0,1,FIX
1554500,1444.66,605.87,1.0,1,FIX
1568700,1458.73,602.03,1.0,1,FIX
1605300,1458.35,604.52,1.0,1,FIX
1620100,1442.9,555.7,1.0,1,FIX
1649800,1491.82,592.74,1.0,1,FIX
1664300,1436.54,583.97,1.0,1,FIX
1686800,1419.79,574.94,1.0,1,FIX
1701500,1450.93,594.78,1.0,1,FIX
1716200,1427.52,579.65,1.0,1,FIX
1730900,1419.88,576.53,1.0,1,FIX
1745600,1432.37,576.71,1.0,1,FIX
1760200,1433.53,586.84,1.0,1,FIX
1782800,1414.21,573.68,1.0,1,SACCADE
1797500,1461.98,592.58,1.0,2,SACCADE
1826500,1435.85,606.6,1.0,2,SACCADE
1841200,1192.36,599.6,1.0,3,FIX
1855600,961.54,649.29,1.0,3,FIX
1878200,797.15,650.02,1.0,1,FIX
1892400,822.06,633.69,1.0,1,FIX
1907100,836.72,667.0,1.0,1,FIX
1936600,787.28,632.19,1.0,1,FIX
1974100,812.37,638.94,1.0,1,FIX
1988800,839.28,639.71,1.0,1,FIX
2003500,821.69,569.91,1.0,1,FIX
2032900,808.73,599.33,1.0,1,FIX
2048000,793.11,626.35,1.0,1,FIX
2069900,806.72,652.81,1.0,1,FIX
2084800,794.67,614.43,1.0,1,FIX
2099500,810.72,612.07,1.0,1,FIX
2114100,820.62,590.19,1.0,1,FIX
2128900,811.46,603.61,1.0,1,FIX
2144200,843.61,623.63,1.0,1,FIX
2166500,810.97,605.19,1.0,1,FIX
2181300,796.69,621.0,1.0,1,FIX
2210800,798.79,578.85,1.0,1,FIX
2225500,835.76,561.83,1.0,1,FIX
2240200,849.62,599.6,1.0,1,FIX
2262200,827.41,606.29,1.0,1,FIX
2277000,801.33,631.75,1.0,1,FIX
2291800,821.0,629.73,1.0,2,SACCADE
2306400,833.48,603.57,1.0,3,SACCADE
2321100,830.24,630.39,1.0,3,FIX
2357900,930.94,595.92,1.0,1,FIX
2372800,984.81,590.62,1.0,1,FIX
2402200,960.6,611.65,1.0,1,FIX
2416900,961.01,605.61,1.0,1,FIX
2431700,978.0,657.43,1.0,1,FIX
2453400,965.34,582.51,1.0,2,SACCADE
2467800,969.65,590.89,1.0,2,SACCADE
2482700,962.36,576.8,1.0,3,SP
2497300,534.25,563.98,1.0,3,FIX
2512100,551.48,574.09,1.0,3,FIX
2534200,520.8,543.68,1.0,1,FIX
2548900,570.06,559.03,1.0,1,FIX
2578200,550.14,547.37,1.0,1,FIX
