%@metadata width_px 1920.0
%@metadata height_px 1080.0
%@metadata width_mm 540.0
%@metadata height_mm 254.0
%@metadata distance_mm 620.0
% The number after speed, direction denotes the step size that was used for the calculation.
% Acceleration was calculated between two adjacent samples of the already low pass filtered velocity
@RELATION gaze_labels

@ATTRIBUTE time INTEGER
@ATTRIBUTE x NUMERIC
@ATTRIBUTE y NUMERIC
@ATTRIBUTE confidence NUMERIC
@ATTRIBUTE handlabeller_final INTEGER
@ATTRIBUTE EYE_MOVEMENT_TYPE {UNKNOWN, FIX, SACCADE, SP, NOISE, BLINK, NOISE_CLUSTER, PSO}

@DATA
0,388.66,511.99,1.0,1,FIX
14500,371.6,506.71,1.0,1,FIX
29000,394.15,538.09,1.0,1,FIX
64500,362.54,499.81,1.0,1,FIX
78300,310.48,488.12,1.0,1,FIX
99400,333.77,533.75,1.0,1,FIX
114300,331.46,499.37,1.0,2,SACCADE
128800,386.75,533.86,1.0,2,SACCADE
142700,379.55,520.29,1.0,3,SACCADE
157100,279.08,571.22,1.0,3,FIX
178700,297.3,619.09,1.0,1,FIX
193200,297.0,664.36,1.0,1,FIX
207500,240.68,639.19,1.0,1,FIX
222100,257.51,645.48,1.0,1,FIX
244300,259.56,666.52,1.0,1,FIX
259100,293.02,659.07,1.0,1,FIX
273900,301.62,694.49,1.0,2,SACCADE
287800,274.51,625.12,1.0,2,SACCADE
302000,267.35,650.46,1.0,2,SP
323800,437.01,688.69,1.0,3,FIX
337700,579.05,670.77,1.0,1,FIX
352300,680.02,655.92,1.0,1,FIX
387900,633.77,567.41,1.0,1,FIX
402400,628.97,593.37,1.0,1,FIX
431500,646.18,611.91,1.0,2,FIX
445600,647.08,606.7,1.0,2,SACCADE
466700,618.14,610.68,1.0,2,SACCADE
482000,717.64,621.05,1.0,3,FIX
496200,827.12,590.09,1.0,1,FIX
510500,900.36,592.98,1.0,1,FIX
531600,816.81,575.32,1.0,1,FIX
545700,877.89,582.56,1.0,1,FIX
560100,887.05,589.36,1.0,1,FIX
574800,858.58,594.46,1.0,1,UNKNOWN
589300,871.47,569.23,1.0,1,UNKNOWN
611000,856.99,584.77,1.0,1,UNKNOWN
625500,914.04,609.13,1.0,2,UNKNOWN
640200,902.2,590.74,1.0,2,UNKNOWN
655000,827.17,573.28,1.0,3,UNKNOWN
669100,849.19,604.95,1.0,1,UNKNOWN
690500,779.25,576.65,1.0,1,UNKNOWN
705200,802.68,605.81,1.0,1,UNKNOWN
719800,791.09,573.73,1.0,1,UNKNOWN
754900,799.94,609.67,1.0,2,UNKNOWN
768800,753.49,584.8,1.0,2,UNKNOWN
782900,621.55,589.47,1.0,3,UNKNOWN
818900,485.76,577.77,1.0,1,UNKNOWN
833600,438.02,608.29,1.0,1,UNKNOWN
847800,415.04,637.31,1.0,1,UNKNOWN
862100,501.74,629.41,1.0,1,UNKNOWN
883000,459.67,617.38,1.0,1,UNKNOWN
897200,479.1,619.59,1.0,1,UNKNOWN
911700,425.15,616.23,1.0,1,UNKNOWN
926700,454.96,640.56,1.0,1,UNKNOWN
941600,469.62,623.53,1.0,2,NOISE
963700,472.11,627.02,1.0,3,NOISE
978000,478.21,620.05,1.0,1,NOISE
992100,330.4,619.78,1.0,1,NOISE
1006000,347.74,596.7,1.0,1,NOISE
1027500,307.39,617.32,1.0,2,NOISE
1041800,334.03,634.13,1.0,2,NOISE
1055900,460.61,664.78,1.0,2,NOISE
1069900,457.3,659.55,1.0,3,NOISE
1091700,662.51,622.75,1.0,1,NOISE
1106200,785.49,638.94,1.0,1,FIX
1134900,791.89,601.51,1.0,1,FIX
