%@metadata width_px 1920.0
%@metadata height_px 1080.0
%@metadata width_mm 540.0
%@metadata height_mm 254.0
%@metadata distance_mm 620.0
% The number after speed, direction denotes the step size that was used for the calculation.
% Acceleration was calculated between two adjacent samples of the already low pass filtered velocity
@RELATION gaze_labels

@ATTRIBUTE time INTEGER
@ATTRIBUTE x NUMERIC
@ATTRIBUTE y NUMERIC
@ATTRIBUTE confidence NUMERIC
@ATTRIBUTE handlabeller_final INTEGER
@ATTRIBUTE EYE_MOVEMENT_TYPE {UNKNOWN, FIX, SACCADE, SP, NOISE, BLINK, NOISE_CLUSTER, PSO}

@DATA
0,304.88,622.85,1.0,1,FIX
14300,309.08,608.75,1.0,1,FIX
43600,290.28,594.48,1.0,1,FIX
58600,297.9,603.69,1.0,1,FIX
79800,305.01,599.84,1.0,1,FIX
93900,332.11,590.58,1.0,2,FIX
108000,294.43,575.54,1.0,2,FIX
129300,327.57,574.29,1.0,3,SACCADE
143400,314.83,585.24,1.0,3,SACCADE
157400,229.09,596.81,1.0,1,FIX
171400,217.4,641.89,1.0,1,FIX
192500,271.12,682.8,1.0,1,FIX
207400,208.55,667.03,1.0,1,FIX
221300,278.76,686.78,1.0,1,FIX
235400,277.74,686.99,1.0,1,FIX
256900,267.93,657.42,1.0,2,FIX
271600,263.9,674.31,1.0,2,SACCADE
286400,236.46,665.58,1.0,2,SACCADE
300900,272.89,655.92,1.0,3,SP
314900,541.85,669.31,1.0,3,FIX
336000,669.02,635.28,1.0,1,FIX
364100,676.65,637.04,1.0,1,FIX
378700,601.69,574.6,1.0,1,FIX
400200,643.49,614.35,1.0,1,FIX
428800,678.85,605.27,1.0,1,FIX
443000,706.81,623.74,1.0,2,FIX
464500,632.4,590.16,1.0,2,SACCADE
479000,655.46,596.38,1.0,2,SACCADE
493100,699.26,602.94,1.0,3,SP
507600,834.18,595.53,1.0,1,FIX
528900,923.68,624.1,1.0,1,FIX
543100,989.22,610.68,1.0,1,FIX
557200,986.39,613.73,1.0,1,FIX
571100,972.35,605.0,1.0,1,FIX
592500,979.85,621.74,1.0,1,FIX
606900,984.0,614.07,1.0,1,FIX
621000,934.82,611.28,1.0,1,FIX
635500,1003.9,628.56,1.0,1,FIX
657300,938.48,591.78,1.0,1,FIX
671000,995.75,591.73,1.0,1,SACCADE
685400,975.96,616.07,1.0,2,SACCADE
700200,897.29,616.13,1.0,2,SACCADE
714700,897.29,616.13,1.0,2,SP
750600,498.86,579.55,1.0,1,FIX
764700,472.93,544.61,1.0,1,FIX
800000,574.79,586.59,1.0,1,FIX
814500,570.12,581.49,1.0,1,FIX
829900,536.14,594.69,1.0,1,FIX
844400,543.44,586.22,1.0,1,FIX
