@RELATION gaze_labels

%@METADATA width_px 1920
%@METADATA height_px 1080
%@METADATA width_mm 540.00
%@METADATA height_mm 254.00
%@METADATA distance_mm 620.00


@ATTRIBUTE time INTEGER
@ATTRIBUTE x NUMERIC
@ATTRIBUTE y NUMERIC
@ATTRIBUTE confidence NUMERIC
@ATTRIBUTE handlabeller1 INTEGER
@ATTRIBUTE handlabeller2 INTEGER
@ATTRIBUTE handlabeller_final INTEGER
@ATTRIBUTE speed_1 numeric
@ATTRIBUTE direction_1 numeric
@ATTRIBUTE acceleration_1 numeric
@ATTRIBUTE speed_2 numeric
@ATTRIBUTE direction_2 numeric
@ATTRIBUTE acceleration_2 numeric
@ATTRIBUTE speed_4 numeric
@ATTRIBUTE direction_4 numeric
@ATTRIBUTE acceleration_4 numeric
@ATTRIBUTE speed_8 numeric
@ATTRIBUTE direction_8 numeric
@ATTRIBUTE acceleration_8 numeric
@ATTRIBUTE speed_16 numeric
@ATTRIBUTE direction_16 numeric
@ATTRIBUTE acceleration_16 numeric

%The number after speed, direction denotes the step size that was used for the calculation.
%Acceleration was calculated between two adjacent samples of the already low pass filtered velocity

@DATA
0,1149.53,833.92,1.00,1,1,1,0.00,0.00,0.00,567.37,2.98,0.00,376.44,2.89,0.00,153.86,2.76,0.00,162.41,2.97,0.00
15000,1141.13,835.28,1.00,1,1,1,567.37,2.98,37824.42,376.44,2.89,13003.84,86.41,2.42,20144.50,65.94,2.51,6095.21,131.89,3.02,2080.68
30100,1138.54,836.69,1.00,1,1,1,195.04,2.64,25749.89,86.41,2.42,20011.09,153.86,2.76,5150.80,66.25,2.76,1097.27,120.48,3.09,970.56
60500,1138.18,837.87,1.00,1,1,1,40.88,1.87,5533.37,41.09,1.96,1736.80,65.94,2.51,3007.51,125.94,3.05,2149.37,106.89,-3.13,494.97
82800,1137.72,838.69,1.00,1,1,1,41.93,2.08,398.89,48.74,2.64,1386.81,66.25,2.76,743.00,162.41,2.97,1708.99,8.25,2.96,4430.26
112400,1135.95,839.08,1.00,1,1,1,61.07,2.92,1535.86,116.43,3.07,2521.85,125.94,3.05,2207.46,131.89,3.02,1054.40,141.65,0.10,5053.96
127000,1132.59,839.08,1.00,1,1,1,230.60,3.14,11746.08,274.44,-3.10,10910.67,178.13,-3.12,3761.98,120.48,3.09,1003.80,408.52,0.06,18290.54
141200,1128.06,838.79,1.00,1,1,1,319.79,-3.08,6402.83,253.95,-3.06,1649.27,247.35,-3.07,4926.77,106.89,-3.13,1059.66,634.11,0.07,15888.78
163500,1123.35,838.34,1.00,1,1,1,212.07,-3.05,4843.44,226.30,-3.04,1272.39,208.67,-3.04,1764.50,8.25,2.96,4430.26,327.08,0.13,13822.13
177800,1119.82,837.91,1.00,1,1,1,248.55,-3.02,2589.77,151.78,-2.99,5250.68,85.70,-2.96,8629.77,141.65,0.10,10461.35,445.32,0.10,8312.38
192400,1119.01,837.66,1.00,1,1,1,57.70,-2.84,13150.41,89.86,-0.05,16465.02,224.55,0.04,21208.52,408.52,0.06,18290.54,548.51,0.07,7111.36
207400,1122.48,837.76,1.00,1,1,1,230.86,0.03,19127.19,585.17,0.07,33075.30,567.74,0.09,22903.34,634.11,0.07,15041.38,666.30,0.06,7868.70
222500,1136.58,838.90,1.00,2,2,2,937.37,0.08,46814.54,1038.62,0.10,30064.91,1011.72,0.07,29415.75,956.64,0.06,21360.86,733.22,0.05,4461.05
237500,1153.59,840.82,1.00,2,2,2,1140.84,0.11,13752.34,1360.60,0.07,21597.97,1342.69,0.07,22069.97,1187.06,0.06,15361.53,824.42,0.05,6081.85
259300,1186.54,842.29,1.00,2,2,2,1513.03,0.04,17563.12,1589.73,0.06,10517.51,1604.26,0.07,12013.84,1409.89,0.06,10226.98,892.58,0.04,3135.92
274600,1212.45,844.48,1.00,1,1,1,1699.79,0.08,12908.85,1904.16,0.06,20551.35,1744.05,0.06,9176.46,1569.01,0.06,10404.91,915.25,0.04,1489.26
289200,1243.36,845.91,1.00,1,1,1,2119.03,0.05,29143.84,1939.48,0.05,2783.43,1861.47,0.05,8067.96,1511.81,0.05,4010.73,866.21,0.04,3359.33
303900,1269.20,847.51,1.00,1,1,1,1761.25,0.06,24423.18,1817.86,0.04,8427.01,1829.07,0.04,2784.89,1470.24,0.04,2900.45,863.72,0.03,332.27
318300,1296.21,848.06,1.00,1,1,1,1876.43,0.02,9530.48,1719.08,0.02,7193.36,1419.40,0.03,28486.73,1403.78,0.03,4674.36,812.52,0.03,3565.86
333200,1319.56,848.67,1.00,1,1,1,1567.03,0.03,20774.03,1108.04,0.01,41035.66,1194.97,0.02,15088.57,1215.52,0.02,12689.35,842.43,0.03,2013.09
355500,1337.43,848.37,1.00,1,1,1,801.77,-0.02,34383.78,775.50,0.00,14913.04,997.31,0.00,8892.43,785.63,0.01,19281.38,788.02,0.02,2443.01
369800,1347.94,848.75,1.00,1,1,1,735.20,0.04,5473.48,855.83,-0.01,5657.66,675.86,-0.03,22532.15,587.48,-0.02,13936.08,719.37,0.02,4806.32
384600,1362.34,848.15,1.00,1,1,1,973.66,-0.04,16729.86,554.96,-0.07,20560.43,217.25,-0.08,31015.00,353.38,-0.06,15873.96,579.99,0.02,9417.39
399700,1364.49,847.51,1.00,1,1,1,148.41,-0.29,54997.94,200.75,-3.03,49876.91,100.10,-0.38,8285.45,285.07,-0.10,4581.96,478.43,0.01,6738.63
429300,1353.42,847.15,1.00,1,1,1,374.08,-3.11,17468.37,179.40,-2.95,878.26,96.88,-2.73,6148.93,170.27,-0.16,3908.55,328.59,-0.00,5063.28
450800,1355.48,845.78,1.00,1,1,1,115.09,-0.58,21984.19,52.88,-1.46,8520.54,37.92,-1.19,4794.56,84.78,-0.32,4069.65,187.97,-0.03,6546.48
481400,1353.73,844.41,1.00,1,1,1,72.63,-2.48,5041.66,230.40,-0.16,7253.95,129.45,-0.30,3584.69,55.89,-2.83,4382.07,65.13,-0.02,4014.68
496400,1365.86,844.11,1.00,1,1,1,808.30,-0.02,57702.93,334.86,-0.03,7344.53,68.53,-0.23,4083.64,92.25,-3.00,2551.14,68.07,3.12,8879.73
510500,1363.47,844.08,1.00,1,1,1,168.94,-3.13,69300.59,189.45,3.05,37169.03,14.63,1.64,5262.35,106.49,-3.05,1075.74,162.23,3.11,6678.00
525100,1360.44,844.63,1.00,1,1,1,210.95,2.96,3792.06,267.42,3.01,5367.36,248.75,3.06,16915.13,231.54,3.13,8631.99,200.76,3.12,2641.20
547500,1353.66,845.38,1.00,2,2,2,304.45,3.03,4247.96,295.53,3.07,1469.41,389.26,3.08,6276.15,312.99,3.06,3741.65,256.65,3.12,2496.33
561500,1349.71,845.39,1.00,2,2,2,282.29,3.14,2737.68,545.42,3.12,17901.66,569.81,3.10,12923.39,532.19,3.06,15658.55,230.44,3.12,1877.07
576600,1337.80,845.73,1.00,2,2,2,789.45,3.11,33597.08,911.96,3.11,24274.78,665.47,3.08,6383.89,550.99,3.06,1250.84,175.10,3.11,3665.89
590700,1323.09,846.10,1.00,3,3,3,1043.16,3.12,17995.10,785.70,3.06,9581.38,844.94,3.07,12763.76,531.47,3.06,1385.17,159.28,3.07,1217.96
605800,1314.93,847.64,1.00,1,1,1,549.95,2.95,33664.52,781.63,3.01,2593.25,712.80,3.05,8775.06,524.36,3.08,766.25,115.30,2.99,2994.59
620500,1300.01,849.19,1.00,1,1,1,1020.91,3.04,32325.75,655.14,3.05,8809.31,494.94,3.02,14888.82,412.08,3.07,7647.62,156.97,3.00,2835.87
642700,1290.87,849.92,1.00,1,1,1,413.00,3.06,27391.77,265.98,3.04,17530.58,399.53,3.07,4448.07,253.38,3.06,7150.93,121.91,2.95,1609.95
657800,1290.14,850.21,1.00,1,1,1,51.94,2.76,24084.57,78.04,-2.91,12843.32,22.85,-3.14,24950.52,84.48,2.90,11289.24,111.51,2.97,704.08
671700,1288.66,849.40,1.00,1,1,1,120.93,-2.64,6941.84,297.98,-0.12,26775.63,213.12,-0.10,16968.17,72.73,0.11,11130.92,114.99,2.99,272.66
686100,1298.51,849.18,1.00,1,1,1,683.79,-0.02,54918.84,444.15,-0.05,10308.47,341.08,-0.06,8907.30,197.24,0.02,8683.69,100.70,2.98,992.93
707800,1304.68,848.58,1.00,1,1,1,285.61,-0.10,18411.50,374.95,-0.03,3218.47,541.12,-0.02,9262.58,335.17,0.00,6359.20,60.37,2.93,1867.06
722800,1312.26,848.79,1.00,1,1,1,505.99,0.03,15029.90,657.96,0.01,18905.22,414.67,0.02,8502.93,290.40,-0.01,2995.14,12.94,1.09,4338.50
737900,1324.48,848.74,1.00,1,1,1,809.08,-0.00,20118.63,464.69,0.06,12946.97,469.91,0.05,3777.40,247.66,0.02,2887.47,41.18,0.12,2346.85
752500,1326.04,849.63,1.00,1,1,1,123.18,0.52,48310.95,280.57,0.15,12784.09,246.92,0.05,15273.36,161.48,0.02,5903.22,120.57,0.01,5466.15
767500,1332.70,849.94,1.00,1,1,1,444.35,0.05,22639.30,101.63,0.02,12006.94,22.36,2.16,17271.56,102.55,0.05,3933.44,149.10,0.03,1912.17
797000,1330.56,849.75,1.00,1,1,1,72.75,-3.05,17526.54,202.80,3.12,10317.55,42.61,3.11,1178.01,80.04,0.05,762.90,151.43,0.05,127.99
812600,1323.55,850.12,1.00,2,2,2,449.87,3.09,24234.69,211.90,-3.14,640.02,122.62,-3.09,5143.17,14.67,0.17,4198.42,140.10,0.07,760.35
834900,1322.53,849.74,1.00,1,1,1,48.95,-2.79,18181.68,55.35,-2.86,7148.79,69.14,-3.08,2398.34,56.34,-0.02,1883.80,110.54,0.12,1355.27
864900,1320.77,849.33,1.00,1,1,1,60.29,-2.91,438.46,51.58,-0.14,3484.80,40.74,-0.31,3606.20,7.76,1.41,1858.40,110.70,0.19,250.03
880000,1324.83,849.41,1.00,1,1,1,269.04,0.02,21735.88,198.93,-0.04,9785.83,164.91,-0.02,8363.40,28.47,0.66,1549.50,76.40,0.26,2307.44
895000,1326.75,849.11,1.00,1,1,1,129.66,-0.15,9536.46,335.97,0.00,9161.50,205.08,0.15,3412.02,41.16,0.37,1061.89,34.87,0.61,3021.82
910000,1334.91,849.45,1.00,1,1,1,544.24,0.04,27849.12,217.88,0.32,9698.38,142.06,0.31,4593.64,60.47,0.41,1292.48,30.58,0.49,383.75
924700,1332.90,851.15,1.00,1,1,1,179.05,2.44,46736.42,81.58,1.89,15815.30,61.27,0.91,6640.86,123.57,0.34,4309.47,17.11,2.54,2811.32
947500,1333.95,852.36,1.00,1,1,1,70.54,0.85,8493.26,100.66,2.81,3642.57,86.82,2.45,4601.96,76.89,0.53,2203.38,6.62,1.17,749.62
962500,1329.29,852.38,1.00,1,1,1,310.63,3.14,24053.96,122.84,2.92,1685.27,64.16,0.92,7049.88,62.47,0.74,1355.46,24.08,0.17,1415.06
977000,1330.42,853.15,1.00,1,1,1,93.98,0.60,27002.93,228.60,0.34,23385.41,36.34,1.96,3817.51,34.12,1.81,3789.72,40.75,0.05,1177.04
991100,1335.46,854.55,1.00,1,1,1,371.25,0.27,20144.83,103.83,0.40,8875.99,65.98,0.56,4955.10,32.82,2.77,2201.20,57.15,0.20,1270.62
1005600,1333.15,854.31,1.00,1,1,1,160.23,-3.04,36544.16,99.37,-3.09,13799.40,53.40,0.20,1692.68,19.97,-2.83,1472.02,38.67,0.49,1568.71
1020500,1332.54,854.40,1.00,1,1,1,41.12,3.00,8104.05,22.69,-0.60,7935.50,90.22,-2.91,9637.72,11.03,-0.76,1815.40,31.55,0.76,792.08
1042400,1333.84,853.84,1.00,1,1,1,64.44,-0.41,4780.57,86.49,-2.79,4630.21,41.39,-2.15,3037.93,32.35,-0.62,980.72,20.52,1.26,766.11
1071500,1328.40,852.88,1.00,1,1,1,189.78,-2.97,8461.34,77.87,-2.40,1141.54,46.29,-2.18,172.65,14.50,-1.27,775.57,15.69,0.77,342.01
1086600,1331.31,851.51,1.00,1,1,1,212.91,-0.44,25418.64,84.72,-0.66,8216.18,42.85,-1.45,2123.08,6.87,0.05,954.17,5.82,1.73,875.89
1101500,1330.41,851.32,1.00,2,2,2,61.98,-2.93,17780.70,85.67,-0.36,1718.06,114.46,-0.05,7721.59,7.63,0.87,393.61,4.95,1.68,60.87
1123600,1334.27,850.39,1.00,2,2,2,180.04,-0.24,10747.01,155.82,0.21,4314.80,60.57,0.78,3905.45,20.17,0.40,625.74,16.78,-3.02,793.87
1138800,1336.10,852.50,1.00,3,3,3,183.60,0.86,12461.14,134.18,1.60,12290.72,61.63,0.94,634.84,50.46,0.20,2035.70,30.21,-2.83,925.96
1153200,1334.16,854.36,1.00,1,1,1,186.02,2.38,17650.14,91.05,2.34,6327.04,71.92,1.09,990.60,21.81,0.83,2440.95,12.10,-1.08,2397.17
1182300,1333.34,855.34,1.00,1,1,1,44.23,2.27,4883.60,60.52,0.27,4515.70,21.61,1.44,1791.73,17.61,2.04,780.56,14.14,-1.04,72.12
1196800,1336.71,855.06,1.00,1,1,1,233.44,-0.09,18380.81,62.51,-0.27,2252.71,5.94,-2.62,1770.14,59.21,2.90,3425.00,16.81,-0.62,476.05
1232500,1336.36,854.51,1.00,1,1,1,18.13,-2.14,6789.26,63.37,-2.83,3378.41,55.59,-2.80,1393.78,59.42,-3.06,530.46,21.71,-2.91,983.04
1247000,1333.68,854.08,1.00,1,1,1,187.21,-2.98,12117.01,241.27,-3.05,12412.42,143.27,-2.92,6092.48,21.27,-1.35,4538.48,57.86,3.08,2596.35
1262600,1329.13,853.85,1.00,1,1,1,292.17,-3.09,6923.60,274.96,-2.96,2660.75,152.29,-2.86,807.21,33.53,-1.28,795.36,47.87,2.87,942.29
1277600,1325.41,852.53,1.00,1,1,1,263.00,-2.80,5697.62,90.60,-2.44,13416.59,49.23,-1.19,10988.54,29.57,-1.28,264.08,50.17,2.75,418.65
1299200,1326.60,851.71,1.00,1,1,1,66.83,-0.61,14206.55,264.35,-0.16,15309.00,97.82,-0.52,3083.56,113.34,-2.93,5521.49,38.27,2.71,558.27
1314000,1334.91,851.02,1.00,1,1,1,563.86,-0.08,34262.33,277.87,-0.13,1040.68,189.77,-0.13,7154.29,149.89,-3.06,2745.94,14.47,2.38,1692.22
1328800,1334.75,850.64,1.00,1,1,1,27.97,-1.97,38731.97,100.64,-0.05,12011.73,71.27,-3.08,17570.84,95.21,3.05,3950.36,18.29,2.73,463.95
1344300,1337.96,850.88,1.00,1,1,1,207.52,0.07,14304.00,408.35,3.08,32837.38,338.13,3.06,17274.73,41.88,2.51,4068.60,36.44,2.99,1251.19
1359300,1322.32,851.44,1.00,1,1,1,1043.13,3.11,83307.11,787.24,3.07,25261.71,300.50,2.90,4306.29,42.49,1.67,2292.03,50.95,2.98,968.42
1373900,1314.72,852.57,1.00,1,1,1,526.59,2.99,35839.90,210.35,2.54,42090.43,260.29,2.86,2875.17,56.69,2.11,1774.17,49.49,3.10,421.81
1389200,1317.13,854.98,1.00,1,1,1,222.72,0.79,44636.88,179.09,0.50,21760.47,99.89,0.99,19919.52,70.21,2.30,1172.90,53.15,3.06,275.90
1412800,1320.85,855.89,1.00,1,1,1,162.15,0.24,5050.16,239.37,0.24,3412.39,248.67,0.28,7838.00,97.89,2.67,1750.36,55.83,3.04,125.35
1427600,1326.06,857.14,1.00,1,1,1,362.51,0.24,13537.99,348.69,0.13,7660.31,173.64,0.20,5178.69,41.48,1.33,6567.21,74.25,3.06,1247.37
1442600,1331.15,857.26,1.00,1,1,1,338.95,0.02,5188.40,89.75,0.08,17271.84,100.30,0.11,4958.30,51.66,0.31,3097.55,102.48,3.12,1915.18
1457400,1328.73,857.37,1.00,1,1,1,163.52,3.10,33934.04,149.05,-2.98,16123.13,43.22,-2.92,9683.86,11.71,-3.13,4253.72,128.52,-3.12,1797.99
1472300,1326.78,856.54,1.00,2,2,2,142.19,-2.74,4747.39,177.56,-2.99,1918.40,174.39,-2.88,8806.04,77.07,-2.98,4396.14,171.15,-3.10,2866.25
1486800,1323.57,856.57,1.00,2,2,2,221.46,3.13,7437.13,200.41,-2.82,2755.25,221.65,-2.96,3420.23,139.20,-2.95,4290.04,107.81,-3.04,4406.73
1502500,1321.05,854.60,1.00,2,2,2,204.18,-2.48,9065.68,264.00,-2.94,4448.44,203.56,-3.00,1279.67,172.81,-2.91,2176.27,88.38,-2.95,1350.85
1517500,1315.63,854.96,1.00,3,3,3,362.15,3.07,16714.29,208.37,-3.10,4480.98,207.19,-2.96,621.49,201.28,-2.90,1906.75,101.26,-2.91,906.60
1555700,1309.97,854.16,1.00,1,1,1,149.55,-3.00,5707.04,174.27,-2.98,1093.61,171.78,-2.94,933.30,244.29,-2.94,1151.72,111.85,-2.88,284.25
1570400,1306.53,853.43,1.00,1,1,1,238.84,-2.93,6134.28,126.93,-2.43,6309.42,189.06,-2.86,1545.53,204.84,-2.89,2794.24,121.21,-2.88,637.28
1585300,1307.12,851.71,1.00,1,1,1,122.08,-1.24,18849.46,209.89,-2.74,6476.86,291.44,-2.89,6897.24,198.64,-2.93,656.57,131.99,-2.94,871.70
1614300,1298.07,849.80,1.00,1,1,1,318.97,-2.93,12232.12,413.91,-2.99,7480.09,203.46,-2.82,3102.19,172.42,-2.89,929.24,151.56,-3.00,747.70
1628900,1289.29,848.92,1.00,1,1,1,604.34,-3.04,19820.46,197.56,-2.92,14874.14,226.39,-2.92,2185.20,148.38,-2.83,1792.66,171.68,-3.04,1449.83
1650500,1291.09,848.23,1.00,1,1,1,89.40,-0.37,31729.56,33.03,-1.47,9085.62,148.31,-2.97,3636.63,103.62,-2.78,2093.02,151.76,-3.07,939.42
1665500,1289.41,847.72,1.00,1,1,1,117.32,-2.85,13049.20,87.84,-3.10,6364.67,24.00,-0.76,10918.66,91.99,-2.98,1523.55,118.94,-3.14,2269.26
1679500,1288.55,848.11,1.00,1,1,1,67.66,2.71,5741.83,35.98,0.13,8838.23,34.36,0.04,1762.47,96.64,3.02,1945.37,83.72,-3.12,2517.82
1694100,1290.43,847.85,1.00,1,1,1,130.14,-0.14,13419.33,154.09,0.04,8100.23,75.20,0.39,3035.59,91.27,2.90,826.56,49.88,-3.08,2324.48
1709100,1293.10,848.32,1.00,1,1,1,181.08,0.17,4672.33,107.20,0.45,4673.43,67.54,2.33,7856.17,98.25,2.70,1344.15,19.42,-2.71,2170.53
1730500,1293.94,849.56,1.00,1,1,1,69.72,0.98,6630.60,225.64,2.76,14399.26,203.40,2.84,6942.94,57.34,2.22,2549.04,12.89,-1.76,742.77
1745400,1285.50,851.36,1.00,1,1,1,579.19,2.93,40850.05,564.67,3.01,23502.24,215.10,2.77,1308.85,43.99,1.36,2930.15,47.49,-0.38,3136.17
1759500,1277.71,851.74,1.00,1,1,1,553.10,3.09,6716.85,201.69,2.78,26301.70,133.26,2.68,5914.90,52.35,0.79,2008.43,88.83,-0.27,2978.43
1773900,1280.12,853.38,1.00,1,1,1,202.29,0.60,50338.08,140.24,0.37,22219.02,66.56,0.61,12156.63,60.66,0.32,1917.48,87.12,-0.25,149.25
1810700,1284.39,854.36,1.00,1,1,1,119.23,0.23,2741.79,190.67,0.10,1820.12,224.77,0.09,4628.11,90.74,-0.11,1194.57,98.80,-0.08,549.55
1825300,1289.86,854.39,1.00,1,1,1,374.81,0.01,17795.26,387.16,-0.09,13945.62,264.66,-0.11,4202.35,175.87,-0.26,5956.30,110.15,0.22,2249.97
1840300,1295.80,853.30,1.00,2,2,2,402.53,-0.18,5183.49,404.75,-0.27,4920.79,391.73,-0.28,9227.98,250.02,-0.26,4943.49,52.35,0.79,4794.69
1855200,1301.51,851.11,1.00,2,2,2,410.42,-0.37,5025.00,409.46,-0.45,4894.49,342.93,-0.44,5110.88,228.96,-0.31,1673.31,60.66,0.32,1853.14
1869200,1306.44,848.12,1.00,3,3,3,411.91,-0.55,5311.40,300.54,-0.62,8804.96,312.33,-0.57,3731.81,246.27,-0.26,1547.28,90.74,-0.11,3140.02
1890900,1310.26,844.90,1.00,1,1,1,230.14,-0.70,8656.79,239.63,-0.72,3067.37,206.04,-0.59,4908.49,196.47,0.04,3767.37,175.87,-0.26,4007.46
1905400,1312.97,842.41,1.00,1,1,1,253.96,-0.74,1780.98,128.37,-0.54,7961.79,140.01,-0.23,6241.23,312.33,-0.57,12895.69,250.02,-0.26,5113.96
1934200,1315.02,842.03,1.00,1,1,1,72.27,-0.18,6819.98,123.94,0.63,4849.89,162.00,0.75,4984.20,206.04,-0.59,3698.41,228.96,-0.31,865.70
1949200,1317.36,845.61,1.00,1,1,1,285.14,0.99,17725.10,285.55,1.12,12365.75,123.94,0.63,2795.92,140.01,-0.23,6033.19,246.27,-0.26,1444.13
1986800,1321.57,855.54,1.00,1,1,1,286.99,1.17,1346.71,286.99,1.17,384.04,285.55,1.12,4933.15,162.00,0.75,3817.69,196.47,0.04,2174.26
