@RELATION gaze_labels

%@METADATA width_px 1920
%@METADATA height_px 1080
%@METADATA width_mm 540.00
%@METADATA height_mm 254.00
%@METADATA distance_mm 620.00


@ATTRIBUTE time INTEGER
@ATTRIBUTE x NUMERIC
@ATTRIBUTE y NUMERIC
@ATTRIBUTE confidence NUMERIC
@ATTRIBUTE handlabeller1 INTEGER
@ATTRIBUTE handlabeller2 INTEGER
@ATTRIBUTE handlabeller_final INTEGER
@ATTRIBUTE speed_1 numeric
@ATTRIBUTE direction_1 numeric
@ATTRIBUTE acceleration_1 numeric
@ATTRIBUTE speed_2 numeric
@ATTRIBUTE direction_2 numeric
@ATTRIBUTE acceleration_2 numeric
@ATTRIBUTE speed_4 numeric
@ATTRIBUTE direction_4 numeric
@ATTRIBUTE acceleration_4 numeric
@ATTRIBUTE speed_8 numeric
@ATTRIBUTE direction_8 numeric
@ATTRIBUTE acceleration_8 numeric
@ATTRIBUTE speed_16 numeric
@ATTRIBUTE direction_16 numeric
@ATTRIBUTE acceleration_16 numeric

%The number after speed, direction denotes the step size that was used for the calculation.
%Acceleration was calculated between two adjacent samples of the already low pass filtered velocity

@DATA
0,1439.88,848.64,1.00,1,1,1,0.00,0.00,0.00,5813.37,-3.06,0.00,4344.46,-3.06,0.00,2175.82,-3.08,0.00,1182.75,-3.14,0.00
14600,1355.30,841.61,1.00,1,1,1,5813.37,-3.06,398175.76,4344.46,-3.06,100615.33,1610.86,-3.08,187260.65,865.50,-3.13,89907.97,622.47,3.04,38892.11
29500,1312.13,838.42,1.00,1,1,1,2905.22,-3.07,195194.01,1610.86,-3.08,183490.30,2175.82,-3.08,37918.86,200.82,2.75,45978.44,452.73,2.92,12157.78
51900,1295.33,837.87,1.00,1,1,1,750.35,-3.11,96238.65,499.40,3.11,49761.75,865.50,-3.13,58600.73,145.14,1.23,10766.95,502.31,2.92,2213.60
67600,1293.11,839.03,1.00,1,1,1,159.20,2.66,39262.23,114.50,1.19,34964.11,200.82,2.75,43635.59,1182.75,-3.14,78899.34,714.03,2.99,13758.15
82400,1296.62,841.12,1.00,2,2,2,276.07,0.54,25976.18,271.39,0.61,12606.43,145.14,1.23,16295.93,622.47,3.04,38366.54,884.17,3.03,11735.12
96900,1299.62,843.59,1.00,2,2,2,268.18,0.69,2875.97,177.43,1.26,11639.91,162.81,1.86,6641.05,452.73,2.92,12493.17,999.47,3.06,8099.89
111500,1298.19,846.04,1.00,3,3,3,194.23,2.10,20902.27,350.03,2.68,25161.69,372.31,2.74,20290.18,502.31,2.92,3396.21,839.63,3.07,10980.97
126400,1290.38,848.20,1.00,1,1,1,543.69,2.87,28619.35,721.87,2.97,26784.38,740.35,2.97,25995.17,714.03,2.99,14496.85,927.24,3.12,6493.38
142800,1275.93,849.94,1.00,1,1,1,887.35,3.02,21901.72,1137.49,3.05,25788.02,961.38,3.05,14113.43,884.17,3.03,10590.23,467.76,3.06,28134.20
156800,1255.93,851.21,1.00,1,1,1,1431.46,3.08,39128.25,1165.48,3.09,3756.81,1279.60,3.09,22958.63,999.47,3.06,8389.18,235.03,2.93,16875.39
180100,1232.51,852.05,1.00,1,1,1,1005.85,3.11,18322.58,1396.15,3.12,9975.44,1365.96,3.11,3816.59,839.63,3.07,6880.78,75.92,2.43,7393.67
194200,1203.73,852.58,1.00,1,1,1,2041.25,3.12,73453.75,1620.59,3.12,15925.60,1232.43,3.11,9470.34,701.61,3.08,9799.27,98.81,0.51,10219.61
209500,1184.88,853.08,1.00,1,1,1,1232.96,3.12,52836.22,1031.21,3.09,38596.80,727.71,3.10,32991.50,347.45,3.08,23147.70,204.33,0.20,7446.62
224600,1172.42,854.14,1.00,1,1,1,827.65,3.06,27129.30,144.92,2.95,58807.89,178.18,3.01,36449.50,67.00,3.01,18586.71,296.43,0.11,6262.83
254400,1178.49,854.32,1.00,1,1,1,203.63,0.03,34570.16,407.44,0.01,18464.08,347.01,0.01,17586.42,296.75,-0.00,12191.30,416.00,0.07,4053.92
269000,1190.51,854.27,1.00,1,1,1,823.60,-0.00,42474.29,761.64,-0.02,24286.61,749.05,-0.02,27557.44,722.99,0.00,29194.46,513.19,0.04,6703.81
307400,1218.85,853.42,1.00,2,2,2,738.16,-0.03,2284.97,1038.12,-0.03,7201.91,1223.65,-0.02,12359.57,1072.29,-0.00,9096.38,613.13,0.03,2612.52
321500,1244.99,852.66,1.00,1,1,1,1855.05,-0.03,79212.20,2065.09,-0.02,72836.49,1535.91,-0.01,22171.64,1341.50,-0.00,19094.53,726.11,0.01,8028.31
336500,1278.92,851.94,1.00,1,1,1,2262.56,-0.02,27187.02,2398.85,-0.00,22536.35,2267.70,-0.00,48796.34,1666.96,-0.00,21698.39,812.70,0.01,5775.07
351800,1317.68,852.63,1.00,1,1,1,2533.37,0.02,18726.01,2462.99,0.01,4585.75,2290.65,0.00,2019.80,1659.13,0.00,564.21,878.01,0.01,4270.41
366800,1353.55,852.77,1.00,1,1,1,2391.31,0.00,9729.94,2182.15,0.01,18723.93,2265.28,0.01,2220.94,1852.95,0.00,12930.99,933.71,0.01,3714.76
382000,1383.58,853.26,1.00,1,1,1,1975.82,0.02,27388.69,2069.53,0.02,7478.01,1809.26,0.01,30001.03,1746.54,0.01,7009.05,941.25,0.00,551.64
397400,1416.87,853.84,1.00,1,1,1,2162.01,0.02,12091.67,1512.16,0.02,36192.84,1490.85,0.02,20678.35,1446.64,0.01,19490.52,1000.49,0.00,3852.71
419900,1440.88,854.31,1.00,1,1,1,1067.38,0.02,48650.76,1017.39,0.02,21990.36,1258.15,0.01,10345.72,1069.83,0.02,16747.22,927.52,-0.00,3250.70
434800,1454.91,854.44,1.00,1,1,1,941.93,0.01,8444.57,931.94,-0.00,5843.10,695.82,0.02,37743.05,761.41,0.02,20704.04,842.60,-0.01,5699.10
449400,1468.37,854.27,1.00,1,1,1,921.85,-0.01,1984.51,281.12,0.03,44590.50,220.74,0.04,32544.77,467.76,0.03,20114.50,716.87,-0.02,8630.52
463800,1463.06,854.69,1.00,1,1,1,369.87,3.06,89662.29,484.01,3.10,53104.77,88.73,3.03,21438.80,279.06,0.01,13109.58,570.86,-0.03,10160.87
479200,1453.96,854.83,1.00,1,1,1,591.21,3.13,14507.05,452.42,3.12,2090.45,344.86,3.11,16655.45,42.75,-0.25,15455.39,397.16,-0.04,11282.18
493200,1449.76,855.03,1.00,2,2,2,299.88,3.09,20833.85,229.04,3.11,15956.85,142.16,-3.11,14521.93,189.62,-3.05,16455.22,326.40,-0.05,5057.32
515000,1445.76,855.09,1.00,2,2,2,183.60,3.13,5347.22,110.67,-0.17,15552.46,124.36,-2.92,1425.12,343.01,-3.03,7037.89,286.08,-0.04,1850.95
529500,1453.73,854.37,1.00,1,1,1,551.50,-0.09,50669.51,71.25,-1.44,7763.08,280.48,-2.99,10811.43,326.56,-2.96,1992.92,214.63,-0.03,4932.81
544500,1446.04,853.01,1.00,1,1,1,520.23,-2.97,70819.82,746.77,-3.05,50198.81,349.15,-2.88,5156.55,194.22,-2.91,8867.93,227.83,-0.01,938.93
559600,1431.35,852.25,1.00,1,1,1,974.42,-3.09,30646.90,693.90,-2.98,4734.45,532.95,-2.92,12236.75,64.99,-2.41,9317.74,268.58,0.01,2711.41
573900,1425.91,849.73,1.00,1,1,1,419.40,-2.71,42375.77,332.75,-2.63,27853.91,250.54,-2.91,19751.53,117.76,-0.31,11232.72,292.08,0.04,1745.78
588800,1422.88,847.48,1.00,1,1,1,252.82,-2.50,12034.14,28.17,-1.30,21955.67,147.40,-0.31,25804.88,162.23,-0.09,3629.84,349.91,0.06,3895.02
625500,1426.30,848.33,1.00,1,1,1,95.82,0.24,9352.29,386.16,0.06,10388.13,441.98,0.01,8321.93,371.74,0.02,5750.57,419.65,0.06,1903.00
640100,1442.66,848.66,1.00,1,1,1,1120.85,0.02,70383.80,1227.27,0.05,57612.15,561.31,0.08,8523.30,624.04,0.03,17287.19,446.80,0.08,1889.85
654100,1461.35,850.07,1.00,2,2,2,1339.19,0.08,16323.47,740.07,0.09,34917.87,994.20,0.07,30926.17,779.76,0.06,11244.91,475.67,0.09,2086.25
690400,1479.73,852.07,1.00,1,1,1,509.15,0.11,22878.63,865.77,0.09,3465.14,1111.85,0.07,3242.48,869.89,0.09,2563.37,445.90,0.11,865.09
705900,1506.03,853.92,1.00,1,1,1,1701.47,0.07,76958.50,1737.65,0.06,56287.70,1111.78,0.08,694.34,1058.88,0.10,12198.67,458.23,0.11,820.67
720300,1531.59,855.19,1.00,1,1,1,1776.79,0.05,5788.41,1536.56,0.08,14147.56,1387.33,0.10,19175.13,941.58,0.12,8279.16,501.58,0.10,3052.24
735900,1551.98,857.61,1.00,1,1,1,1316.52,0.12,30254.44,1049.20,0.16,31868.53,1147.15,0.13,15585.20,819.01,0.14,7936.23,482.86,0.10,1199.93
751000,1563.40,860.24,1.00,1,1,1,775.92,0.23,36530.10,757.78,0.22,19699.95,744.34,0.20,27006.40,806.52,0.16,1311.63,497.11,0.08,1054.76
765500,1573.85,862.60,1.00,1,1,1,738.89,0.22,2564.43,495.20,0.26,18184.51,471.47,0.29,19241.38,571.75,0.20,16295.16,515.03,0.08,1258.13
788300,1581.23,865.05,1.00,1,1,1,341.19,0.32,17578.19,252.15,0.46,11082.70,297.98,0.41,7825.34,353.35,0.26,9651.19,451.11,0.08,2807.69
803300,1582.39,866.83,1.00,1,1,1,141.30,0.99,16442.35,105.99,1.35,13533.04,98.46,0.97,14735.70,146.97,0.32,13796.32,351.22,0.11,6692.35
818700,1581.94,868.20,1.00,1,1,1,93.79,1.89,7201.92,162.27,2.87,12314.28,105.67,2.90,10896.69,92.05,0.02,4224.48,263.35,0.17,5817.92
833600,1577.65,868.12,1.00,1,1,1,287.72,-3.12,18431.18,240.94,-2.91,8445.45,148.92,-2.90,4974.63,19.41,-1.20,5864.34,115.16,0.39,10291.10
847700,1575.14,866.57,1.00,1,1,1,209.28,-2.59,10783.95,163.26,-2.56,7343.90,110.93,-2.13,7356.34,69.76,-2.57,4862.93,64.37,2.39,10889.09
877300,1571.69,864.20,1.00,1,1,1,141.41,-2.54,2308.94,120.95,-1.25,5948.70,106.73,-1.89,882.47,140.60,-2.86,2581.81,155.53,2.87,3467.65
900200,1577.13,860.54,1.00,1,1,1,286.39,-0.59,15855.24,142.80,-0.93,2068.84,87.63,-1.88,834.80,228.90,-3.01,4024.26,206.90,2.96,2356.41
914900,1574.90,859.89,1.00,1,1,1,158.21,-2.86,27654.29,144.50,-2.95,16540.87,131.87,-2.81,7210.71,304.27,-3.09,5321.16,290.70,3.02,5772.79
929900,1572.92,859.72,1.00,1,1,1,132.38,-3.05,2525.43,384.05,3.02,16695.54,458.03,3.02,22943.79,361.39,3.12,4133.20,351.40,3.04,4074.61
945700,1563.15,861.30,1.00,2,2,2,626.22,2.98,31582.47,772.55,2.96,24677.48,675.63,3.00,13797.25,434.98,3.06,4940.76,367.09,3.04,994.65
960300,1549.81,863.91,1.00,2,2,2,931.12,2.95,20956.30,981.32,2.98,14358.56,732.38,3.00,3887.94,488.12,3.00,4086.34,344.86,3.05,1539.01
975100,1534.66,865.83,1.00,2,2,2,1031.96,3.02,8153.65,705.92,3.02,18740.23,720.09,2.99,902.65,575.96,2.99,5944.49,314.71,3.05,2037.95
1005500,1518.13,867.67,1.00,1,1,1,547.22,3.03,15949.37,554.60,3.00,5006.82,506.72,2.99,7019.22,619.87,2.98,1465.96,297.28,3.03,601.31
1021500,1509.19,869.53,1.00,1,1,1,570.22,2.94,3569.91,336.42,2.92,13801.91,514.11,2.98,473.18,585.06,2.96,2253.00,275.18,3.00,1475.24
1058000,1500.90,871.58,1.00,1,1,1,234.02,2.90,9218.95,477.10,2.97,3891.65,516.14,2.95,506.15,457.17,2.95,3506.86,286.50,2.98,358.90
1072100,1485.42,873.72,1.00,1,1,1,1108.57,3.00,62143.88,839.70,2.97,25716.35,458.05,2.92,4262.83,328.80,2.93,9120.56,280.94,2.99,437.59
1087200,1476.75,875.82,1.00,1,1,1,590.59,2.90,34734.18,428.58,2.82,27884.78,376.70,2.87,5527.59,233.90,2.88,6358.12,270.43,3.00,718.38
1101600,1473.44,877.76,1.00,1,1,1,266.50,2.61,23872.08,109.62,0.55,35123.47,74.03,2.38,21759.08,123.36,2.81,7719.61,225.55,3.01,3120.73
1116900,1479.53,877.53,1.00,1,1,1,398.18,-0.04,42193.79,221.35,-0.07,9603.90,113.69,0.12,11140.47,38.22,2.64,5613.86,154.80,3.04,4640.47
1139500,1481.81,877.16,1.00,1,1,1,102.20,-0.16,13142.29,129.49,-0.15,4109.79,269.34,-0.12,7141.47,81.68,-0.14,5231.29,93.75,3.10,2722.24
1154900,1484.39,876.78,1.00,1,1,1,169.56,-0.15,4375.87,328.78,-0.16,12940.88,256.86,-0.21,1716.21,162.99,-0.24,5336.74,15.43,-1.93,5847.26
1170400,1491.83,875.54,1.00,2,2,2,486.99,-0.17,20482.69,418.01,-0.23,5997.43,244.45,-0.34,2219.33,216.48,-0.29,3494.52,34.43,-1.01,1811.04
1185000,1496.64,873.90,1.00,1,1,1,347.52,-0.33,10595.43,172.65,-0.69,18808.85,232.63,-0.44,1927.11,202.25,-0.34,1202.54,58.77,-0.89,1704.43
1200000,1495.76,872.27,1.00,1,1,1,123.51,-2.06,25819.53,104.71,-1.50,8382.31,167.36,-0.61,4866.76,219.62,-0.38,1297.81,113.24,-0.54,4105.51
1214200,1496.85,870.85,1.00,1,1,1,125.58,-0.92,9496.71,163.25,-0.52,9622.46,151.79,-0.56,1214.05,277.10,-0.39,4049.20,144.16,-0.46,2294.75
1228900,1499.86,869.93,1.00,1,1,1,214.42,-0.30,9112.53,233.50,-0.27,5802.40,197.05,-0.43,3470.98,211.28,-0.56,5297.44,143.41,-0.45,96.33
1250800,1505.08,868.57,1.00,1,1,1,246.39,-0.26,1525.86,224.75,-0.37,1154.51,317.53,-0.35,5577.24,155.08,-0.79,3222.82,142.63,-0.40,285.09
1265300,1507.47,866.94,1.00,1,1,1,199.66,-0.60,6130.64,422.83,-0.40,13671.28,250.24,-0.53,5808.19,155.40,-0.74,525.81,153.16,-0.31,1203.70
1280400,1516.62,863.71,1.00,1,1,1,642.04,-0.34,29924.43,287.21,-0.67,10949.47,167.67,-1.03,8647.89,133.81,-0.70,1485.51,163.53,-0.24,1002.07
1295400,1514.25,861.56,1.00,1,1,1,213.05,-2.41,51107.20,248.17,-2.63,29618.84,138.15,-1.25,3034.18,88.20,-0.79,3098.80,159.80,-0.19,599.21
1310000,1510.23,860.08,1.00,1,1,1,293.36,-2.79,8512.38,164.48,-2.61,5735.65,112.66,-2.52,10280.99,87.51,-0.55,1420.25,185.72,-0.12,1978.41
1325000,1510.05,859.10,1.00,1,1,1,66.32,-1.76,17702.53,21.06,-1.28,10723.58,63.19,-2.97,4118.97,100.78,-0.19,2421.64,218.07,-0.07,2253.80
1347500,1510.46,859.32,1.00,1,1,1,20.77,0.50,3599.83,34.21,2.10,2439.76,70.27,0.36,5906.97,83.98,0.14,1524.08,245.42,-0.04,1241.30
1377600,1509.13,860.65,1.00,1,1,1,62.32,2.35,2361.35,131.55,0.49,4558.87,143.05,0.36,2418.11,143.56,0.23,2008.30,245.90,-0.03,60.95
1392200,1515.64,862.11,1.00,1,1,1,456.52,0.22,33742.67,324.27,0.24,13679.25,216.61,0.31,5081.75,247.13,0.19,7112.66,236.92,-0.01,741.58
1421400,1522.93,864.01,1.00,1,1,1,258.22,0.26,6803.25,294.49,0.24,1020.31,356.45,0.22,4860.04,301.77,0.18,1872.61,242.00,0.01,215.70
1442800,1530.12,865.60,1.00,2,2,2,344.09,0.22,4046.50,395.72,0.21,4756.71,428.21,0.16,3516.32,372.40,0.15,3345.56,206.66,0.06,1732.09
1457400,1536.88,866.92,1.00,2,2,2,471.48,0.19,8752.83,654.55,0.11,18040.48,535.08,0.11,7495.97,444.09,0.11,5026.49,193.85,0.08,947.81
1473000,1549.77,867.76,1.00,1,1,1,828.21,0.07,23426.12,700.57,0.06,3774.78,627.93,0.06,6277.15,395.73,0.10,3111.47,173.99,0.10,1291.74
1488300,1558.49,868.11,1.00,1,1,1,570.54,0.04,16878.42,602.33,0.01,6736.01,566.90,0.02,4351.33,411.33,0.06,1447.34,183.92,0.09,673.54
1502500,1567.54,867.89,1.00,1,1,1,637.23,-0.02,5441.04,424.56,-0.05,12697.69,358.32,0.01,14692.72,365.02,0.03,3361.74,196.67,0.06,959.23
1517000,1570.66,867.47,1.00,1,1,1,217.24,-0.13,29096.94,158.37,0.00,18386.08,287.19,-0.04,5012.88,261.97,-0.02,7202.45,221.26,0.03,1743.00
1538500,1573.24,867.91,1.00,1,1,1,121.67,0.17,4991.13,180.12,-0.02,1026.10,130.31,-0.10,7314.10,85.50,-0.25,8352.44,232.00,0.00,584.94
1553800,1577.29,867.35,1.00,1,1,1,267.10,-0.14,10158.48,99.94,-0.29,5741.70,22.97,-2.09,9234.46,59.71,-0.53,2134.03,208.38,-0.02,1583.85
1569000,1576.16,867.05,1.00,1,1,1,76.61,-2.88,22301.08,251.96,-2.98,22681.12,222.03,-2.93,13648.75,37.59,-1.09,2250.47,165.38,-0.05,2847.01
1583500,1569.90,866.14,1.00,1,1,1,436.26,-3.00,24849.45,543.64,-3.02,20146.14,160.19,-2.85,4400.49,35.63,-1.10,140.18,110.48,-0.09,3809.96
1598600,1560.19,865.14,1.00,1,1,1,646.96,-3.04,14027.52,103.89,-2.64,29723.46,88.21,-2.54,5345.99,77.70,-0.52,3418.86,28.74,-0.51,5625.32
1629000,1565.75,863.88,1.00,1,1,1,187.76,-0.22,27205.49,192.66,-0.22,9191.32,56.15,-0.82,3661.08,38.29,-0.98,1533.34,54.24,-2.89,2556.89
1651600,1570.16,862.93,1.00,1,1,1,199.25,-0.21,515.09,196.41,-0.16,548.58,273.93,-0.12,10344.99,27.11,-1.97,1442.46,104.31,-3.04,2265.66
1666800,1573.09,862.71,1.00,1,1,1,193.34,-0.07,1850.67,417.44,-0.05,14691.43,215.22,-0.07,3938.90,17.02,-2.22,750.47,162.04,3.14,3903.28
1682200,1582.92,862.33,1.00,1,1,1,638.73,-0.04,28932.07,240.57,0.01,11545.24,74.46,0.12,9280.32,22.19,-2.75,739.59,230.13,3.13,4424.91
1696900,1580.33,862.79,1.00,1,1,1,178.80,2.97,55525.95,277.46,3.00,35144.70,65.73,2.88,9366.94,154.49,3.12,9146.32,275.17,3.12,3068.89
1712300,1574.64,863.47,1.00,1,1,1,371.81,3.02,12567.51,264.72,3.04,1065.94,345.23,3.09,18256.16,218.35,3.10,4158.55,281.72,3.10,478.88
1742700,1568.26,863.99,1.00,2,2,2,210.54,3.06,5317.16,391.16,3.12,4245.88,484.64,3.10,4589.65,332.07,3.05,3761.48,257.08,3.09,817.40
1757600,1556.93,863.79,1.00,2,2,2,760.95,-3.12,37032.46,819.13,3.13,28723.52,400.26,3.11,5679.16,504.09,3.06,11546.79,219.52,3.09,2522.05
1772900,1543.53,864.33,1.00,2,2,2,876.43,3.10,8134.14,408.20,3.11,26869.73,578.33,3.07,11729.96,546.62,3.06,2787.68,245.08,3.07,1687.43
1809700,1535.67,864.53,1.00,1,1,1,213.54,3.12,18014.05,440.78,3.00,1483.32,651.05,3.04,2013.79,521.34,3.06,687.82,249.42,3.08,137.67
1825100,1520.74,867.50,1.00,1,1,1,988.62,2.95,50582.83,1082.27,3.00,41655.57,605.20,3.04,2991.21,525.46,3.06,274.20,239.14,3.11,794.37
1839200,1504.05,868.94,1.00,1,1,1,1187.97,3.06,16461.83,903.06,3.07,13489.80,702.65,3.02,6976.54,435.13,3.06,6406.10,263.03,3.14,1758.74
1854000,1494.71,869.42,1.00,1,1,1,631.86,3.09,37627.65,392.70,3.05,34492.65,457.94,3.06,16602.95,334.15,3.05,6833.67,243.02,-3.09,1668.65
1875300,1489.93,870.26,1.00,1,1,1,227.64,2.97,19101.02,97.00,2.97,13901.33,167.40,-3.13,13700.74,288.54,3.07,2162.75,218.88,-3.02,1383.28
1889600,1491.31,870.01,1.00,1,1,1,97.59,-0.18,22743.39,117.39,-0.44,14859.81,8.50,-1.62,11685.38,124.56,-2.97,11895.83,187.34,-2.93,2554.50
1904800,1493.07,868.79,1.00,1,1,1,141.11,-0.61,4356.48,118.48,-0.33,867.33,167.37,-0.32,10875.67,60.59,-0.94,10587.99,127.90,-2.77,4225.47
1919700,1494.68,868.86,1.00,1,1,1,108.53,0.05,5771.20,216.85,-0.25,6652.47,248.15,-0.35,5438.79,137.91,-0.59,5609.70,78.03,-2.38,4218.47
1935400,1499.49,867.13,1.00,1,1,1,325.65,-0.35,14597.10,376.99,-0.35,10368.65,275.61,-0.37,1791.13,209.09,-0.59,4534.28,64.87,-1.88,2420.99
1950000,1505.40,864.90,1.00,1,1,1,432.23,-0.36,7311.49,338.98,-0.45,3500.84,268.31,-0.57,3668.50,251.64,-0.56,2943.83,84.36,-1.01,4445.47
1965000,1508.53,862.77,1.00,1,1,1,252.61,-0.60,13049.24,197.28,-0.90,12212.75,256.06,-0.75,3312.77,249.18,-0.55,210.66,123.69,-0.57,3982.40
1987000,1509.92,859.17,1.00,1,1,1,175.34,-1.20,6694.71,216.94,-1.14,2368.10,264.51,-0.75,386.94,258.76,-0.56,444.75,142.43,-0.41,1303.41
2001400,1511.85,855.61,1.00,1,1,1,281.64,-1.07,7643.77,355.17,-0.64,13526.91,235.83,-0.72,2058.44,249.91,-0.56,615.39,140.03,-0.31,924.82
2016100,1518.23,853.03,1.00,2,2,2,467.91,-0.38,20947.78,277.53,-0.45,6661.90,250.71,-0.56,2792.85,220.61,-0.55,2001.99,113.15,-0.22,1992.41
2044800,1522.72,850.41,1.00,1,1,1,181.08,-0.53,10099.61,192.01,-0.48,2989.91,251.78,-0.40,1373.77,177.32,-0.47,1600.15,76.98,-0.02,1419.50
2066800,1526.88,848.56,1.00,1,1,1,206.93,-0.42,1521.04,221.97,-0.34,1894.29,193.31,-0.32,2770.94,149.70,-0.26,1989.05,37.49,0.48,2157.58
2081300,1530.37,847.73,1.00,1,1,1,247.18,-0.23,4011.77,206.03,-0.07,4037.45,138.49,-0.05,4883.52,104.54,0.09,4340.81,50.58,2.27,4775.31
2095700,1532.82,848.13,1.00,1,1,1,172.40,0.16,7627.86,92.83,0.55,9803.70,94.45,0.61,6007.41,65.33,0.97,5617.75,220.61,-0.55,18682.87
2125300,1533.85,849.86,1.00,1,1,1,68.17,1.03,4685.90,93.37,1.51,2921.14,99.25,1.59,3079.51,117.46,1.91,3205.71,177.32,-0.47,1551.50
2147300,1533.09,852.94,1.00,1,1,1,144.14,1.81,4868.94,159.19,2.03,4135.63,171.93,2.08,4391.71,217.50,2.29,5281.86,149.70,-0.26,1989.05
2177200,1530.16,857.25,1.00,1,1,1,174.43,2.17,2132.11,286.02,2.29,4617.12,312.19,2.33,5058.63,329.14,2.49,4151.90,104.54,0.09,2105.07
2191900,1524.68,862.53,1.00,1,1,1,517.45,2.37,23710.06,597.12,2.47,21727.61,473.10,2.50,11824.52,171.93,2.08,12509.61,65.33,0.97,5503.10
2206900,1516.32,868.34,1.00,1,1,1,678.90,2.53,12474.41,764.79,2.62,13087.57,769.17,2.65,20642.33,312.19,2.33,10083.53,117.46,1.91,6325.93
2222000,1504.76,874.05,1.00,1,1,1,854.25,2.68,13813.26,956.54,2.77,15247.16,764.79,2.62,1771.46,473.10,2.50,11511.29,217.50,2.29,7695.42
2236800,1489.71,878.82,1.00,1,1,1,1066.44,2.83,17361.36,1066.44,2.83,8767.78,956.54,2.77,15556.22,769.17,2.65,20921.28,329.14,2.49,8387.97
