@RELATION gaze_labels

%@METADATA width_px 1920
%@METADATA height_px 1080
%@METADATA width_mm 540.00
%@METADATA height_mm 254.00
%@METADATA distance_mm 620.00


@ATTRIBUTE time INTEGER
@ATTRIBUTE x NUMERIC
@ATTRIBUTE y NUMERIC
@ATTRIBUTE confidence NUMERIC
@ATTRIBUTE handlabeller1 INTEGER
@ATTRIBUTE handlabeller2 INTEGER
@ATTRIBUTE handlabeller_final INTEGER
@ATTRIBUTE speed_1 numeric
@ATTRIBUTE direction_1 numeric
@ATTRIBUTE acceleration_1 numeric
@ATTRIBUTE speed_2 numeric
@ATTRIBUTE direction_2 numeric
@ATTRIBUTE acceleration_2 numeric
@ATTRIBUTE speed_4 numeric
@ATTRIBUTE direction_4 numeric
@ATTRIBUTE acceleration_4 numeric
@ATTRIBUTE speed_8 numeric
@ATTRIBUTE direction_8 numeric
@ATTRIBUTE acceleration_8 numeric
@ATTRIBUTE speed_16 numeric
@ATTRIBUTE direction_16 numeric
@ATTRIBUTE acceleration_16 numeric

%The number after speed, direction denotes the step size that was used for the calculation.
%Acceleration was calculated between two adjacent samples of the already low pass filtered velocity

@DATA
0,1354.65,861.18,1.00,1,1,1,0.00,0.00,0.00,956.19,2.70,0.00,1002.08,2.85,0.00,928.78,2.97,0.00,284.53,2.98,0.00
13900,1342.62,866.83,1.00,1,1,1,956.19,2.70,68790.87,1002.08,2.85,10620.84,1041.33,3.02,13166.77,716.35,3.09,16633.12,78.47,3.03,14833.71
29000,1326.85,869.65,1.00,1,1,1,1060.86,2.96,18776.64,1041.33,3.02,12120.41,928.78,2.97,8065.08,461.46,-3.11,17239.76,132.14,-0.02,13931.63
43600,1311.92,870.55,1.00,1,1,1,1024.73,3.08,8682.82,874.16,3.12,13053.44,716.35,3.09,15835.64,108.87,-2.83,24508.49,325.27,0.01,13233.76
58700,1300.90,870.28,1.00,1,1,1,730.06,-3.12,20099.42,454.15,-3.08,28071.67,461.46,-3.11,17239.76,284.53,2.98,12862.19,469.13,0.03,9543.83
79700,1295.56,869.46,1.00,1,1,1,257.19,-2.99,22674.03,129.90,-2.76,15856.94,108.87,-2.83,17039.23,78.47,3.03,9818.51,576.17,0.07,5185.00
94700,1296.55,868.55,1.00,1,1,1,89.96,-0.74,21415.64,185.78,-0.19,20216.59,187.02,-0.17,19198.91,132.14,-0.02,14024.51,564.74,0.12,2099.94
123800,1303.60,867.89,1.00,1,1,1,243.20,-0.09,6183.26,433.03,-0.04,8620.11,441.98,-0.04,8862.89,325.27,0.01,6639.62,510.36,0.20,2311.74
138900,1315.68,867.72,1.00,1,1,1,799.77,-0.01,36930.79,754.22,0.01,21366.55,537.36,0.01,6522.87,469.13,0.03,9543.83,89.28,1.28,31487.60
160400,1331.20,868.17,1.00,2,2,2,722.52,0.03,3902.29,627.00,0.05,6040.22,745.80,0.05,9757.24,576.17,0.07,5064.42,70.51,1.35,911.01
190900,1348.24,869.28,1.00,1,1,1,559.85,0.07,5387.49,739.97,0.09,3797.94,750.40,0.08,734.49,564.74,0.12,1032.76,74.67,0.89,1091.25
205800,1364.68,871.04,1.00,1,1,1,1109.16,0.11,36930.74,966.98,0.12,15346.01,726.19,0.14,3345.38,510.36,0.20,4514.87,78.99,0.94,374.55
220700,1376.86,872.67,1.00,1,1,1,824.97,0.13,19151.68,709.12,0.23,18364.92,621.63,0.27,9229.05,336.99,0.37,12612.68,72.22,1.21,1441.24
234800,1384.71,875.69,1.00,1,1,1,596.41,0.37,19954.99,318.82,0.77,33084.43,261.35,0.73,28694.28,162.21,0.88,14966.13,79.45,1.70,2677.70
249800,1383.50,879.15,1.00,1,1,1,243.67,1.91,42459.81,275.32,2.40,28826.80,302.73,2.43,28211.86,138.21,1.96,10338.89,84.86,1.86,922.97
271100,1377.35,882.46,1.00,1,1,1,328.07,2.65,10396.67,621.05,2.85,18403.36,486.11,2.83,11289.12,306.61,2.69,10513.93,82.99,1.84,115.78
286100,1361.92,885.66,1.00,1,1,1,1050.60,2.94,49477.07,685.23,2.97,6891.34,533.69,2.95,5166.52,477.00,2.88,12310.17,90.64,2.22,2221.24
315700,1347.23,887.60,1.00,2,2,2,500.77,3.01,18662.00,468.75,3.07,7536.98,692.42,3.00,5441.45,634.05,2.95,5496.35,91.91,2.31,299.59
330900,1340.98,887.21,1.00,2,2,2,411.81,-3.08,8220.72,703.87,3.04,15511.85,647.48,3.04,3403.88,644.47,2.99,1854.73,83.23,2.37,654.88
346000,1326.02,889.83,1.00,1,1,1,1005.98,2.97,40602.03,860.29,3.02,10407.13,818.66,3.04,11336.46,569.55,3.04,5238.29,84.48,2.54,956.75
368600,1308.79,891.22,1.00,1,1,1,764.47,3.06,11269.58,912.41,3.04,2431.93,779.89,3.03,1756.81,439.71,3.09,5891.55,73.55,2.64,595.22
383100,1292.35,893.35,1.00,1,1,1,1143.66,3.01,26332.41,675.83,3.04,16317.31,432.82,3.10,24122.07,265.05,-3.13,12121.54,47.89,2.64,1770.14
397700,1289.23,893.19,1.00,1,1,1,214.09,-3.09,63956.99,183.28,-0.45,58236.71,157.54,-2.85,19749.53,69.38,-2.92,13545.48,19.48,2.48,1977.34
412600,1297.21,890.99,1.00,1,1,1,556.00,-0.27,51155.95,395.57,-0.41,14271.69,375.71,-0.28,34599.47,153.04,-0.28,14519.36,2.02,2.51,1171.74
427200,1299.95,888.58,1.00,1,1,1,249.48,-0.72,23911.16,571.11,-0.22,13416.72,652.74,-0.19,19231.74,354.92,-0.17,13953.02,47.45,-0.28,3380.45
442200,1313.70,887.25,1.00,1,1,1,921.09,-0.10,48898.90,867.56,-0.11,20504.43,731.84,-0.14,5655.77,574.89,-0.14,14692.35,73.93,-0.30,1766.84
464300,1331.95,885.17,1.00,2,2,2,831.27,-0.11,4122.53,862.04,-0.10,399.82,708.74,-0.10,1771.77,578.32,-0.12,583.68,90.19,-0.21,811.19
479400,1345.61,884.11,1.00,2,2,2,907.42,-0.08,5455.95,579.31,-0.09,18732.01,722.69,-0.08,1116.61,492.67,-0.10,5691.46,168.09,-0.13,5200.31
509800,1358.21,882.89,1.00,1,1,1,416.38,-0.10,16156.88,606.35,-0.07,965.03,525.19,-0.05,6532.34,467.97,-0.09,831.69,242.37,-0.09,2458.31
523900,1372.53,882.29,1.00,1,1,1,1016.64,-0.04,42645.37,469.97,-0.00,9959.15,326.73,-0.04,14077.68,333.97,-0.11,9518.15,300.66,-0.07,4148.01
553700,1378.84,882.80,1.00,1,1,1,212.41,0.08,27054.32,85.01,0.12,12946.06,219.74,-0.07,3599.43,223.15,-0.10,3721.19,289.61,-0.04,438.05
575100,1376.85,882.82,1.00,1,1,1,92.97,3.13,14256.91,90.47,-2.79,8145.50,61.76,-2.94,13073.20,183.82,-0.01,1994.99,253.83,-0.01,1730.12
589900,1375.77,881.67,1.00,1,1,1,107.12,-2.32,5526.39,315.40,-2.98,15351.40,187.99,-3.07,8576.60,133.27,0.14,3759.82,247.46,0.02,636.97
604700,1367.64,881.31,1.00,1,1,1,549.74,-3.10,32366.73,312.13,3.12,3917.04,47.72,2.82,9808.44,56.02,0.68,6077.98,172.42,0.08,5137.60
619700,1366.47,881.87,1.00,1,1,1,86.54,2.70,31675.83,231.60,0.36,35621.09,64.44,1.33,5139.26,68.28,2.31,6062.43,62.50,0.35,7565.48
634700,1374.16,883.72,1.00,1,1,1,527.09,0.24,39781.06,359.64,0.33,8546.21,192.19,0.50,10409.62,77.80,2.27,657.75,76.38,2.74,8610.96
649800,1376.70,885.41,1.00,1,1,1,202.14,0.59,22790.51,164.50,0.66,13933.18,148.35,0.88,5171.97,73.94,2.06,1116.53,176.65,2.94,6826.15
672000,1379.01,887.48,1.00,1,1,1,139.61,0.73,3018.89,155.35,2.34,10725.73,113.10,2.07,6739.39,85.03,1.98,562.40,266.68,3.03,4149.00
686400,1372.76,889.51,1.00,2,2,2,456.56,2.83,37530.31,304.75,2.82,12623.30,104.67,2.43,2764.25,161.14,2.66,7573.52,362.83,3.08,6747.81
701400,1370.52,890.33,1.00,2,2,2,159.10,2.79,19842.24,46.91,2.84,17190.20,272.71,2.91,12405.69,372.80,2.96,14903.73,388.13,3.10,1755.78
716100,1371.43,889.92,1.00,2,2,2,67.84,-0.42,15430.67,243.88,3.03,13469.32,411.36,3.07,10111.36,496.01,3.03,8679.06,356.38,3.12,2221.81
731000,1363.34,891.15,1.00,2,2,2,548.65,2.99,41227.72,779.63,3.09,35995.14,680.87,3.09,18095.82,627.56,3.11,9217.88,302.22,3.14,3656.92
745600,1348.46,891.21,1.00,3,3,3,1019.19,3.14,33083.29,1032.76,3.10,17354.66,902.09,3.10,15166.66,692.45,-3.13,4847.38,252.29,-3.13,3442.37
767800,1325.37,892.80,1.00,1,1,1,1042.53,3.07,3178.82,998.00,3.11,1627.72,944.24,-3.13,2967.44,688.22,-3.11,699.98,219.36,-3.11,1501.60
783300,1310.86,892.48,1.00,1,1,1,936.60,-3.12,8958.43,842.33,-3.05,12633.48,939.35,-3.11,1450.23,604.32,-3.08,5544.67,172.97,-3.10,2992.84
798300,1299.80,890.34,1.00,1,1,1,750.94,-2.95,15563.19,873.28,-3.01,3081.91,698.50,-3.04,16418.07,510.59,-3.03,6548.90,151.70,-3.07,1459.81
813400,1284.82,888.92,1.00,1,1,1,996.79,-3.05,17191.75,601.24,-3.04,18085.96,406.27,-2.93,19742.75,333.54,-2.97,11854.99,145.53,-3.02,658.58
843400,1272.83,887.56,1.00,1,1,1,402.18,-3.03,19824.20,199.99,-2.79,13690.02,224.09,-2.74,6354.96,125.08,-2.58,7421.26,171.15,-3.03,855.23
880500,1272.24,884.24,1.00,1,1,1,90.83,-1.75,10411.65,168.09,-0.70,8588.03,82.11,-1.08,6632.58,92.36,-0.61,4905.92,202.52,-3.06,860.64
896000,1279.61,881.88,1.00,1,1,1,499.09,-0.31,31948.03,380.52,-0.20,15873.39,356.06,-0.18,20089.52,200.44,-0.18,7940.09,225.67,-3.05,1496.34
926000,1289.20,880.78,1.00,1,1,1,321.99,-0.11,6453.54,609.13,-0.02,8148.63,688.43,-0.02,11401.06,261.02,-0.11,2089.63,274.72,-3.07,1638.53
941000,1307.01,881.30,1.00,1,1,1,1187.71,0.03,58017.80,1178.06,0.07,38300.95,726.35,0.04,3838.22,275.61,-0.07,1158.48,287.52,-3.05,894.03
955500,1323.86,883.32,1.00,1,1,1,1170.50,0.12,7394.38,907.83,0.11,18812.06,677.85,0.08,3843.28,262.07,0.01,1849.46,291.93,-3.06,391.41
970700,1333.81,884.24,1.00,1,1,1,657.42,0.09,33791.44,189.58,0.14,47260.73,172.05,0.26,33512.26,108.35,0.21,10334.50,328.56,-3.09,2487.98
985700,1329.53,884.12,1.00,1,1,1,285.50,-3.11,62834.35,409.08,3.14,39822.15,214.10,3.04,25330.43,198.67,2.98,20151.60,369.82,-3.11,2779.25
1008700,1318.27,884.29,1.00,1,1,1,489.80,3.13,8911.14,539.51,3.11,5703.08,592.18,3.12,16486.69,534.08,3.09,14660.69,357.08,-3.12,557.65
1022800,1309.53,884.78,1.00,2,2,2,620.87,3.09,9426.89,838.18,3.11,21182.61,976.26,3.13,27243.36,734.14,3.12,14279.04,396.85,-3.14,2899.78
1037000,1294.56,885.02,1.00,2,2,2,1054.26,3.13,30602.83,1523.91,3.14,48347.48,1338.74,3.13,25527.17,932.18,3.13,13962.96,489.95,3.14,6557.79
1052400,1264.42,884.83,1.00,1,1,1,1957.12,-3.14,58664.21,1803.44,3.14,18151.55,1200.28,3.14,8994.74,1097.25,3.13,10719.04,579.55,3.14,5818.62
1067500,1239.55,885.05,1.00,1,1,1,1646.81,3.13,20629.20,990.24,3.13,53862.70,1201.54,3.14,276.76,1097.19,3.14,345.61,690.72,3.14,7362.70
1098000,1219.27,885.35,1.00,1,1,1,665.19,3.13,32184.62,856.47,3.14,4389.36,1195.31,3.14,217.82,1060.90,-3.14,1215.01,766.87,-3.14,2501.13
1120700,1193.99,885.32,1.00,1,1,1,1113.52,-3.14,19759.25,1450.17,-3.14,26156.24,924.67,-3.14,11931.12,1084.83,-3.12,1211.53,817.94,-3.13,2261.49
1134700,1166.05,885.31,1.00,1,1,1,1996.02,-3.14,63035.32,1049.58,-3.12,28667.58,902.27,-3.12,1901.62,907.65,-3.11,12683.22,778.33,-3.12,2875.42
1149800,1163.46,884.69,1.00,1,1,1,176.58,-2.90,120849.24,219.36,-2.96,55231.56,916.26,-3.09,2275.10,826.14,-3.11,5398.59,670.33,-3.11,7167.36
1164000,1159.73,884.13,1.00,1,1,1,265.26,-2.99,6382.78,781.64,-3.04,39672.76,549.94,-3.02,26005.75,799.28,-3.11,1894.89,554.07,-3.10,8199.70
1178300,1141.30,882.41,1.00,1,1,1,1294.78,-3.05,72032.98,817.23,-3.03,2501.05,702.77,-3.07,10895.11,694.80,-3.10,7339.11,404.29,-3.09,10480.83
1200300,1130.23,880.97,1.00,2,2,2,507.06,-3.01,35832.55,642.06,-3.10,8229.44,714.24,-3.11,1264.87,439.95,-3.04,11670.41,197.29,-3.06,9414.76
1215000,1117.75,881.39,1.00,1,1,1,849.49,3.11,24416.70,631.99,3.10,3662.20,537.45,-3.12,12035.68,286.53,-2.99,10507.87,15.17,-2.45,12590.54
1243900,1102.70,882.05,1.00,1,1,1,521.38,3.10,11356.01,450.98,-3.14,6314.54,342.88,-3.08,6758.86,123.67,-2.82,5745.84,173.00,-0.04,6386.72
1259300,1097.78,881.31,1.00,1,1,1,323.43,-2.99,13851.33,115.03,-0.90,34408.57,40.17,-1.14,23325.79,181.36,-0.13,19318.70,389.84,0.01,14106.00
1274400,1104.88,879.31,1.00,1,1,1,488.97,-0.28,52642.83,468.61,-0.15,25989.13,450.88,-0.11,28569.25,468.09,-0.01,19131.45,584.82,0.03,12924.42
1305700,1119.28,878.08,1.00,2,2,2,461.60,-0.09,3010.55,662.00,-0.04,6452.77,872.69,-0.04,13561.08,746.38,0.01,8896.97,623.02,0.05,1285.53
1328200,1140.46,877.72,1.00,2,2,2,941.66,-0.02,21428.47,1377.69,0.01,31885.19,1182.82,0.01,13945.31,1154.81,0.01,18152.79,635.23,0.07,830.45
1343200,1170.94,878.47,1.00,2,2,2,2032.45,0.02,72821.41,2113.18,0.04,49151.08,1724.80,0.03,36219.21,1432.90,0.02,18598.72,706.76,0.08,4806.71
1358400,1204.23,880.11,1.00,2,2,2,2193.16,0.05,11111.55,2156.93,0.06,3850.98,2148.26,0.04,27881.84,1580.29,0.05,9933.39,723.75,0.10,1449.42
1373400,1235.98,882.10,1.00,3,3,3,2120.32,0.06,5214.98,2183.76,0.05,2030.12,2217.48,0.06,5197.18,1672.83,0.07,6602.10,717.75,0.11,478.58
1388300,1269.45,883.32,1.00,1,1,1,2248.00,0.04,9386.16,2278.46,0.06,6720.49,2141.74,0.08,5646.51,1608.12,0.10,5277.61,764.76,0.11,3161.62
1403400,1304.19,886.45,1.00,1,1,1,2310.14,0.09,9068.56,2101.27,0.11,13193.80,1622.55,0.10,34557.45,1395.94,0.12,14274.80,734.86,0.10,1980.20
1418100,1331.72,889.90,1.00,1,1,1,1887.37,0.12,29180.61,1097.72,0.17,68629.51,1133.50,0.18,34061.28,1051.44,0.17,23766.83,703.62,0.11,2128.16
1440600,1344.42,893.49,1.00,1,1,1,586.34,0.28,58252.00,393.93,0.52,32882.01,669.47,0.30,21146.27,693.62,0.25,16199.85,714.52,0.10,527.63
1455700,1344.56,897.28,1.00,1,1,1,251.50,1.53,37229.06,229.86,1.21,17328.62,193.12,1.35,39495.47,348.40,0.49,24118.18,698.59,0.09,1237.58
1470100,1346.79,899.84,1.00,1,1,1,235.59,0.85,11314.00,395.74,2.68,30254.39,441.87,2.74,31153.84,125.04,1.82,23677.31,646.96,0.07,3664.35
1484100,1334.52,902.33,1.00,1,1,1,894.38,2.94,73666.38,907.30,2.99,38983.24,632.78,2.96,16116.74,260.75,2.84,15960.79,555.56,0.06,6547.25
1499300,1320.58,903.73,1.00,1,1,1,921.40,3.04,6273.85,879.09,3.09,5647.72,706.83,3.08,7170.96,320.62,3.06,5711.35,467.17,0.07,5829.13
1514100,1308.19,903.82,1.00,1,1,1,837.53,3.13,7872.73,554.73,-3.08,22561.99,537.36,-3.08,12514.36,220.03,-2.99,7984.09,314.02,0.17,10683.26
1536200,1300.15,902.55,1.00,1,1,1,368.32,-2.99,21624.56,279.29,-2.77,13654.43,265.59,-2.73,13637.38,123.84,-2.46,5837.14,125.04,1.82,15672.98
1551200,1298.53,900.05,1.00,1,1,1,198.28,-2.14,18577.22,242.42,-0.95,27474.33,206.47,-0.88,25245.94,158.90,-0.65,14915.30,260.75,2.84,14896.73
1566000,1304.34,896.67,1.00,1,1,1,453.91,-0.53,34012.48,644.94,-0.36,31311.48,605.43,-0.35,29730.69,303.58,-0.28,11147.02,320.62,3.06,5865.71
1582000,1317.10,893.00,1.00,1,1,1,830.26,-0.28,25373.64,1006.67,-0.22,23754.98,739.78,-0.21,10344.86,311.78,-0.09,3666.22,220.03,-2.99,7385.29
1596800,1334.61,889.95,1.00,1,1,1,1200.36,-0.17,26039.57,815.34,-0.12,14294.86,730.41,-0.09,5646.32,605.43,-0.35,21213.12,123.84,-2.46,8716.27
1625700,1352.48,888.78,1.00,2,2,2,619.93,-0.07,20335.62,573.69,0.04,9159.96,440.98,0.14,11019.27,739.78,-0.21,5727.26,158.90,-0.65,7741.51
1647900,1363.90,891.12,1.00,2,2,2,524.80,0.20,8069.04,231.86,0.99,21518.85,573.69,0.04,6408.78,730.41,-0.09,3764.21,303.58,-0.28,7431.35
1678400,1359.19,899.00,1.00,1,1,1,301.11,2.11,22491.91,301.11,2.11,9474.77,231.86,0.99,15662.90,440.98,0.14,10441.21,311.78,-0.09,1923.26
