@RELATION gaze_labels

%@METADATA width_px 1920
%@METADATA height_px 1080
%@METADATA width_mm 540.00
%@METADATA height_mm 254.00
%@METADATA distance_mm 620.00


@ATTRIBUTE time INTEGER
@ATTRIBUTE x NUMERIC
@ATTRIBUTE y NUMERIC
@ATTRIBUTE confidence NUMERIC
@ATTRIBUTE handlabeller1 INTEGER
@ATTRIBUTE handlabeller2 INTEGER
@ATTRIBUTE handlabeller_final INTEGER
@ATTRIBUTE speed_1 numeric
@ATTRIBUTE direction_1 numeric
@ATTRIBUTE acceleration_1 numeric
@ATTRIBUTE speed_2 numeric
@ATTRIBUTE direction_2 numeric
@ATTRIBUTE acceleration_2 numeric
@ATTRIBUTE speed_4 numeric
@ATTRIBUTE direction_4 numeric
@ATTRIBUTE acceleration_4 numeric
@ATTRIBUTE speed_8 numeric
@ATTRIBUTE direction_8 numeric
@ATTRIBUTE acceleration_8 numeric
@ATTRIBUTE speed_16 numeric
@ATTRIBUTE direction_16 numeric
@ATTRIBUTE acceleration_16 numeric

%The number after speed, direction denotes the step size that was used for the calculation.
%Acceleration was calculated between two adjacent samples of the already low pass filtered velocity

@DATA
0,865.29,835.33,1.00,1,1,1,0.00,0.00,0.00,1033.07,2.76,0.00,758.84,2.71,0.00,193.47,2.37,0.00,117.32,0.50,0.00
22000,844.22,843.83,1.00,1,1,1,1033.07,2.76,46957.70,758.84,2.71,12612.07,84.23,1.55,33134.63,269.94,0.04,19401.18,240.51,0.05,6567.09
37600,839.37,847.25,1.00,1,1,1,380.16,2.53,42869.43,84.23,1.55,46728.33,193.47,2.37,9563.77,455.18,-0.11,12374.21,234.74,0.02,503.92
66500,844.28,847.57,1.00,1,1,1,170.08,0.07,18108.79,327.48,-0.06,11829.07,269.94,0.04,14769.06,515.47,-0.13,2109.68,155.88,0.19,2939.67
82000,853.88,846.35,1.00,1,1,1,624.89,-0.13,29622.30,667.81,-0.14,22086.55,455.18,-0.11,12454.05,117.32,0.50,27505.67,65.84,1.38,9357.26
97000,864.44,844.71,1.00,1,1,1,712.29,-0.15,5949.82,640.87,-0.15,1822.07,515.47,-0.13,4064.64,240.51,0.05,9631.73,172.58,2.56,10615.12
112700,873.34,843.44,1.00,1,1,1,572.65,-0.14,8909.78,391.32,-0.11,15930.26,402.55,-0.10,7248.47,234.74,0.02,500.71,281.94,2.69,7209.88
134400,878.98,843.03,1.00,1,1,1,260.50,-0.07,14436.12,201.77,0.03,8944.71,207.23,0.05,9222.07,155.88,0.19,3915.05,369.68,2.74,4122.59
148700,880.60,843.69,1.00,1,1,1,122.39,0.39,11202.40,87.33,1.90,16931.20,73.43,1.82,16289.66,65.84,1.38,10142.48,151.93,2.47,15887.58
163300,878.16,845.42,1.00,2,2,2,204.82,2.53,19841.94,330.50,2.66,18775.52,300.23,2.65,17570.64,172.58,2.56,10905.95,88.22,2.33,4502.51
177400,872.18,848.05,1.00,2,2,2,463.62,2.73,18879.45,536.47,2.76,14880.87,418.16,2.72,8553.84,281.94,2.69,8028.02,68.17,2.34,1422.88
192600,863.58,851.29,1.00,3,3,3,604.42,2.78,9452.08,486.79,2.75,3280.23,527.47,2.79,7526.73,369.68,2.74,5885.54,87.43,2.57,1743.57
214400,855.52,854.91,1.00,1,1,1,405.19,2.72,9249.31,520.74,2.82,2239.86,512.07,2.80,708.66,403.42,2.79,1740.02,111.55,2.70,1249.71
229400,845.40,857.33,1.00,1,1,1,694.30,2.91,20384.61,544.71,2.84,1810.95,431.55,2.80,5369.26,413.77,2.84,1586.42,163.19,2.79,3535.19
244200,840.00,859.66,1.00,1,1,1,396.88,2.73,21006.90,324.36,2.76,15092.47,389.77,2.86,3359.73,368.92,2.88,3182.04,159.44,2.74,663.04
259900,836.22,861.04,1.00,1,1,1,256.25,2.79,9032.37,243.53,2.91,5808.03,292.48,2.93,6368.25,304.97,2.93,4223.56,182.14,2.74,1448.59
275700,832.54,861.44,1.00,1,1,1,234.47,3.03,3998.77,271.57,-3.14,4217.31,218.64,3.09,5291.87,220.63,3.01,5492.46,213.16,2.81,2131.24
290400,827.94,861.03,1.00,1,1,1,314.14,-3.05,6523.11,201.73,-2.96,5542.02,178.87,-3.00,3800.65,163.87,3.05,3901.14,236.85,2.86,1772.99
305100,826.71,860.37,1.00,1,1,1,95.10,-2.65,15614.59,95.32,-2.56,8137.78,85.21,-2.63,7077.91,48.46,2.99,7858.88,242.48,2.88,546.95
320100,825.57,859.48,1.00,1,1,1,96.26,-2.48,1118.40,52.64,-1.08,6987.90,57.57,-2.65,1846.12,16.06,2.79,2194.85,227.96,2.88,968.45
342000,827.62,858.66,1.00,1,1,1,101.00,-0.38,7805.38,28.36,-2.89,2986.96,79.00,0.05,6087.49,63.71,2.93,2186.13,227.05,2.92,352.46
357100,824.55,859.22,1.00,2,2,2,206.60,2.96,20280.48,131.29,0.35,10565.96,108.47,0.27,2379.15,97.79,2.92,2257.14,183.25,2.90,2909.29
386900,833.16,860.67,1.00,2,2,2,292.98,0.17,16518.82,222.24,0.27,3087.55,75.05,2.37,5376.58,143.08,2.90,1523.73,162.00,2.88,727.88
401600,834.09,861.83,1.00,3,3,3,101.09,0.90,15486.45,221.44,2.87,29105.72,138.38,2.73,4972.44,167.90,2.82,1874.69,142.79,2.85,1338.57
436800,822.51,863.60,1.00,1,1,1,332.91,2.99,11174.70,432.66,3.02,6141.19,365.83,2.96,6621.96,233.66,2.85,1874.94,112.38,2.80,882.90
451800,812.53,864.42,1.00,1,1,1,667.61,3.06,22420.80,602.68,3.01,11340.11,433.75,2.96,4528.48,200.97,2.81,2263.91,86.43,2.62,2092.90
467500,804.16,865.98,1.00,1,1,1,542.21,2.96,8913.36,439.03,2.86,11515.88,500.79,2.96,4272.50,273.36,2.86,4672.12,70.56,2.46,1293.35
482000,799.78,868.07,1.00,1,1,1,334.44,2.70,16209.78,396.21,2.87,2956.41,290.97,2.85,14717.24,266.43,2.85,484.11,88.65,2.52,1300.41
496700,793.02,869.12,1.00,1,1,1,465.23,2.99,11798.17,167.83,2.84,15545.55,168.51,2.57,9334.28,176.15,2.74,6372.03,103.66,2.59,1107.09
518300,793.97,869.90,1.00,1,1,1,56.79,0.69,23369.89,92.42,0.99,9847.87,85.74,2.10,4650.89,86.51,2.16,5270.73,80.00,2.52,1133.22
532900,794.87,871.91,1.00,1,1,1,150.88,1.15,7068.75,148.52,0.78,4186.58,150.08,0.33,12794.21,75.53,0.86,6753.65,92.95,2.73,1505.37
546900,796.99,872.88,1.00,1,1,1,166.91,0.43,8081.64,256.44,0.05,12590.62,225.30,0.27,5429.73,60.69,0.95,1149.98,88.19,2.86,900.44
561800,802.27,872.27,1.00,1,1,1,356.59,-0.11,15482.36,326.48,0.05,4700.61,240.07,0.10,2811.74,81.16,0.50,2513.16,43.60,2.89,2994.95
576200,806.54,873.36,1.00,1,1,1,306.45,0.25,9031.85,227.84,0.15,7080.53,114.79,0.22,8808.36,98.86,0.22,2148.16,31.13,-0.23,5189.71
599000,810.65,873.50,1.00,1,1,1,180.40,0.03,5965.29,66.11,2.64,12428.81,29.52,1.51,4841.71,123.65,-0.07,1762.52,90.92,-0.21,2623.11
613100,804.41,874.54,1.00,1,1,1,449.28,2.98,44480.33,285.37,3.05,16059.70,15.19,-2.16,3070.97,118.50,-0.29,1942.50,127.87,-0.21,2620.30
628100,802.38,874.23,1.00,1,1,1,136.52,-2.99,21499.89,86.40,-0.91,23340.56,46.96,-1.74,2242.75,83.13,-0.56,2922.47,206.43,-0.17,5256.53
642700,805.98,872.53,1.00,1,1,1,272.68,-0.44,26934.77,293.69,-0.41,15167.82,152.97,-0.72,9222.44,131.76,-0.66,3420.69,262.08,-0.16,3812.37
657100,810.18,870.81,1.00,1,1,1,315.20,-0.39,3150.20,221.84,-0.65,6495.21,182.05,-0.70,2035.73,163.52,-0.64,2214.89,277.04,-0.16,1039.73
672200,811.20,868.58,1.00,1,1,1,162.55,-1.14,14992.77,122.87,-1.25,9210.88,263.23,-0.61,5538.59,231.17,-0.43,5227.51,314.91,-0.16,2508.75
694500,811.64,866.45,1.00,1,1,1,97.28,-1.37,3184.86,296.65,-0.58,9597.90,289.50,-0.52,1606.50,337.75,-0.30,5073.01,335.72,-0.15,962.43
709000,820.32,862.57,1.00,1,1,1,655.65,-0.42,41657.33,551.29,-0.33,18927.90,294.99,-0.33,3868.06,407.05,-0.24,5035.48,345.45,-0.17,949.27
723900,826.98,861.23,1.00,2,2,2,456.19,-0.20,15631.89,308.26,-0.12,17290.76,483.21,-0.18,13196.08,394.48,-0.19,1613.61,340.32,-0.17,346.26
752500,833.63,860.96,1.00,3,3,3,232.69,-0.04,8024.09,449.71,-0.07,4993.29,545.09,-0.09,2625.18,468.08,-0.14,2683.99,354.74,-0.18,519.90
774100,849.50,859.70,1.00,1,1,1,737.23,-0.08,23370.60,820.74,-0.08,17181.96,482.97,-0.05,3060.94,560.22,-0.09,4376.20,353.13,-0.18,97.60
789900,864.22,858.45,1.00,1,1,1,934.91,-0.08,12514.57,519.51,-0.03,19175.22,646.57,-0.05,10354.47,545.11,-0.08,1151.90,328.28,-0.18,1574.07
820000,873.34,858.93,1.00,1,1,1,303.21,0.05,21125.65,499.42,-0.00,825.72,645.89,-0.03,458.82,494.66,-0.06,1712.95,322.07,-0.19,215.38
833900,886.20,858.38,1.00,1,1,1,926.07,-0.04,44957.02,850.17,-0.02,25250.91,545.33,-0.06,7332.69,481.46,-0.07,1067.09,322.18,-0.17,484.82
848400,897.48,858.36,1.00,1,1,1,777.78,-0.00,10516.94,615.81,-0.12,16848.74,511.97,-0.06,2315.33,373.89,-0.07,7418.96,325.37,-0.14,563.64
863500,904.30,856.22,1.00,1,1,1,473.65,-0.31,23535.13,251.40,-0.17,24165.15,279.04,-0.13,15504.64,247.59,-0.09,8373.69,281.83,-0.10,3012.11
885000,906.55,856.84,1.00,1,1,1,108.72,0.27,18000.73,7.43,-0.57,11376.54,78.24,-0.43,9563.53,227.85,-0.19,1474.71,261.58,-0.10,941.75
900100,904.53,856.07,1.00,1,1,1,143.49,-2.78,16684.30,142.33,-2.99,9799.77,81.25,-3.00,10143.60,136.24,-0.30,6211.92,251.44,-0.10,673.92
915500,902.26,856.20,1.00,1,1,1,147.56,3.08,3962.18,185.92,-3.03,2864.15,102.44,-2.57,2867.95,64.23,-0.66,5145.81,171.56,-0.08,5195.78
930500,898.91,855.46,1.00,1,1,1,228.70,-2.93,6354.21,94.94,-1.90,11290.65,58.04,-2.18,3580.60,27.96,-2.66,5334.08,83.37,-0.04,5887.67
945200,901.35,853.53,1.00,1,1,1,211.88,-0.67,27083.12,146.20,-0.55,10600.88,55.40,-1.00,4303.37,45.93,-2.57,1241.42,26.58,-0.03,3863.27
959700,902.55,853.23,1.00,1,1,1,85.12,-0.24,9581.19,79.70,-0.15,5467.69,34.79,-0.43,2204.10,27.84,-2.47,1274.21,38.56,3.12,4492.72
982100,904.26,853.10,1.00,1,1,1,76.63,-0.08,704.76,54.02,2.46,5764.47,5.85,0.54,1422.70,58.86,-3.12,1805.81,92.17,3.10,2393.86
996700,901.00,854.49,1.00,1,1,1,242.98,2.74,21679.21,92.18,2.90,3371.85,15.21,2.41,1221.51,92.71,2.97,2509.40,83.28,3.09,612.71
1010900,901.68,853.72,1.00,1,1,1,72.32,-0.84,21826.65,35.44,-0.63,8846.67,169.32,2.84,10957.90,166.65,2.90,5244.40,68.51,-3.01,1406.91
1025100,901.81,853.90,1.00,1,1,1,15.05,0.93,5404.06,246.49,2.81,19753.99,220.93,2.93,3859.13,203.94,2.94,2678.76,15.85,-2.19,4147.13
1039800,894.94,856.04,1.00,1,1,1,489.27,2.84,33640.88,415.98,2.90,11708.03,338.53,2.91,8006.56,250.85,2.94,3190.70,46.68,-0.49,3485.28
1062000,886.89,857.51,1.00,1,1,1,368.74,2.96,5912.61,413.13,2.96,1097.47,393.12,2.96,2581.76,140.50,3.00,4991.55,103.93,-0.35,2614.17
1076200,880.15,858.72,1.00,1,1,1,482.55,2.96,8015.42,366.27,3.04,3989.97,322.79,2.99,5005.24,93.02,3.09,3429.26,150.60,-0.30,3318.27
1091100,876.28,858.55,1.00,1,1,1,259.59,-3.10,15873.75,214.17,3.05,10210.21,71.07,-3.11,16997.24,9.48,-1.52,6339.03,194.73,-0.29,2964.26
1106300,873.72,859.28,1.00,1,1,1,175.12,2.86,7179.17,122.20,-0.22,22082.33,108.42,-0.50,11407.36,124.11,-0.31,7967.20,222.99,-0.28,1862.35
1136000,881.63,857.34,1.00,1,1,1,274.26,-0.24,15127.88,288.28,-0.33,5631.98,273.81,-0.24,5775.43,270.91,-0.30,4943.47,238.29,-0.27,522.51
1158500,887.97,854.43,1.00,2,2,2,309.78,-0.43,2910.93,406.52,-0.24,5420.19,435.26,-0.23,7177.23,406.20,-0.28,6018.79,208.50,-0.23,1368.86
1187300,901.88,852.36,1.00,1,1,1,488.55,-0.15,7280.42,616.90,-0.17,7408.73,584.08,-0.26,5201.07,518.66,-0.26,3917.35,151.61,-0.19,1994.95
1201400,914.05,849.95,1.00,1,1,1,879.61,-0.20,27822.83,901.72,-0.28,20983.74,714.94,-0.25,9310.47,586.52,-0.25,4818.87,93.91,-0.11,4149.84
1216000,926.77,845.27,1.00,1,1,1,928.57,-0.35,10293.63,831.40,-0.31,5170.49,879.53,-0.27,11356.12,596.70,-0.24,857.70,27.22,0.43,4920.79
1238700,943.59,840.52,1.00,1,1,1,769.91,-0.28,7557.13,862.16,-0.26,2149.72,802.88,-0.27,3379.11,527.34,-0.20,3224.53,59.42,2.68,3496.40
1252600,957.23,837.03,1.00,1,1,1,1012.99,-0.25,17558.24,768.15,-0.23,7140.89,612.09,-0.22,14007.41,346.09,-0.15,13115.03,129.55,2.91,5251.80
1268000,965.53,835.49,1.00,1,1,1,547.94,-0.18,30376.13,314.77,-0.07,29874.68,276.07,-0.04,22343.47,66.62,0.39,18907.77,161.34,-3.14,3021.40
1282900,966.75,836.40,1.00,1,1,1,101.88,0.64,32502.95,244.74,2.48,35950.27,259.38,2.54,34519.28,272.56,2.70,21556.92,596.70,-0.24,50623.59
1297500,959.81,839.90,1.00,2,2,2,532.29,2.67,40073.38,828.36,2.74,40756.61,788.19,2.76,36838.00,661.41,2.82,26875.12,527.34,-0.20,5013.48
1312000,944.53,845.75,1.00,2,2,2,1128.38,2.78,41471.58,1327.63,2.81,34727.58,1160.70,2.82,26007.11,962.30,2.89,21064.18,346.09,-0.15,12572.34
1327800,921.84,853.16,1.00,2,2,2,1511.25,2.83,24579.02,1424.78,2.85,7406.56,1482.39,2.87,20794.58,1115.31,2.97,11072.54,66.62,0.39,18429.09
1349000,894.00,860.75,1.00,1,1,1,1361.10,2.88,7840.58,1615.76,2.91,9991.42,1608.14,2.94,7816.37,1160.70,2.82,8486.86,272.56,2.70,15150.85
1364000,864.86,866.39,1.00,1,1,1,1978.39,2.95,41956.42,1852.89,3.02,20256.57,1436.62,3.08,18092.17,1482.39,2.87,21903.63,661.41,2.82,26158.45
1378300,840.09,867.16,1.00,1,1,1,1733.40,3.11,26914.44,1285.94,-2.95,51660.93,1852.89,3.02,29768.76,1608.14,2.94,11587.91,962.30,2.89,21358.79
1393700,827.35,859.19,1.00,1,1,1,975.25,-2.58,69529.82,975.25,-2.58,33477.32,1285.94,-2.95,47970.86,1436.62,3.08,17622.25,1115.31,2.97,11360.14
