@RELATION gaze_labels

%@METADATA width_px 1920
%@METADATA height_px 1080
%@METADATA width_mm 540.00
%@METADATA height_mm 254.00
%@METADATA distance_mm 620.00


@ATTRIBUTE time INTEGER
@ATTRIBUTE x NUMERIC
@ATTRIBUTE y NUMERIC
@ATTRIBUTE confidence NUMERIC
@ATTRIBUTE handlabeller1 INTEGER
@ATTRIBUTE handlabeller2 INTEGER
@ATTRIBUTE handlabeller_final INTEGER
@ATTRIBUTE speed_1 numeric
@ATTRIBUTE direction_1 numeric
@ATTRIBUTE acceleration_1 numeric
@ATTRIBUTE speed_2 numeric
@ATTRIBUTE direction_2 numeric
@ATTRIBUTE acceleration_2 numeric
@ATTRIBUTE speed_4 numeric
@ATTRIBUTE direction_4 numeric
@ATTRIBUTE acceleration_4 numeric
@ATTRIBUTE speed_8 numeric
@ATTRIBUTE direction_8 numeric
@ATTRIBUTE acceleration_8 numeric
@ATTRIBUTE speed_16 numeric
@ATTRIBUTE direction_16 numeric
@ATTRIBUTE acceleration_16 numeric

%The number after speed, direction denotes the step size that was used for the calculation.
%Acceleration was calculated between two adjacent samples of the already low pass filtered velocity

@DATA
0,326.06,954.21,1.00,1,1,1,0.00,0.00,0.00,486.24,0.74,0.00,1798.95,3.13,0.00,1363.86,-3.03,0.00,757.45,-3.00,0.00
15900,331.79,959.40,1.00,1,1,1,486.24,0.74,30581.20,1798.95,3.13,137170.16,2449.25,-3.08,41904.14,1127.29,-3.12,16325.49,1070.81,-3.01,19719.75
32200,268.14,954.81,1.00,1,1,1,3915.18,-3.07,264324.50,2449.25,-3.08,40875.82,1363.86,-3.03,66846.42,795.96,-3.11,20328.10,358.75,-3.12,43891.80
48600,251.84,954.70,1.00,1,1,1,993.94,-3.13,178296.76,963.51,-2.80,94360.35,1127.29,-3.12,15827.76,502.51,-2.80,21566.28,1280.51,3.14,56209.46
64100,239.18,944.52,1.00,1,1,1,1048.21,-2.46,43471.40,262.52,0.36,79096.97,795.96,-3.11,21377.29,757.45,-3.00,18274.58,1435.83,-3.14,10023.82
80000,259.55,957.60,1.00,1,1,1,1523.00,0.57,161490.32,737.58,2.76,59593.06,502.51,-2.80,22244.46,1070.81,-3.01,19719.75,1998.81,-3.12,35485.98
96100,217.30,953.37,1.00,1,1,1,2637.76,-3.04,251818.33,1253.17,-2.80,53315.96,156.29,-2.73,21536.17,358.75,-3.12,44437.04,2032.97,3.11,6783.67
112000,221.82,944.02,1.00,1,1,1,653.22,-1.12,184107.90,564.24,-0.79,99135.24,1034.93,-2.92,55466.21,1280.51,3.14,57977.06,1851.35,3.10,11614.53
128100,230.00,940.54,1.00,1,1,1,552.09,-0.40,26932.53,903.12,-3.04,82662.03,11.90,2.52,63789.45,1435.83,-3.14,9650.27,1309.31,3.12,33727.36
160400,178.35,939.44,1.00,2,2,2,1599.39,-3.12,65475.27,395.73,2.36,22337.95,1924.91,3.07,59280.47,1998.81,-3.12,17468.33,1297.18,-3.14,1136.74
176100,216.52,953.92,1.00,2,2,2,2600.29,0.36,263830.31,3519.52,3.00,204551.33,2468.89,3.12,35405.04,2032.97,3.11,6956.51,1134.71,3.13,10389.25
192000,68.21,954.90,1.00,3,3,3,9327.73,3.14,741523.31,5747.85,-3.09,150315.11,3252.37,3.09,49697.64,1851.35,3.10,11614.53,633.67,3.05,31839.77
208200,32.28,944.15,1.00,3,3,3,2315.57,-2.85,441105.76,3015.51,-3.10,168680.97,4056.07,3.12,50024.41,1720.88,3.06,8786.89,422.90,2.95,13367.36
224000,-28.19,950.72,1.00,1,1,1,3849.51,3.03,122596.10,2949.98,3.01,32758.22,1791.07,3.12,143356.14,1492.98,3.07,14434.46,634.09,-3.14,14840.26
256100,-107.85,962.33,1.00,1,1,1,2507.94,3.00,41942.58,1186.06,3.04,54969.88,1106.19,2.96,22514.52,1716.69,3.13,7544.97,486.41,3.08,4740.74
288000,-103.69,958.61,1.00,1,1,1,175.19,-0.73,83253.16,747.85,0.04,60476.90,508.28,3.01,18786.53,178.88,2.52,49302.42,361.93,2.86,4841.37
304100,-71.99,963.74,1.00,1,1,1,1994.79,0.16,117356.94,369.89,-0.02,23548.33,57.43,-2.47,29208.79,378.88,0.39,30963.27,520.87,3.02,10684.01
337500,-85.38,958.29,1.00,2,2,2,432.99,-2.76,72417.33,645.58,-3.01,30325.30,1506.68,0.11,46575.35,389.57,0.07,3576.04,257.96,2.82,8157.74
368000,-112.88,958.33,1.00,1,1,1,901.62,3.14,17272.16,2717.96,0.13,110279.95,1789.78,0.04,9959.49,914.95,0.01,17278.40,443.62,3.10,6847.27
384100,40.20,974.79,1.00,1,1,1,9562.71,0.11,649657.31,6633.84,0.06,243901.07,1677.32,-0.02,9536.27,1306.83,0.09,25013.22,77.78,1.35,28810.15
400100,99.66,971.46,1.00,1,1,1,3722.36,-0.06,370046.79,611.09,-1.25,406350.45,2573.57,0.03,56311.34,802.35,-0.01,32156.65,174.63,0.32,9387.01
416100,46.44,956.26,1.00,1,1,1,3459.19,-2.86,442604.85,1424.71,-2.96,101871.60,1008.99,0.04,97793.54,1302.93,0.04,31434.06,295.33,0.20,7755.54
432800,53.82,963.17,1.00,1,1,1,605.03,0.75,239937.21,1934.52,0.35,200450.17,690.11,-2.94,101425.91,1464.10,0.01,10040.52,568.47,0.02,16914.98
448200,104.82,977.43,1.00,1,1,1,3438.93,0.27,189325.50,83.93,-0.21,121024.87,852.86,0.17,100180.87,263.52,0.13,78124.15,742.39,0.03,11304.24
464100,56.39,962.62,1.00,1,1,1,3185.26,-2.84,416585.50,402.20,-1.94,26678.02,334.85,-0.18,34633.40,132.07,-2.55,24303.43,664.91,0.02,4905.25
480000,100.14,965.53,1.00,1,1,1,2758.15,0.07,371332.65,580.32,-0.18,48313.79,491.10,3.09,51850.26,173.56,0.62,19219.46,756.87,0.06,5997.44
496100,74.67,959.36,1.00,1,1,1,1628.12,-2.90,271507.53,936.37,2.67,93214.20,445.33,-0.02,58155.31,142.13,0.14,5016.20,899.10,0.08,8946.80
511900,73.58,979.20,1.00,1,1,1,1257.19,1.63,141183.35,333.44,0.24,76484.29,559.91,3.04,63573.30,143.10,-0.59,6494.44,190.69,0.06,44839.42
529400,85.46,961.98,1.00,1,1,1,1195.29,-0.97,134895.63,421.43,-2.31,41257.35,84.31,1.68,31362.18,513.39,0.07,23433.53,42.69,-0.73,9341.27
544000,64.50,969.18,1.00,1,1,1,1518.15,2.81,176662.05,261.83,2.80,27499.07,625.26,-0.27,45251.06,217.69,0.15,20342.46,197.49,0.20,11995.58
576000,73.96,966.06,1.00,1,1,1,311.42,-0.32,57173.40,1197.38,-0.06,45328.62,572.24,0.13,7530.78,459.28,0.28,7658.04,103.90,-3.04,9408.27
592000,121.88,965.93,1.00,1,1,1,2994.76,-0.00,168774.78,1743.17,0.03,34982.13,833.06,0.02,16991.50,133.92,-0.05,20957.46,190.00,-3.04,5380.84
608300,130.24,967.71,1.00,1,1,1,524.71,0.21,152418.75,319.31,0.44,89306.09,906.42,0.19,10287.69,136.83,0.04,707.76,56.74,2.51,9346.91
624000,131.13,970.26,1.00,1,1,1,171.85,1.23,29267.92,402.96,0.68,7614.23,368.03,2.71,78027.30,231.95,-0.03,6102.91,599.58,0.05,41057.98
656100,145.26,979.78,1.00,1,1,1,530.62,0.59,12656.17,766.86,2.93,33234.60,224.00,-2.91,7318.87,324.03,-3.03,17275.91,1526.78,0.04,28886.76
672200,95.03,978.19,1.00,2,2,2,3121.52,-3.11,222480.75,827.35,-2.70,32149.67,270.10,-3.05,3591.90,466.63,3.06,10026.28,1837.00,-0.01,20052.37
704100,109.35,962.82,1.00,1,1,1,658.37,-0.82,112517.65,302.89,-0.78,30507.32,1556.51,-2.98,40351.98,550.61,3.08,2654.59,1657.18,0.02,5961.49
720000,105.30,967.98,1.00,1,1,1,412.52,2.24,67293.33,2724.96,-3.11,184986.55,600.95,-3.01,60119.75,912.74,0.03,91946.35,1943.48,0.00,18158.80
736000,22.46,960.08,1.00,1,1,1,5200.85,-3.05,311906.62,1799.32,3.08,59419.27,1058.37,2.99,31795.64,2609.92,-0.00,106127.14,2083.24,0.02,9037.89
752300,47.31,971.84,1.00,2,2,2,1686.58,0.44,417858.12,740.32,0.57,149446.46,2328.19,0.04,206973.91,3545.49,-0.01,57427.09,2156.83,0.01,4664.72
768000,42.46,972.79,1.00,2,2,2,315.12,2.95,124157.65,5106.19,0.02,286133.95,6750.41,0.03,281673.43,3502.95,0.02,8004.37,2645.80,0.01,31147.34
800200,291.87,975.54,1.00,1,1,1,7746.25,0.01,250158.72,10819.65,0.01,177438.60,7706.95,-0.00,30760.76,4032.59,0.00,16582.31,2686.16,0.01,1330.25
816100,562.85,978.88,1.00,1,1,1,17043.78,0.01,584750.72,11626.08,-0.01,53280.40,7135.65,0.00,35947.28,4756.44,0.03,45985.86,2735.24,-0.01,4372.87
832000,661.56,971.31,1.00,2,2,2,6226.40,-0.08,682770.61,1590.44,-0.10,631667.22,6171.37,-0.01,60992.78,5075.37,0.00,21545.44,2911.20,0.00,11301.00
848000,613.31,973.62,1.00,2,2,2,3018.97,3.09,577783.35,785.06,-0.05,50461.20,2258.19,-0.00,244589.19,6189.30,0.01,69643.05,3109.40,0.02,12986.84
864200,686.80,969.97,1.00,2,2,2,4542.11,-0.05,466733.56,2936.45,0.05,133170.49,1813.70,0.01,27514.24,5129.76,0.00,65421.42,3141.05,0.02,2034.89
880000,707.14,978.56,1.00,3,3,3,1397.67,0.40,211304.09,2847.81,0.03,6683.01,5006.69,0.02,202088.69,2891.86,-0.02,141730.83,3041.32,0.01,7021.70
896300,778.16,972.96,1.00,1,1,1,4370.62,-0.08,196013.17,7079.76,0.00,259780.69,4088.58,0.03,56411.02,2120.28,0.03,48021.80,3306.22,-0.01,16381.28
912000,933.70,978.66,1.00,1,1,1,9913.11,0.04,356314.04,5341.14,0.02,111115.80,3522.09,-0.03,38542.34,2667.33,0.03,34862.15,4299.14,0.02,63521.69
928100,947.96,976.99,1.00,1,1,1,892.27,-0.12,561008.73,207.70,-1.60,332646.61,2430.91,0.05,69281.84,2143.47,0.06,32847.33,3844.20,0.01,28391.06
944300,933.52,971.95,1.00,1,1,1,944.56,-2.81,110505.06,497.52,2.91,35641.79,336.77,0.20,129526.92,1334.98,-0.07,51729.73,2854.73,0.02,61095.90
959900,932.58,980.67,1.00,1,1,1,562.41,1.68,77166.34,754.17,0.47,75479.48,255.82,0.56,8540.33,1533.92,-0.03,13376.38,2496.89,0.02,22940.81
976100,954.87,982.88,1.00,1,1,1,1382.57,0.10,92417.67,907.48,0.17,18016.99,438.17,-2.93,42248.37,2410.73,0.05,54961.24,2587.02,-0.01,6652.57
992800,961.99,985.77,1.00,1,1,1,460.74,0.39,56872.43,1214.97,-2.82,126753.01,841.62,-0.21,75079.27,2819.94,0.02,25087.31,2386.63,0.02,12526.25
1024300,899.27,964.49,1.00,2,2,2,2102.88,-2.81,81363.97,874.00,-0.48,61174.81,4077.60,0.04,103795.09,2827.41,0.04,2361.62,2397.79,0.00,1092.61
1040000,998.50,966.55,1.00,3,3,3,6321.64,0.02,531893.50,12064.90,0.08,722176.17,4577.32,-0.00,34087.20,2797.97,0.01,6749.04,2070.15,0.01,20888.25
1056000,1280.38,996.51,1.00,1,1,1,17717.11,0.11,714435.83,8280.12,0.05,237783.91,6087.04,0.06,96275.46,2524.83,-0.03,18364.99,1527.60,0.01,33910.44
1088600,1400.50,984.68,1.00,1,1,1,3702.44,-0.10,432865.05,2178.45,-0.05,187557.37,4777.72,0.05,40199.54,2585.26,-0.01,2747.65,1605.99,0.04,2658.16
1104300,1385.48,991.49,1.00,1,1,1,1050.31,2.72,299941.87,625.97,-3.10,178495.86,1032.52,-0.34,244501.86,3471.41,0.03,57024.09,1579.32,0.02,2214.38
1120100,1380.80,983.82,1.00,1,1,1,568.79,-2.12,71634.99,1106.43,-2.45,45079.88,426.34,-3.06,90690.51,2607.20,0.03,54696.45,1443.54,0.02,8617.04
1136000,1358.36,969.25,1.00,1,1,1,1682.74,-2.57,75191.67,230.66,-2.97,57376.04,242.37,-0.68,39290.17,652.59,-0.13,123637.27,1402.04,-0.01,3806.23
1152000,1373.56,982.53,1.00,1,1,1,1261.47,0.72,183555.78,1287.27,0.31,94759.62,130.03,-2.59,19444.10,105.57,0.79,37116.64,1358.40,-0.01,2734.50
1167900,1397.46,981.79,1.00,1,1,1,1504.16,-0.03,65214.00,95.31,-1.52,82704.05,338.61,0.79,29301.43,202.24,-0.29,11226.32,1629.43,0.03,17413.86
1184000,1373.71,979.49,1.00,1,1,1,1482.14,-3.04,185106.34,748.55,3.02,47851.40,598.01,0.31,20898.03,68.85,2.71,16807.58,1315.20,0.04,19553.27
1200000,1373.60,984.65,1.00,1,1,1,322.97,1.59,96295.51,1223.93,0.38,119609.10,198.46,0.08,25447.73,165.00,0.32,13772.33,380.75,-0.15,59016.13
1216000,1410.01,994.20,1.00,1,1,1,2352.17,0.26,143641.86,825.13,-0.04,36345.03,108.35,1.79,14947.18,12.69,-1.27,10356.75,109.01,0.03,17143.52
1248200,1413.34,983.09,1.00,1,1,1,360.15,-1.28,73507.57,803.47,-2.98,50322.50,134.44,-0.82,7287.17,208.24,-2.97,6530.47,105.61,-2.67,6501.07
1264200,1371.79,987.96,1.00,1,1,1,2615.15,3.02,173621.12,1039.47,-2.95,14856.95,477.90,-2.78,33953.78,26.06,0.51,14561.69,1234.64,-3.03,71042.53
1280000,1380.90,976.75,1.00,1,1,1,914.36,-0.89,210904.38,235.58,-1.26,69168.77,719.46,-3.00,17269.06,110.69,-0.31,6003.39,1493.66,-3.06,16567.29
1296200,1374.10,980.79,1.00,1,1,1,488.02,2.61,85350.96,406.46,-3.13,32558.28,132.19,-0.91,49002.93,151.56,-0.40,2633.32,1522.10,-3.05,2101.35
1312000,1367.90,976.66,1.00,1,1,1,471.90,-2.55,32352.99,92.17,0.18,31485.65,131.85,0.37,9934.48,419.02,-3.05,35262.31,1627.24,-3.04,6730.97
1328000,1376.98,981.32,1.00,1,1,1,638.48,0.47,69290.42,658.21,0.15,35381.83,879.28,0.09,47093.24,2408.04,-3.02,124333.13,1738.70,-3.04,6989.64
1344100,1388.79,979.78,1.00,2,2,2,739.54,-0.13,26135.52,1659.49,0.08,62348.55,126.56,2.93,62175.28,3143.25,-3.05,45953.30,2115.93,-3.08,23831.07
1360100,1430.08,985.59,1.00,2,2,2,2606.13,0.14,118965.82,902.05,-3.09,160079.34,4368.91,-3.04,265543.42,2898.88,-3.05,15290.89,2302.42,-3.07,11687.12
1376100,1359.96,978.35,1.00,2,2,2,4405.90,-3.04,438182.44,8358.60,-3.04,466114.93,5753.79,-3.04,86566.87,2904.89,-3.04,1789.52,2474.07,-3.08,10847.00
1408600,1026.72,945.09,1.00,2,2,2,10304.56,-3.04,181498.66,8968.96,-3.04,18785.52,5418.97,-3.05,10424.72,3326.03,-3.04,12959.28,2245.73,-3.09,7029.65
1424400,929.00,934.34,1.00,2,2,2,6221.93,-3.03,258444.47,2407.06,-3.09,415582.80,4764.09,-3.04,41746.23,3931.87,-3.09,39870.20,2365.78,-3.10,7878.73
1455900,913.01,939.33,1.00,2,2,2,531.75,2.84,182177.00,507.08,-2.98,60433.80,2266.07,-3.04,79305.94,4299.51,-3.09,11672.54,2392.10,-3.11,1006.58
1472100,905.11,930.54,1.00,2,2,2,729.26,-2.30,43272.18,2068.22,-2.96,96374.89,2419.44,3.10,21534.43,3968.49,-3.09,20433.38,2904.89,-3.04,33478.44
1487900,847.87,927.64,1.00,1,1,1,3627.80,-3.09,199755.85,4326.47,3.08,149757.64,2972.87,3.12,35136.33,2109.43,3.12,118413.21,3326.03,-3.04,26656.75
1520200,697.37,942.84,1.00,1,1,1,4682.97,3.04,37941.12,3611.72,3.05,22567.42,3033.20,3.10,2582.95,1673.90,3.09,13626.50,3931.87,-3.09,19503.07
1536000,674.93,944.17,1.00,1,1,1,1422.83,3.08,206448.49,1085.87,-3.06,161344.06,1986.03,2.99,68388.08,1846.43,3.07,11056.51,4299.51,-3.09,23271.21
1552000,662.95,940.12,1.00,1,1,1,790.56,-2.82,46971.91,533.55,0.42,99924.06,559.27,2.99,89172.87,3033.20,3.10,74286.60,3968.49,-3.09,20688.80
1568000,690.53,951.12,1.00,1,1,1,1855.70,0.38,165341.75,252.38,1.68,32310.48,481.86,2.71,10447.90,1986.03,2.99,67533.23,2109.43,3.12,116933.05
1584100,662.04,948.17,1.00,1,1,1,1779.20,-3.04,223618.98,1362.84,3.00,82137.77,252.38,1.68,25528.43,559.27,2.99,88619.00,1673.90,3.09,27337.63
1600400,646.81,957.28,1.00,1,1,1,1088.84,2.60,68549.76,1088.84,2.60,34063.31,1362.84,3.00,81129.94,481.86,2.71,10255.60,1846.43,3.07,10717.35
