@RELATION gaze_labels

%@METADATA width_px 1920
%@METADATA height_px 1080
%@METADATA width_mm 540.00
%@METADATA height_mm 254.00
%@METADATA distance_mm 620.00


@ATTRIBUTE time INTEGER
@ATTRIBUTE x NUMERIC
@ATTRIBUTE y NUMERIC
@ATTRIBUTE confidence NUMERIC
@ATTRIBUTE handlabeller1 INTEGER
@ATTRIBUTE handlabeller2 INTEGER
@ATTRIBUTE handlabeller_final INTEGER
@ATTRIBUTE speed_1 numeric
@ATTRIBUTE direction_1 numeric
@ATTRIBUTE acceleration_1 numeric
@ATTRIBUTE speed_2 numeric
@ATTRIBUTE direction_2 numeric
@ATTRIBUTE acceleration_2 numeric
@ATTRIBUTE speed_4 numeric
@ATTRIBUTE direction_4 numeric
@ATTRIBUTE acceleration_4 numeric
@ATTRIBUTE speed_8 numeric
@ATTRIBUTE direction_8 numeric
@ATTRIBUTE acceleration_8 numeric
@ATTRIBUTE speed_16 numeric
@ATTRIBUTE direction_16 numeric
@ATTRIBUTE acceleration_16 numeric

%The number after speed, direction denotes the step size that was used for the calculation.
%Acceleration was calculated between two adjacent samples of the already low pass filtered velocity

@DATA
0,192.09,952.60,1.00,1,1,1,0.00,0.00,0.00,1114.14,0.05,0.00,560.55,0.05,0.00,371.43,2.71,0.00,72.02,-2.79,0.00
16100,210.00,953.48,1.00,1,1,1,1114.14,0.05,69201.23,560.55,0.05,34384.36,2060.54,3.06,162553.09,684.07,-2.88,28825.38,169.65,3.00,6955.92
32000,210.00,953.48,1.00,1,1,1,0.00,0.00,70071.69,2060.54,3.06,164597.78,371.43,2.71,107913.35,1068.87,-3.03,25551.73,428.62,-2.92,17430.91
48200,144.10,959.14,1.00,1,1,1,4082.93,3.06,252032.82,1269.46,2.92,50789.83,684.07,-2.88,28647.44,220.57,-3.00,52375.84,723.86,-0.11,70196.61
63900,170.53,962.54,1.00,1,1,1,1697.44,0.13,366436.06,916.56,-0.62,136579.04,1068.87,-3.03,25877.23,72.02,-2.79,9610.17,778.42,-0.27,8213.91
80000,167.78,942.15,1.00,1,1,1,1277.97,-1.70,147483.96,1021.10,-2.76,105555.78,220.57,-3.00,52701.16,169.65,3.00,6955.92,980.14,-0.21,12918.09
112500,124.47,944.07,1.00,1,1,1,1333.90,3.10,54233.92,905.85,2.80,21112.49,224.64,-0.85,12023.20,428.62,-2.92,8527.74,1537.06,-0.10,17628.05
128100,126.67,956.57,1.00,1,1,1,813.48,1.40,105740.44,1844.47,0.08,172852.79,225.63,0.78,21050.63,723.86,-0.11,72896.48,1504.07,-0.10,2118.25
144000,182.37,948.99,1.00,1,1,1,3535.46,-0.14,226247.00,1179.54,0.01,42318.98,246.25,-0.30,15295.51,778.42,-0.27,8110.59,180.61,-0.29,83456.70
176000,183.16,957.41,1.00,2,2,2,264.33,1.48,111131.21,848.18,-2.88,62882.16,1660.62,-0.08,44412.28,980.14,-0.21,6499.42,242.63,-0.28,1938.69
191900,143.16,938.33,1.00,2,2,2,2787.20,-2.70,184383.45,2392.29,-0.15,200419.80,1366.01,-0.18,20841.20,1537.06,-0.10,36032.17,64.10,-0.52,11385.10
208100,259.09,945.92,1.00,3,3,3,7171.19,0.07,605822.71,4453.23,-0.06,128431.21,2275.26,-0.34,58617.02,1504.07,-0.10,2039.79,65.78,-0.40,489.89
225300,291.61,928.99,1.00,3,3,3,2131.46,-0.48,317552.01,2243.75,-0.53,154486.88,3142.34,-0.08,63841.06,421.16,-0.19,63074.37,93.03,-2.74,8517.31
240400,321.47,909.02,1.00,3,3,3,2378.87,-0.59,23131.16,1720.27,-0.14,61269.69,1309.29,-0.14,121642.54,756.66,-0.24,22319.75,155.86,2.98,6087.05
256000,343.88,921.44,1.00,3,3,3,1642.59,0.51,140174.32,1025.02,0.89,95195.97,805.96,2.97,135575.22,648.39,0.07,15694.93,47.01,1.59,9911.58
271900,341.78,934.12,1.00,3,3,3,807.81,1.73,98643.25,3236.77,2.98,242236.30,802.85,2.63,17113.39,763.52,3.08,88609.44,294.26,-3.12,18754.25
287900,241.92,937.77,1.00,1,1,1,6245.34,3.11,383486.01,2021.55,3.14,80068.38,1875.98,2.95,71473.10,1042.72,2.99,18185.61,444.82,3.11,9474.53
303900,277.09,934.12,1.00,1,1,1,2209.86,-0.10,528222.14,535.76,2.75,96196.35,2821.04,3.04,60591.19,1423.55,2.94,24093.06,220.09,-3.03,14306.92
320000,226.01,944.28,1.00,1,1,1,3235.17,2.95,337847.96,3630.34,2.99,193300.87,1228.01,3.00,99065.03,1545.74,2.98,8334.35,344.14,2.89,9829.82
336100,161.53,951.73,1.00,1,1,1,4031.45,3.03,52717.01,1704.31,3.05,120034.01,1956.04,3.04,45379.55,2084.28,3.07,35062.86,613.38,3.11,17798.79
368000,144.51,951.43,1.00,1,1,1,533.50,-3.12,109822.64,845.41,-3.09,27408.16,1282.86,3.01,21156.03,1306.00,3.06,24402.42,745.49,3.04,4414.79
384100,121.00,949.75,1.00,1,1,1,1464.29,-3.07,57887.79,661.93,2.85,19542.56,1495.37,3.12,15974.31,1065.02,3.03,15119.26,750.74,2.94,4554.10
400000,124.25,957.58,1.00,1,1,1,533.07,1.18,111222.07,2475.56,3.08,115568.44,1409.60,3.13,5533.23,1208.55,3.04,9055.50,839.49,3.00,6454.65
416100,41.94,954.76,1.00,1,1,1,5115.13,-3.11,332796.31,2191.34,-3.07,26402.03,40.48,0.37,89892.69,493.59,3.14,44650.53,858.03,3.03,1984.27
432000,54.31,952.50,1.00,1,1,1,790.69,-0.18,370440.88,2480.62,-0.05,293286.06,1118.42,3.09,72674.13,454.55,3.14,2455.12,534.13,3.00,20417.13
449000,123.45,950.70,1.00,1,1,1,4068.69,-0.03,193512.63,277.59,1.81,151328.73,511.60,-0.07,95878.44,148.39,2.92,18334.15,575.58,2.99,2494.78
464500,52.20,961.27,1.00,2,2,2,4647.11,2.99,561280.67,870.14,3.12,54331.30,309.68,-0.04,13051.39,211.06,-3.12,4954.98,376.28,2.90,13095.76
495900,82.66,951.77,1.00,1,1,1,1016.03,-0.30,180035.36,602.04,-0.35,46290.01,272.35,2.97,18498.91,257.62,0.18,14882.69,415.08,3.03,2022.88
512000,79.06,951.45,1.00,1,1,1,224.22,-3.05,76174.80,318.07,0.22,23275.77,397.37,-0.12,41585.32,174.44,0.29,5356.26,95.98,2.42,21154.70
544600,97.79,955.08,1.00,1,1,1,585.15,0.19,24799.88,252.75,0.44,2781.05,129.26,1.59,13332.12,138.09,2.64,8857.11,213.44,2.97,4302.05
561000,90.28,956.71,1.00,1,1,1,468.57,2.93,62959.39,538.97,2.71,44417.32,114.57,1.35,2003.71,397.88,0.16,31327.44,229.74,-2.99,4501.65
575900,82.45,962.11,1.00,1,1,1,638.20,2.54,18246.44,319.66,2.76,14779.62,141.54,0.77,5229.15,344.14,2.87,48662.69,162.86,0.19,26344.04
592000,81.08,960.39,1.00,1,1,1,136.11,-2.25,39937.48,681.49,-0.04,61384.43,454.03,0.54,19743.37,296.85,0.42,37510.72,244.04,0.25,5085.42
607900,104.24,961.30,1.00,1,1,1,1457.86,0.04,97510.77,1109.64,0.31,32977.20,662.12,3.06,66981.09,286.63,3.00,35264.29,171.84,2.80,25083.67
624000,114.86,971.32,1.00,1,1,1,907.20,0.76,60708.43,1553.81,3.07,162503.58,533.55,0.24,73302.44,254.38,-2.87,7188.68,116.25,0.04,17580.93
656100,29.53,966.49,1.00,1,1,1,2662.69,-3.08,106140.15,160.27,-0.09,53396.66,588.66,-3.14,34716.98,57.98,0.25,9730.75,247.42,2.96,11268.40
672000,122.52,970.61,1.00,1,1,1,5854.48,0.04,535662.68,885.30,-0.19,45662.99,804.42,-2.76,21282.96,320.41,0.22,16507.34,537.44,3.06,18375.84
687900,57.15,961.05,1.00,1,1,1,4155.35,-3.00,628769.84,2222.66,-2.80,189898.93,954.05,-0.04,108136.56,208.43,2.91,32458.67,650.44,3.11,7381.07
704100,55.18,947.03,1.00,1,1,1,873.39,-1.71,246847.69,1041.73,0.09,200218.00,64.81,0.01,54896.64,168.20,-2.82,6738.41,508.09,3.07,8897.72
720100,90.54,964.20,1.00,1,1,1,2456.59,0.45,189462.60,2205.53,0.32,75769.05,206.54,0.49,9513.88,145.54,-3.08,2861.85,610.74,3.10,6465.71
738300,126.82,970.65,1.00,1,1,1,2024.47,0.18,41203.64,404.09,2.90,140451.06,470.94,0.43,14563.27,1433.82,-3.11,70790.34,529.20,-3.14,4707.30
768100,71.73,968.91,1.00,2,2,2,1849.60,-3.11,129663.98,838.20,-2.94,16970.60,1026.41,3.13,49172.93,1011.73,-3.14,14196.11,590.25,-3.08,2293.72
784000,89.31,962.89,1.00,3,3,3,1168.76,-0.33,186897.35,1987.36,-3.08,73221.67,2714.20,-3.11,106231.47,751.83,2.97,18878.19,538.19,-3.10,3302.35
799900,8.64,965.15,1.00,1,1,1,5075.41,3.11,390003.26,5424.51,3.13,216662.79,2485.53,-3.09,14950.01,1211.60,3.11,30043.89,42.11,0.35,36382.38
815900,-83.72,964.80,1.00,1,1,1,5772.80,-3.14,44899.80,2961.32,-3.09,154670.24,1910.38,3.11,37576.60,1239.74,-3.09,6440.67,1178.58,-0.01,71208.43
833200,-89.85,960.37,1.00,1,1,1,437.23,-2.52,313489.50,428.74,0.11,195913.31,1396.46,3.09,29760.57,980.87,-3.02,15571.25,2385.07,0.01,69779.03
863900,-63.27,967.10,1.00,1,1,1,893.19,0.25,42657.43,354.48,2.49,23714.43,68.04,-2.34,44055.03,915.38,3.14,4321.75,2347.17,0.04,2425.01
880000,-103.09,970.37,1.00,1,1,1,2481.67,3.06,207407.60,539.62,-2.87,26721.78,114.82,-1.11,6983.18,208.50,0.17,69640.20,2418.37,0.02,5373.28
912000,-88.27,960.10,1.00,2,2,2,563.69,-0.61,93221.81,549.82,-0.83,29006.77,86.64,-0.52,2002.98,3525.92,0.00,103770.20,2291.58,-0.01,4300.05
928900,-84.93,950.55,1.00,2,2,2,598.49,-1.23,21341.78,972.76,0.11,46593.86,1805.76,0.00,102442.22,5489.17,0.01,116187.20,2407.44,0.00,6997.24
944100,-57.24,963.65,1.00,2,2,2,2014.76,0.44,142186.55,4105.66,0.16,206198.78,8891.73,0.01,466184.90,5422.86,0.01,4362.51,2511.20,0.02,7099.85
960100,41.55,970.89,1.00,3,3,3,6190.92,0.07,273272.72,16865.94,0.00,801598.82,13712.48,0.02,301395.12,6044.89,0.01,38885.10,3411.36,0.02,56262.58
976000,480.78,965.76,1.00,1,1,1,27626.37,-0.01,1349943.45,23094.63,-0.00,391829.23,10777.73,0.01,184662.75,6549.52,0.01,31737.68,4132.10,0.01,45360.02
992200,782.88,968.85,1.00,1,1,1,18649.46,0.01,554978.06,6749.80,0.03,1009252.17,10294.65,0.01,30042.44,6209.17,0.02,22106.89,4184.26,0.02,3438.45
1024200,805.97,975.45,1.00,1,1,1,750.51,0.28,560216.38,1707.99,0.11,157765.20,4675.83,0.00,175592.60,6323.33,0.01,4197.57,4430.48,0.02,7694.38
1040000,864.06,977.51,1.00,1,1,1,3678.95,0.04,187092.32,1561.54,-0.18,30749.58,259.90,0.16,279717.59,6977.33,0.01,41396.47,4484.50,0.01,3559.05
1056000,854.84,966.64,1.00,2,2,2,890.67,-2.27,270580.33,1904.66,-3.06,214760.05,730.94,0.00,29766.51,4806.01,0.02,135730.72,4633.60,0.02,9375.51
1072000,803.34,972.24,1.00,2,2,2,3237.72,3.03,177233.77,288.11,1.82,117551.44,2843.79,0.04,132103.76,2741.98,0.03,129033.52,4572.18,0.02,4081.77
1088000,852.61,975.59,1.00,1,1,1,3086.07,0.07,393707.07,7576.12,0.05,477247.94,4970.79,0.04,132937.98,3187.34,0.03,27834.85,4416.39,0.02,9834.27
1104100,1046.18,985.44,1.00,1,1,1,12038.63,0.05,556096.43,9987.45,0.02,151219.65,5839.73,0.03,54271.53,2536.14,0.03,40447.18,3876.90,0.01,33536.98
1120100,1173.16,980.60,1.00,1,1,1,7942.41,-0.04,261716.99,4100.69,-0.02,368269.32,5632.63,0.04,13513.19,2479.79,0.05,4291.03,2458.38,0.03,88701.54
1136000,1176.95,982.26,1.00,1,1,1,259.91,0.41,484854.85,1285.60,0.21,180231.87,2228.39,0.02,214142.77,2742.13,0.02,17304.85,1285.25,0.03,73782.41
1152100,1213.40,989.16,1.00,1,1,1,2304.36,0.19,127440.60,411.60,0.46,55479.15,29.85,2.31,139635.20,2509.64,0.03,14554.34,1200.64,0.03,5255.76
1168100,1188.77,988.16,1.00,1,1,1,1540.88,-3.10,239706.64,1320.71,-2.97,107429.72,360.09,-2.96,21582.07,774.53,-0.01,108496.88,1179.27,0.02,1421.94
1184000,1171.88,982.01,1.00,1,1,1,1130.24,-2.79,36306.88,1126.21,-2.86,15031.54,44.44,-1.51,22470.37,107.03,0.25,42252.92,1232.99,0.06,4473.01
1200000,1154.29,978.08,1.00,1,1,1,1126.92,-2.92,9119.20,874.27,0.09,124426.74,392.87,-3.02,24520.85,26.73,-2.65,8323.43,1176.86,0.04,3942.95
1231900,1213.60,985.62,1.00,1,1,1,1874.48,0.13,93991.34,145.80,1.07,25178.00,204.92,0.15,18737.94,387.69,-3.08,11394.84,1242.63,0.03,2062.67
1248000,1157.63,984.23,1.00,1,1,1,3478.01,-3.12,332061.85,801.90,-3.10,55033.43,198.03,0.11,623.24,95.10,-0.22,29799.08,367.91,-0.26,55737.45
1263800,1188.05,984.47,1.00,1,1,1,1925.64,0.01,341991.06,334.36,-0.25,71262.94,774.41,-3.14,61489.33,236.87,0.16,9657.92,376.03,-2.80,44926.09
1296000,1173.17,980.25,1.00,1,1,1,480.22,-2.87,74286.92,756.94,3.12,33700.66,574.91,0.01,41904.25,85.93,2.65,9612.91,639.93,-2.85,8241.14
1312100,1151.50,985.22,1.00,1,1,1,1381.23,2.92,61338.04,962.18,0.15,106391.92,268.68,0.17,19385.04,29.31,2.53,3535.10,882.22,-2.87,15064.65
1328000,1203.61,984.87,1.00,1,1,1,3277.85,-0.01,291564.88,1814.08,0.05,54239.05,488.40,3.00,47104.34,175.09,-1.69,11985.33,905.54,-2.88,1581.66
1344000,1209.30,988.06,1.00,1,1,1,407.16,0.51,183183.32,1914.18,-3.14,232958.37,920.25,0.05,87691.24,808.71,-2.81,46767.38,1128.95,-2.94,14562.40
1360100,1142.17,984.60,1.00,2,2,2,4174.94,-3.09,282204.12,26.48,-0.02,120537.38,710.91,-2.62,98516.86,1322.35,-2.86,32066.03,1276.50,-2.99,9750.12
1375900,1210.14,988.04,1.00,2,2,2,4307.53,0.05,536865.42,637.71,-1.17,39696.68,1884.23,-2.83,75865.40,1444.00,-2.81,8945.54,1687.02,-3.03,26241.51
1408200,1154.22,956.39,1.00,2,2,2,1989.25,-2.63,190432.11,3147.83,-2.83,101252.00,2033.28,-2.78,5615.57,2006.00,-2.90,18138.26,1631.21,-3.03,1754.47
1424100,1065.60,941.90,1.00,2,2,2,5647.70,-2.98,241703.17,5247.23,-2.96,136191.70,3301.15,-2.87,81088.16,2493.76,-2.95,31311.79,1866.91,-3.05,14897.62
1439900,990.52,926.89,1.00,2,2,2,4845.85,-2.94,52076.13,3539.18,-2.92,108862.31,3680.99,-2.97,32981.67,2485.72,-2.97,3221.14,2044.27,-3.08,11827.72
1456100,955.21,916.60,1.00,2,2,2,2270.47,-2.86,159951.14,2129.93,-2.99,87858.73,3124.50,-3.02,35709.42,3185.60,-3.02,44245.12,1444.00,-2.81,46907.50
1471900,923.16,916.53,1.00,2,2,2,2028.67,-3.14,41053.51,2869.99,-3.10,49977.36,2996.39,-3.09,17049.61,3409.38,-3.09,19912.58,2006.00,-2.90,37080.11
1504100,817.57,910.93,1.00,2,2,2,3283.80,-3.09,39191.29,3582.67,-3.14,22423.31,3150.10,3.10,9801.82,3078.19,-3.12,10646.68,2493.76,-2.95,15461.41
1520100,750.47,915.66,1.00,2,2,2,4203.68,3.07,64223.09,3606.67,3.00,33519.87,3232.62,3.09,5714.01,2812.36,3.10,20277.75,2485.72,-2.97,3180.87
1535900,704.06,927.40,1.00,1,1,1,3029.98,2.89,84393.94,2733.16,2.97,55627.44,3064.23,3.04,14154.58,3150.10,3.10,21393.21,3185.60,-3.02,45365.25
1552000,664.62,930.85,1.00,1,1,1,2459.26,3.05,44704.34,2536.09,3.10,24815.03,2614.41,2.98,29817.98,3232.62,3.09,5678.52,3409.38,-3.09,19541.54
1568100,622.48,930.91,1.00,1,1,1,2617.55,3.14,16671.40,2496.20,3.00,16320.63,2536.09,3.10,19530.75,3064.23,3.04,13890.83,3078.19,-3.12,21293.37
1583900,585.84,942.45,1.00,1,1,1,2431.00,2.84,49693.58,2431.00,2.84,25080.46,2496.20,3.00,16630.52,2614.41,2.98,30384.14,2812.36,3.10,20534.43
