@RELATION gaze_labels

%@METADATA width_px 1920
%@METADATA height_px 1080
%@METADATA width_mm 540.00
%@METADATA height_mm 254.00
%@METADATA distance_mm 620.00


@ATTRIBUTE time INTEGER
@ATTRIBUTE x NUMERIC
@ATTRIBUTE y NUMERIC
@ATTRIBUTE confidence NUMERIC
@ATTRIBUTE handlabeller1 INTEGER
@ATTRIBUTE handlabeller2 INTEGER
@ATTRIBUTE handlabeller_final INTEGER
@ATTRIBUTE speed_1 numeric
@ATTRIBUTE direction_1 numeric
@ATTRIBUTE acceleration_1 numeric
@ATTRIBUTE speed_2 numeric
@ATTRIBUTE direction_2 numeric
@ATTRIBUTE acceleration_2 numeric
@ATTRIBUTE speed_4 numeric
@ATTRIBUTE direction_4 numeric
@ATTRIBUTE acceleration_4 numeric
@ATTRIBUTE speed_8 numeric
@ATTRIBUTE direction_8 numeric
@ATTRIBUTE acceleration_8 numeric
@ATTRIBUTE speed_16 numeric
@ATTRIBUTE direction_16 numeric
@ATTRIBUTE acceleration_16 numeric

%The number after speed, direction denotes the step size that was used for the calculation.
%Acceleration was calculated between two adjacent samples of the already low pass filtered velocity

@DATA
0,580.82,849.42,1.00,1,1,1,0.00,0.00,0.00,1197.84,-3.04,0.00,1000.36,3.02,0.00,1077.84,3.11,0.00,523.61,3.10,0.00
14700,563.31,847.62,1.00,1,1,1,1197.84,-3.04,81486.04,1000.36,3.02,21347.36,209.53,2.46,56527.35,937.56,0.02,137047.84,39.27,1.82,34929.36
36100,544.97,853.77,1.00,1,1,1,903.68,2.82,24736.67,209.53,2.46,38829.53,1077.84,3.11,43004.03,2002.23,-0.10,50398.41,791.36,-0.01,37497.17
50300,557.53,852.34,1.00,1,1,1,890.18,-0.11,125630.16,1182.03,-3.08,73078.20,937.56,0.02,141873.47,867.65,3.13,201924.88,365.44,-0.11,30257.59
65700,510.05,851.70,1.00,1,1,1,3083.81,-3.13,257690.41,2206.51,-0.05,219751.52,2002.23,-0.10,70034.15,523.61,3.10,22391.49,362.37,0.01,2859.97
81200,625.64,849.11,1.00,1,1,1,7459.35,-0.02,680113.19,5153.36,-0.07,190159.09,867.65,3.13,184989.24,39.27,1.82,33126.56,365.72,-3.08,46957.62
95500,663.29,841.67,1.00,1,1,1,2683.87,-0.20,338283.69,4142.53,3.11,649968.28,29.47,0.42,62554.78,791.36,-0.01,56114.65,1299.70,3.09,65537.52
110200,505.56,852.87,1.00,1,1,1,10756.64,3.07,913193.18,4171.61,3.07,11504.37,957.04,3.09,66893.74,365.44,-0.11,29228.42,1724.53,0.03,205560.84
131900,511.83,852.50,1.00,1,1,1,289.24,-0.06,509025.75,1500.95,-0.00,261290.52,317.09,2.59,32024.99,362.37,0.01,2029.66,767.30,0.05,44131.71
147800,562.00,852.68,1.00,1,1,1,3155.37,0.00,180299.62,4328.82,0.00,177855.78,1469.17,-0.06,110366.99,365.72,-3.08,45776.30,732.24,0.04,2280.85
162700,645.16,852.86,1.00,1,1,1,5581.02,0.00,162795.89,1435.33,-0.13,195543.25,730.67,-0.01,49676.40,1299.70,3.09,62898.42,1013.42,0.01,18965.93
177000,603.53,847.06,1.00,1,1,1,2938.85,-3.00,594546.15,3026.27,-3.13,311293.64,319.27,-0.34,30776.20,1724.53,0.03,211310.80,945.44,0.00,4777.96
192200,555.89,852.00,1.00,2,2,2,3151.47,3.04,50259.31,797.30,-3.12,146651.20,2470.85,-3.13,182417.68,1964.68,0.03,15799.16,872.88,0.03,5036.71
206800,579.78,846.47,1.00,2,2,2,1680.01,-0.23,330342.92,1913.67,-3.12,76464.11,1940.08,0.08,301959.00,1433.24,0.01,36433.84,722.52,0.01,10334.83
221600,499.64,850.61,1.00,2,2,2,5422.12,3.09,478533.31,3505.19,0.07,366038.77,2875.96,0.04,63644.87,1193.77,0.02,16181.50,362.13,0.07,24433.08
258900,761.90,859.91,1.00,1,1,1,7035.64,0.04,333676.41,5568.36,0.03,55516.23,2253.15,0.05,16724.58,1416.44,0.02,5976.39,1056.00,-0.01,18653.88
273900,790.70,860.40,1.00,1,1,1,1920.01,0.02,341072.10,156.36,-1.19,367784.65,3416.69,0.02,77823.65,1266.25,0.03,10035.17,1033.61,0.03,3395.58
288500,763.63,855.62,1.00,1,1,1,1882.53,-2.97,259636.74,913.25,-0.11,58233.40,855.83,-0.12,176091.84,1554.18,0.02,19755.52,858.03,0.03,12030.72
318700,831.36,855.84,1.00,1,1,1,2242.55,0.00,136093.21,1368.96,-0.05,15251.52,328.03,-3.07,39066.80,1640.83,-0.01,3178.42,347.46,0.11,16961.10
333800,825.57,852.40,1.00,1,1,1,446.01,-2.61,174616.21,1796.16,3.10,209607.08,866.47,-0.06,78981.58,361.64,-0.23,85452.40,523.39,0.05,11793.19
356400,763.70,858.58,1.00,1,1,1,2751.02,3.04,106475.56,256.46,-0.10,90806.41,961.21,-3.03,80590.41,93.95,0.05,12057.18,847.75,0.06,14362.73
371100,835.08,851.45,1.00,1,1,1,4880.19,-0.10,519129.90,367.28,-1.16,22420.61,217.97,-2.86,50831.77,287.38,0.13,13191.53,954.73,0.06,7277.63
385100,767.91,848.92,1.00,2,2,2,4801.48,-3.10,689920.69,814.15,-3.01,70166.70,692.10,0.06,64731.56,653.91,3.05,66866.50,1068.75,0.03,8531.67
400100,811.67,848.45,1.00,2,2,2,2917.12,-0.01,514431.83,1287.79,0.33,139476.60,554.95,2.84,81801.28,531.08,3.12,8648.49,175.71,0.07,59546.40
414600,803.90,861.07,1.00,2,2,2,1021.98,2.12,246074.37,497.27,2.12,102109.83,413.56,2.56,13367.40,304.24,0.24,57135.57,104.36,0.09,4924.48
429900,803.90,861.07,1.00,1,1,1,0.00,0.00,66796.09,1600.96,3.09,90388.31,854.81,3.04,34248.28,193.94,0.55,8694.28,41.11,1.06,5743.03
451500,744.89,863.89,1.00,1,1,1,2734.98,3.09,126619.28,1342.80,-3.00,17677.05,111.66,2.02,37132.48,336.20,0.25,7461.06,109.10,2.75,5615.71
466700,755.00,853.96,1.00,1,1,1,932.25,-0.78,229349.74,1862.36,0.07,210722.87,780.59,0.06,54593.52,104.79,1.59,21551.86,111.51,2.77,210.34
481500,800.63,867.79,1.00,1,1,1,3221.36,0.29,195443.06,3399.73,0.10,104013.76,1076.58,-0.07,21505.39,114.31,0.12,9921.13,125.88,0.24,15309.95
496500,855.80,864.20,1.00,1,1,1,3685.51,-0.06,87706.38,394.37,-0.78,210941.07,764.78,0.16,25026.64,234.98,3.00,23112.50,126.38,0.47,1987.03
511100,808.91,859.56,1.00,1,1,1,3226.82,-3.04,471872.88,985.76,-3.12,88441.18,252.61,-0.23,36989.20,415.91,0.06,44381.71,280.76,0.25,10979.32
541500,811.45,863.27,1.00,1,1,1,147.59,0.97,109331.23,236.71,0.29,39989.12,1060.68,3.12,43055.46,307.53,0.22,4056.33,166.92,0.58,4422.75
563500,820.80,863.09,1.00,1,1,1,425.43,-0.02,16627.14,1155.49,3.08,62728.39,112.72,2.18,45398.67,11.10,-2.77,14477.61,312.56,0.08,8361.93
577900,769.47,865.98,1.00,1,1,1,3570.21,3.09,277456.10,597.39,2.91,39945.41,218.12,3.13,12410.64,75.80,0.32,6033.85,186.97,0.28,9331.41
593000,803.66,867.15,1.00,1,1,1,2264.95,0.03,386059.24,951.55,-0.09,102344.57,274.47,2.96,4678.80,241.58,0.24,11006.26,378.74,-0.01,13680.05
607100,797.14,863.39,1.00,2,2,2,533.79,-2.62,194857.91,91.50,-3.14,73947.51,1197.55,0.02,104066.83,274.02,0.29,2521.53,203.37,0.23,13337.96
644500,798.94,867.13,1.00,1,1,1,111.21,1.12,16813.27,1338.75,0.07,38237.49,489.83,0.05,18933.95,501.04,0.07,6453.36,94.57,0.02,3012.27
659800,867.53,868.14,1.00,1,1,1,4483.31,0.01,289850.14,1157.99,0.05,11910.43,599.42,0.22,9293.47,573.14,0.12,5002.25,97.51,-2.99,12527.92
689300,850.76,869.67,1.00,1,1,1,570.89,3.05,171233.01,344.81,2.59,49364.23,1323.43,0.02,25307.25,346.97,-0.08,8257.43,203.15,0.28,10174.36
704800,854.28,876.21,1.00,1,1,1,479.38,1.08,56620.18,1565.19,-0.02,120718.46,164.45,2.37,93173.92,114.88,0.27,15628.86,212.88,0.09,2575.89
720200,899.11,868.73,1.00,1,1,1,2951.54,-0.17,183993.08,148.80,0.12,92069.92,165.87,-0.78,21449.43,213.98,0.04,6822.98,171.21,2.79,24348.70
734700,858.70,876.72,1.00,1,1,1,2841.19,2.95,399453.45,1396.84,-2.99,106591.12,587.92,-2.94,47904.39,295.65,-2.94,35036.45,86.54,-0.10,17653.63
750000,857.94,862.61,1.00,1,1,1,923.71,-1.62,203203.16,1174.97,-2.95,14945.67,1026.81,-3.14,30342.59,150.21,0.37,29048.56,36.49,-2.96,7974.27
772200,815.44,868.37,1.00,1,1,1,1932.04,3.01,99452.50,763.46,2.94,24943.73,543.45,-2.66,27048.41,157.82,-0.37,5070.27,125.51,2.49,4715.85
787900,829.60,868.45,1.00,2,2,2,902.07,0.01,180132.91,468.87,-0.67,76451.85,264.41,0.92,50382.89,947.95,3.05,70082.09,129.06,2.68,1563.03
802000,826.36,859.65,1.00,2,2,2,664.88,-1.92,91842.07,1396.20,0.21,81958.19,975.84,0.01,59613.65,494.19,-2.94,35148.11,296.54,3.02,12797.74
816400,868.55,876.60,1.00,2,2,2,3157.63,0.38,252590.27,1633.62,0.20,16517.60,875.71,2.94,127844.54,488.47,3.10,8275.44,294.14,2.92,2065.33
831000,872.81,868.92,1.00,1,1,1,602.06,-1.06,215065.51,2619.68,3.11,289466.32,491.19,3.02,26608.40,402.03,2.79,11046.15,184.96,-2.92,10256.13
852400,774.30,879.93,1.00,1,1,1,4632.31,3.03,233897.45,2153.04,-3.07,24677.07,1151.79,-2.99,32292.14,509.13,2.92,5644.22,439.85,3.07,12532.23
867500,794.41,863.51,1.00,1,1,1,1719.71,-0.68,407173.65,797.82,-0.66,185372.69,1601.82,2.98,40597.54,332.09,2.70,13129.14,144.50,-2.79,20744.20
882500,793.27,865.21,1.00,1,1,1,136.52,2.16,123388.82,1155.26,2.44,130181.12,113.60,2.75,99444.64,702.50,3.04,26981.84,259.83,2.81,11509.20
897100,768.24,885.52,1.00,1,1,1,2207.64,2.46,142289.98,1040.49,2.54,10720.94,251.86,1.95,13025.28,461.39,-3.08,17677.38,28.89,2.48,15943.31
911900,768.06,882.54,1.00,1,1,1,202.09,-1.63,157493.20,736.65,-0.37,119322.46,408.82,2.25,12387.33,20.11,-2.22,30305.34,127.00,-3.13,7168.57
927100,788.81,877.44,1.00,1,1,1,1405.87,-0.24,91065.49,249.15,0.41,38629.21,518.52,-0.51,59921.65,159.65,-0.04,11313.35,99.17,2.44,5502.58
948300,776.38,886.15,1.00,1,1,1,715.98,2.53,98560.53,399.08,-0.66,16713.38,68.91,-0.87,21443.28,145.48,1.99,12235.07,395.16,-0.40,23147.13
978300,804.97,864.93,1.00,1,1,1,1186.73,-0.64,63418.11,157.98,-2.00,13148.86,351.10,-0.46,9642.99,233.70,-0.28,11528.75,238.24,-0.32,5303.14
1009000,772.38,877.43,1.00,1,1,1,1136.82,2.78,74986.49,319.56,-0.17,12740.60,66.45,0.27,9920.80,151.68,-0.57,3183.78,574.17,-0.20,11035.04
1024100,819.39,862.45,1.00,1,1,1,3267.44,-0.31,291580.05,335.53,0.78,19809.41,97.26,1.19,5151.25,82.12,0.12,6770.40,593.83,-0.13,2924.83
1054000,783.15,888.02,1.00,2,2,2,1483.36,2.53,157298.24,299.42,2.33,14939.99,253.90,-0.47,9363.53,1221.91,-0.27,38340.99,652.03,-0.17,2143.00
1076600,808.52,873.81,1.00,2,2,2,1286.77,-0.51,122408.10,575.79,-1.20,38068.77,282.92,2.33,23419.58,879.78,-0.13,16391.24,614.33,-0.22,2155.94
1091500,791.05,867.92,1.00,1,1,1,1237.63,-2.82,154862.72,253.36,2.33,54759.10,3071.29,-0.29,222825.64,1223.22,-0.18,23275.67,580.80,-0.20,2481.63
1105900,803.39,879.17,1.00,1,1,1,1159.88,0.74,162940.21,6597.69,-0.20,472735.81,2323.73,-0.20,54337.17,1054.62,-0.14,12071.50,485.43,-0.19,6631.71
1120600,979.17,829.57,1.00,1,1,1,12424.67,-0.28,806308.65,4866.76,-0.23,118388.16,2614.28,-0.14,22262.08,1607.78,-0.27,39257.76,559.25,-0.17,5069.34
1135100,941.66,846.37,1.00,1,1,1,2834.23,2.72,1050642.93,1412.24,2.72,431701.44,2646.85,-0.23,15351.61,1162.16,-0.20,31359.85,646.71,-0.16,6036.00
1149700,941.66,846.37,1.00,1,1,1,0.00,0.00,194125.16,885.91,-0.20,156457.32,144.35,0.15,172147.32,1219.84,-0.13,7192.28,666.98,-0.18,1730.28
1171900,973.65,840.05,1.00,1,1,1,1468.54,-0.20,66150.45,1337.79,-0.32,21198.62,138.81,-0.22,2388.94,1005.85,-0.22,10579.01,434.51,-0.08,10767.42
1186600,988.59,831.03,1.00,1,1,1,1186.99,-0.54,36518.37,790.16,2.96,144469.20,29.73,1.91,10651.69,287.26,2.40,85906.64,663.75,-0.22,16438.49
1201500,950.66,844.35,1.00,1,1,1,2697.89,2.80,259564.99,1750.03,2.79,65670.22,458.05,2.88,29669.90,402.70,-0.22,44803.38,502.73,-0.25,10871.04
1215500,941.02,848.21,1.00,1,1,1,741.80,2.76,139791.37,241.19,2.72,107827.04,626.44,2.56,17249.67,144.23,-0.21,18463.09,670.70,-0.15,12704.99
1245900,940.88,848.71,1.00,1,1,1,16.97,1.85,24063.27,259.65,0.82,13437.13,614.57,-0.22,40165.32,215.46,2.74,11778.04,681.74,-0.28,2816.92
1261800,949.26,856.96,1.00,1,1,1,740.01,0.78,46039.82,1602.20,-0.26,94071.60,270.20,-0.28,21713.65,222.50,2.60,1955.70,156.21,2.93,52684.13
1284200,1000.22,833.07,1.00,1,1,1,2512.44,-0.44,105350.18,539.14,-0.84,53114.74,81.91,0.66,10362.07,86.53,-2.77,8154.96,35.73,2.93,5378.23
1299400,962.78,841.86,1.00,1,1,1,2529.82,2.91,329937.79,1893.14,2.81,156526.32,227.97,-0.66,14666.39,245.24,-0.24,21059.96,144.23,-0.21,11839.86
1314900,945.33,852.19,1.00,1,1,1,1308.23,2.61,86452.06,192.35,1.81,115824.82,1013.55,3.03,78286.18,373.65,-0.44,9138.73,215.46,2.74,23100.15
1329400,961.39,847.46,1.00,1,1,1,1154.71,-0.29,168556.54,459.78,-2.04,42630.72,218.23,-0.18,84919.05,152.75,-2.26,30147.04,222.50,2.60,2144.52
1344900,939.07,839.90,1.00,1,1,1,1520.42,-2.81,164698.99,429.27,-0.45,40930.36,685.85,-0.54,31427.93,453.16,2.92,26321.35,86.53,-2.77,11785.23
1375100,979.03,838.87,1.00,1,1,1,1323.40,-0.03,92713.82,1161.55,-0.27,24616.97,338.23,-2.84,31343.19,218.23,-0.18,22227.70,245.24,-0.24,10599.72
1390100,989.65,825.81,1.00,1,1,1,1122.15,-0.89,69194.91,1201.53,3.13,156176.34,124.46,2.32,20396.72,685.85,-0.54,32475.52,373.65,-0.44,9443.36
1412000,934.69,839.24,1.00,1,1,1,2583.35,2.90,161795.82,1241.85,2.77,20233.61,1201.53,3.13,51147.48,338.23,-2.84,43222.11,152.75,-2.26,19960.37
1440800,930.99,848.68,1.00,2,2,2,351.99,1.94,83262.17,351.99,1.94,35965.32,1241.85,2.77,15385.98,124.46,2.32,10623.29,453.16,2.92,14166.00
