@RELATION gaze_labels

%@METADATA width_px 1920
%@METADATA height_px 1080
%@METADATA width_mm 540.00
%@METADATA height_mm 254.00
%@METADATA distance_mm 620.00


@ATTRIBUTE time INTEGER
@ATTRIBUTE x NUMERIC
@ATTRIBUTE y NUMERIC
@ATTRIBUTE confidence NUMERIC
@ATTRIBUTE handlabeller1 INTEGER
@ATTRIBUTE handlabeller2 INTEGER
@ATTRIBUTE handlabeller_final INTEGER
@ATTRIBUTE speed_1 numeric
@ATTRIBUTE direction_1 numeric
@ATTRIBUTE acceleration_1 numeric
@ATTRIBUTE speed_2 numeric
@ATTRIBUTE direction_2 numeric
@ATTRIBUTE acceleration_2 numeric
@ATTRIBUTE speed_4 numeric
@ATTRIBUTE direction_4 numeric
@ATTRIBUTE acceleration_4 numeric
@ATTRIBUTE speed_8 numeric
@ATTRIBUTE direction_8 numeric
@ATTRIBUTE acceleration_8 numeric
@ATTRIBUTE speed_16 numeric
@ATTRIBUTE direction_16 numeric
@ATTRIBUTE acceleration_16 numeric

%The number after speed, direction denotes the step size that was used for the calculation.
%Acceleration was calculated between two adjacent samples of the already low pass filtered velocity

@DATA
0,49.75,545.77,1.00,1,1,1,0.00,0.00,0.00,2929.46,0.27,0.00,1336.13,0.31,0.00,1828.48,0.08,0.00,1042.60,0.09,0.00
22600,113.52,563.56,1.00,1,1,1,2929.46,0.27,129622.03,1336.13,0.31,70564.85,1209.13,-0.15,26053.41,561.33,0.52,59339.43,1350.66,-0.00,14390.16
37000,96.88,560.68,1.00,1,1,1,1172.41,-2.97,284559.83,1209.13,-0.15,40889.38,1828.48,0.08,49034.02,888.35,0.05,32182.61,3282.44,0.04,134310.53
52100,148.79,558.24,1.00,1,1,1,3441.06,-0.05,304141.72,2517.89,-0.07,87135.96,561.33,0.52,88812.66,464.30,0.77,41225.77,1997.57,0.00,85406.27
66500,170.97,555.31,1.00,1,1,1,1553.68,-0.13,131761.28,772.52,1.87,200554.55,888.35,0.05,32182.61,1042.60,0.09,51630.73,1582.21,-0.02,28914.33
81300,142.19,579.81,1.00,1,1,1,2553.61,2.44,266852.99,787.78,2.80,47350.48,464.30,0.77,42061.42,1350.66,-0.00,21974.17,1881.99,-0.06,20787.92
95900,149.15,563.09,1.00,1,1,1,1240.43,-1.18,253565.65,771.49,-0.00,105260.94,396.03,0.12,19443.41,3282.44,0.04,132470.66,1925.73,-0.05,3198.11
118500,170.89,579.73,1.00,2,2,2,1211.25,0.65,85966.21,1045.65,-0.08,12467.75,1985.17,-0.10,70840.98,1997.57,0.00,57063.48,1845.34,-0.10,5519.87
147300,202.75,559.06,1.00,3,3,3,1318.75,-0.58,50742.45,3017.59,-0.12,68536.93,5027.64,0.04,106840.19,1582.21,-0.02,14457.17,1372.36,0.02,17717.18
162400,302.34,563.34,1.00,1,1,1,6601.63,0.04,369523.52,12004.05,0.06,599677.55,3393.41,-0.08,113278.35,1881.99,-0.06,20374.91,898.06,-0.03,31611.88
176700,555.01,580.63,1.00,1,1,1,17710.31,0.07,777067.66,3860.24,-0.04,571380.61,3037.16,-0.04,26632.62,1925.73,-0.05,3265.21,1094.39,-0.02,13748.23
198300,440.83,558.32,1.00,1,1,1,5385.87,-2.95,1067782.96,4207.00,-2.95,371117.09,1760.02,0.01,59333.15,1845.34,-0.10,5775.42,1041.95,-0.00,2523.09
213400,403.37,551.59,1.00,1,1,1,2520.89,-2.96,189771.28,836.23,2.89,229681.57,1934.52,-2.90,242968.54,1672.30,-0.01,15073.82,2076.27,0.06,68742.51
227600,417.09,564.37,1.00,1,1,1,1320.41,0.75,260618.46,960.25,-0.07,125998.20,214.40,-0.42,148385.70,512.47,-0.08,81800.84,2265.24,0.03,13981.95
242600,431.34,549.67,1.00,1,1,1,1364.78,-0.80,125309.31,881.90,-0.32,16130.82,749.09,0.05,37775.57,782.36,-2.94,85510.37,2252.13,0.05,3227.00
273500,455.54,551.71,1.00,1,1,1,785.94,0.08,34275.92,663.49,0.12,12941.57,327.13,-2.89,34683.16,231.59,-0.02,32677.58,2208.05,0.03,2161.70
310900,476.31,555.25,1.00,2,2,2,563.40,0.17,6137.98,1329.57,3.07,53074.77,62.10,1.93,8726.15,2504.33,0.10,60814.43,2283.40,0.05,2569.50
326000,385.90,556.42,1.00,2,2,2,5988.26,3.13,433322.56,1580.57,3.14,17749.45,266.25,0.23,18615.54,2600.46,0.08,6864.66,1891.65,0.08,26104.58
340700,429.21,555.38,1.00,2,2,2,2947.41,-0.02,607860.11,2122.19,0.01,251881.99,4808.93,0.11,309166.17,2530.51,0.11,6892.56,1103.84,0.07,53600.05
370700,480.75,557.55,1.00,1,1,1,1719.56,0.04,41228.82,9082.16,0.09,232308.84,6503.50,0.09,56542.33,2574.09,0.11,1463.02,1353.83,0.10,8426.20
385200,831.59,593.27,1.00,1,1,1,24320.59,0.10,1558916.50,13270.17,0.11,289190.76,5587.66,0.10,63188.45,2994.74,0.10,29147.84,1514.96,0.09,11122.87
399700,863.13,600.95,1.00,1,1,1,2239.06,0.24,1524464.58,1408.01,0.13,818087.66,5939.98,0.10,24479.05,3503.94,0.10,35128.50,1497.58,0.08,1402.31
422400,883.55,599.80,1.00,1,1,1,901.16,-0.06,61739.93,312.75,-0.16,48966.64,1005.01,0.05,217477.79,3290.41,0.10,9406.95,1347.61,0.12,6885.48
437400,874.77,599.05,1.00,1,1,1,587.94,-3.06,99037.10,533.59,-0.19,14743.22,213.97,0.40,53802.44,2727.10,0.11,37574.24,1392.43,0.11,3034.88
452900,899.54,596.72,1.00,1,1,1,1605.01,-0.09,141038.16,259.80,1.36,37996.39,135.75,0.37,5053.93,371.51,0.05,152021.72,1766.78,0.11,24157.14
466700,876.35,606.49,1.00,1,1,1,1823.30,2.74,245552.96,359.49,2.52,25377.33,154.33,3.13,20636.45,221.31,0.12,10988.84,2678.46,0.16,66400.15
481800,891.06,602.74,1.00,1,1,1,1005.73,-0.25,186878.62,332.09,-2.63,24537.12,158.63,-3.08,756.83,161.62,-3.13,25321.95,2731.99,0.13,6622.66
511800,863.29,599.17,1.00,1,1,1,933.52,-3.01,63493.38,154.27,-2.14,6959.36,238.74,-0.08,13216.17,12.12,-0.62,5719.00,2586.15,0.15,5467.42
533800,886.72,595.99,1.00,1,1,1,1075.13,-0.13,90520.67,902.17,0.18,46064.22,373.34,-3.04,27709.89,644.67,0.19,28924.63,1394.16,0.16,54181.52
548400,895.79,604.96,1.00,1,1,1,873.71,0.78,60228.53,885.07,3.01,120926.90,196.83,-0.09,38892.19,1976.86,0.24,91341.53,1246.64,0.16,10104.55
563400,860.77,599.53,1.00,2,2,2,2362.93,-2.99,207549.54,717.86,-2.80,27296.96,1519.19,0.17,88658.97,2249.84,0.16,21854.64,1230.21,0.16,1197.56
577400,876.15,598.07,1.00,2,2,2,1103.81,-0.10,245963.06,3092.15,0.12,271120.96,3740.91,0.26,159418.89,2456.48,0.20,16734.82,1202.44,0.16,2015.18
608000,997.76,615.45,1.00,3,3,3,4014.43,0.14,96501.36,6221.72,0.27,104558.64,4885.49,0.15,40451.75,2378.17,0.17,3582.91,1128.15,0.19,2779.31
629500,1188.78,683.73,1.00,1,1,1,9435.31,0.34,258616.37,7074.70,0.17,49426.78,4286.57,0.21,30771.93,2228.53,0.16,7075.75,852.30,0.09,13751.11
644600,1252.88,659.73,1.00,1,1,1,4532.56,-0.36,440460.63,1037.75,-0.40,412311.43,3168.94,0.17,74761.88,2327.05,0.15,6578.88,159.35,-2.90,66892.00
658700,1216.72,672.00,1.00,1,1,1,2707.90,2.81,513449.25,80.30,-2.88,78164.81,730.51,-0.45,185219.92,2136.66,0.16,13551.58,31.19,-0.82,12534.50
688600,1249.47,658.80,1.00,1,1,1,1180.82,-0.38,130014.57,533.59,-0.53,19825.38,196.44,0.19,19569.59,1587.36,0.20,18493.67,424.77,-2.98,14815.24
703700,1237.49,659.95,1.00,1,1,1,796.91,3.05,129674.63,423.87,0.20,23506.06,397.69,-0.33,16351.80,439.33,-2.23,128485.92,190.17,-2.92,15584.83
742100,1271.69,663.31,1.00,1,1,1,895.01,0.10,43855.67,303.46,-0.03,3811.81,90.70,1.22,10580.70,2672.58,-2.98,61689.42,100.81,-2.97,2333.79
756300,1253.44,659.43,1.00,2,2,2,1313.95,-2.93,155328.03,679.20,3.01,69133.24,1170.75,-2.82,86564.59,2267.59,-2.92,30334.98,99.81,-3.01,310.06
771300,1252.02,665.86,1.00,2,2,2,438.71,1.79,92135.44,3814.96,-2.87,213395.38,7454.21,-2.97,420024.14,3332.85,-2.97,71812.57,520.52,-3.08,28066.99
785300,1146.91,629.58,1.00,2,2,2,7942.58,-2.81,571774.32,14236.91,-2.96,745999.80,6557.67,-2.97,64110.58,2471.59,-2.97,61519.10,1019.74,-2.86,37444.41
800600,841.71,590.71,1.00,3,3,3,20109.13,-3.01,813076.61,9199.36,-3.01,331140.32,7533.87,-2.96,63895.75,3173.41,-2.99,45937.77,1184.70,-3.00,14607.29
815700,869.75,592.24,1.00,1,1,1,1860.23,0.05,1454631.38,2254.34,-2.96,460138.22,3768.38,-3.02,250233.71,2933.32,-2.98,15916.04,1318.83,-2.95,9565.55
837800,759.19,575.76,1.00,1,1,1,5058.25,-2.99,312785.12,633.14,-3.12,73850.88,158.49,2.89,163854.28,2948.59,-3.00,2002.66,1170.65,-2.99,7039.69
868300,836.46,591.53,1.00,1,1,1,2585.67,0.20,250540.60,1585.69,0.25,72344.83,309.67,3.08,5135.24,1732.53,-3.02,39897.26,1185.56,-2.97,916.56
883300,829.01,593.95,1.00,1,1,1,522.32,2.83,203402.77,286.16,0.29,86646.27,1143.76,0.36,95460.68,373.36,0.31,140042.61,2703.96,-3.02,101391.84
897500,844.48,593.88,1.00,1,1,1,1089.44,-0.00,112315.60,534.70,0.84,23170.86,797.17,0.11,29652.05,335.35,3.05,48900.83,2937.71,-3.03,16523.30
912700,839.46,605.69,1.00,1,1,1,844.44,1.97,106633.48,1198.24,0.07,58938.40,1008.18,0.21,15096.70,875.18,0.22,78876.90,2773.71,-3.01,11434.79
935100,889.41,597.16,1.00,1,1,1,2262.47,-0.17,125456.84,1485.39,0.04,12995.90,366.83,3.02,60738.65,306.19,0.17,25425.62,2353.64,-3.05,19249.56
950000,894.82,607.74,1.00,1,1,1,797.62,1.10,145129.60,2331.40,-3.14,256126.98,658.65,-0.00,68714.53,2241.78,-3.07,170919.40,1385.53,-3.06,64998.82
964900,819.94,596.89,1.00,2,2,2,5078.44,-3.00,374348.95,52.46,-1.90,155366.28,136.58,2.98,53275.52,2946.29,-3.07,47285.08,1537.29,-3.09,10533.24
995600,894.06,605.47,1.00,2,2,2,2430.52,0.12,244569.67,1310.94,0.03,43330.44,5113.84,-3.05,162276.93,2624.25,-3.02,11356.81,981.41,-3.13,18168.10
1010200,879.29,598.83,1.00,3,3,3,1109.21,-2.72,239985.11,12932.71,-3.05,975462.03,4727.25,-3.06,26691.04,2890.30,-3.06,19915.99,1350.42,-3.06,25772.78
1025300,511.48,571.25,1.00,1,1,1,24426.40,-3.07,1548793.16,9926.07,-3.06,199263.50,5930.39,-3.03,80102.81,2892.58,-3.04,4947.13,1221.55,-3.05,8638.49
1062800,358.81,557.64,1.00,1,1,1,4087.56,-3.05,542382.12,1975.42,-2.96,212349.26,4990.83,-3.06,25284.61,2578.51,-3.07,8784.48,1407.75,-3.06,4986.68
1077800,409.44,552.73,1.00,1,1,1,3391.47,-0.10,496476.59,655.83,-0.02,174771.46,1190.31,-3.00,253534.92,2831.66,-3.06,16943.47,631.83,-2.92,52476.07
1108800,388.97,557.07,1.00,1,1,1,675.04,2.93,131063.55,302.54,2.99,30860.27,248.60,0.47,46069.34,2777.62,-3.05,1984.23,677.86,-3.00,2232.67
1123500,395.76,554.76,1.00,1,1,1,488.22,-0.33,78997.40,561.00,2.56,21367.01,591.48,0.42,23354.34,346.71,-2.91,165639.33,447.17,-2.91,16002.32
1137700,375.44,566.01,1.00,1,1,1,1635.69,2.64,149152.92,1924.00,0.29,163704.77,529.31,0.04,15459.51,379.05,0.01,50803.95,274.09,-2.90,12193.70
1152900,449.98,570.88,1.00,1,1,1,4914.58,0.07,417945.51,1320.79,-0.15,60720.93,901.88,0.06,24520.24,1697.11,0.04,86729.65,594.43,-2.93,21091.81
1174800,423.87,558.55,1.00,2,2,2,1318.62,-2.70,281285.67,374.36,-1.14,52844.29,564.96,-0.20,17584.16,2074.48,0.03,17247.56,739.78,-3.01,7023.15
1190200,455.82,558.20,1.00,2,2,2,2074.75,-0.01,215020.65,365.05,-3.11,40077.05,2995.51,-0.04,158437.06,2591.48,0.06,33794.44,663.54,-0.00,90911.20
1205200,412.78,558.25,1.00,3,3,3,2869.51,3.14,329613.33,6569.36,0.02,462293.77,3454.49,0.03,34288.39,2436.53,0.03,11588.98,1319.58,0.02,43766.51
1219800,650.22,562.81,1.00,1,1,1,16266.08,0.02,1310622.39,6123.77,0.03,30715.02,4126.85,0.06,46592.01,1809.39,-0.01,43325.41,1095.68,0.06,15714.64
1248700,679.03,566.68,1.00,1,1,1,1005.83,0.13,528278.99,2484.00,0.12,126540.45,4029.98,0.05,3410.57,1647.54,0.04,6506.56,1336.23,0.06,8324.42
1263600,758.20,576.12,1.00,1,1,1,5351.22,0.12,291646.53,1545.79,0.16,63200.88,828.93,0.07,214847.96,1850.75,0.05,13649.44,1260.20,0.09,5802.65
1285200,734.69,575.89,1.00,1,1,1,1088.37,-3.13,297881.64,1146.58,-2.94,124626.56,354.08,3.06,54626.52,2279.71,0.02,19983.17,1217.86,0.01,5396.05
1300400,716.85,567.73,1.00,1,1,1,1290.80,-2.71,35056.56,2625.85,-3.05,98114.81,685.96,-3.02,22823.29,514.11,0.14,116433.46,1201.05,0.03,2013.15
1315500,655.46,568.66,1.00,1,1,1,4066.05,3.13,195553.61,156.89,2.45,166683.11,176.69,-1.96,40992.36,560.07,0.18,3326.12,1051.92,0.02,9878.53
1329500,713.33,570.64,1.00,1,1,1,4136.05,0.03,585685.79,2578.12,-0.03,193143.30,145.62,0.60,22055.88,178.88,2.67,50792.54,922.28,0.04,9347.88
1344700,730.70,566.16,1.00,1,1,1,1180.00,-0.25,198850.68,319.08,0.21,149341.27,1483.21,0.11,89211.03,84.95,-2.43,10959.01,2279.71,0.02,89319.95
1366200,724.78,573.11,1.00,1,1,1,424.77,2.28,71947.76,693.47,0.56,19002.81,435.90,0.60,51907.83,566.90,0.16,29799.07,514.11,0.14,82315.75
1381000,751.99,579.59,1.00,1,1,1,1890.32,0.23,143079.55,628.66,0.84,12947.08,66.63,2.77,32224.35,483.10,-0.04,8980.08,560.07,0.18,3393.54
1395600,737.16,586.83,1.00,1,1,1,1130.66,2.69,195584.98,647.87,-2.73,85469.33,953.74,0.10,69423.82,127.23,-0.03,24375.37,178.88,2.67,48705.17
1425300,725.69,568.10,1.00,1,1,1,739.51,-2.12,43466.08,1302.65,-0.11,63686.07,355.99,-2.65,43434.91,66.63,2.77,6442.92,84.95,-2.43,5608.65
1440500,795.28,580.26,1.00,1,1,1,4647.40,0.17,339881.40,62.78,-1.25,84060.70,177.43,-1.76,18497.69,953.74,0.10,66683.41,566.90,0.16,42150.00
1462500,726.42,565.88,1.00,1,1,1,3197.33,-2.94,356532.06,1203.93,-2.98,55228.25,62.78,-1.25,5732.39,355.99,-2.65,58637.12,483.10,-0.04,6041.15
1492100,734.01,570.00,1.00,1,1,1,291.66,0.50,117488.88,291.66,0.50,50092.16,1203.93,-2.98,41048.02,177.43,-1.76,9498.81,127.23,-0.03,12022.99
