@RELATION gaze_labels

%@METADATA width_px 1920
%@METADATA height_px 1080
%@METADATA width_mm 540.00
%@METADATA height_mm 254.00
%@METADATA distance_mm 620.00


@ATTRIBUTE time INTEGER
@ATTRIBUTE x NUMERIC
@ATTRIBUTE y NUMERIC
@ATTRIBUTE confidence NUMERIC
@ATTRIBUTE handlabeller1 INTEGER
@ATTRIBUTE handlabeller2 INTEGER
@ATTRIBUTE handlabeller_final INTEGER
@ATTRIBUTE speed_1 numeric
@ATTRIBUTE direction_1 numeric
@ATTRIBUTE acceleration_1 numeric
@ATTRIBUTE speed_2 numeric
@ATTRIBUTE direction_2 numeric
@ATTRIBUTE acceleration_2 numeric
@ATTRIBUTE speed_4 numeric
@ATTRIBUTE direction_4 numeric
@ATTRIBUTE acceleration_4 numeric
@ATTRIBUTE speed_8 numeric
@ATTRIBUTE direction_8 numeric
@ATTRIBUTE acceleration_8 numeric
@ATTRIBUTE speed_16 numeric
@ATTRIBUTE direction_16 numeric
@ATTRIBUTE acceleration_16 numeric

%The number after speed, direction denotes the step size that was used for the calculation.
%Acceleration was calculated between two adjacent samples of the already low pass filtered velocity

@DATA
0,875.97,832.67,1.00,1,1,1,0.00,0.00,0.00,3859.26,3.06,0.00,202.46,-2.86,0.00,395.97,-3.06,0.00,65.99,0.45,0.00
15000,818.28,837.44,1.00,1,1,1,3859.26,3.06,257284.25,202.46,-2.86,244736.06,397.45,0.19,39951.68,496.10,-0.28,58512.28,410.72,-0.05,23633.82
44100,867.40,830.16,1.00,1,1,1,1706.54,-0.15,191179.72,397.45,0.19,20593.65,395.97,-3.06,27226.72,651.78,2.76,39396.52,140.49,2.54,18400.16
66200,838.27,841.24,1.00,1,1,1,1410.37,2.78,140219.54,636.09,-3.14,46579.12,496.10,-0.28,39714.22,280.42,-2.47,25679.26,131.32,1.08,8176.16
80700,844.12,830.07,1.00,1,1,1,869.78,-1.09,147631.16,809.18,-0.68,93964.65,651.78,2.76,79064.75,65.99,0.45,23805.32,376.60,2.67,27660.05
95300,856.56,826.41,1.00,1,1,1,887.93,-0.29,47008.28,789.19,2.37,109366.14,280.42,-2.47,38870.66,410.72,-0.05,24281.32,155.68,1.45,24314.24
109900,827.60,846.14,1.00,1,1,1,2399.81,2.54,223036.79,1050.74,3.00,42486.59,684.19,0.16,64343.57,140.49,2.54,36674.29,194.26,2.98,16718.48
125400,825.26,830.93,1.00,1,1,1,992.39,-1.72,191320.01,1896.17,-0.16,190114.23,350.42,0.34,22248.58,131.32,1.08,11657.62,162.91,1.43,16188.97
140200,884.28,836.74,1.00,2,2,2,4007.44,0.10,294679.09,1456.65,0.06,39067.53,369.17,-0.21,13415.04,376.60,2.67,27099.38,113.30,2.73,11607.05
162100,878.61,834.26,1.00,2,2,2,282.58,-2.73,195299.48,872.78,3.02,105927.50,484.56,0.88,20731.14,155.68,1.45,16209.49,283.40,0.14,17561.91
177500,851.98,840.81,1.00,1,1,1,1780.78,2.90,101684.76,1290.90,2.56,41551.37,1256.16,2.96,100887.12,194.26,2.98,15849.99,69.57,1.92,19847.21
192400,846.02,855.89,1.00,1,1,1,1087.85,1.95,97481.74,1743.35,2.93,48314.20,382.62,2.60,60947.67,162.91,1.43,16840.87,163.07,3.07,9960.95
207000,801.69,851.56,1.00,1,1,1,3050.93,-3.04,201579.67,549.34,-0.65,154238.05,707.30,2.96,25492.21,264.36,2.91,20386.85,208.33,0.16,25269.31
222000,858.92,845.99,1.00,1,1,1,3833.73,-0.10,456841.40,36.98,-2.46,37271.82,211.89,-3.09,33585.01,178.88,0.61,27071.66,104.80,0.80,9284.43
251700,800.41,850.52,1.00,1,1,1,1976.21,3.06,195612.33,600.94,2.85,19558.34,541.90,-0.13,25295.61,81.46,0.69,3293.90,464.86,-3.11,18363.16
274600,828.63,855.00,1.00,1,1,1,1247.81,0.16,139867.64,1216.76,-0.10,79077.85,494.34,0.07,4994.95,372.18,-2.92,19494.07,522.03,3.10,3021.85
289300,845.91,845.73,1.00,1,1,1,1333.97,-0.49,56370.49,2408.53,-0.09,81099.64,911.07,-0.04,28795.93,632.89,-0.12,67472.41,892.78,3.11,25225.69
304100,899.41,848.84,1.00,1,1,1,3621.34,0.06,174372.41,525.24,0.15,128561.14,603.18,-2.84,100898.36,116.43,0.11,35150.11,1043.31,3.08,10294.39
318100,860.85,848.06,1.00,1,1,1,2754.81,-3.12,455358.76,3595.95,-3.10,294158.33,727.05,-0.11,93053.65,704.91,-3.06,58663.84,693.13,3.13,25189.03
333200,794.86,844.57,1.00,1,1,1,4376.68,-3.09,107672.11,855.32,-0.20,293458.91,269.85,-3.11,65885.57,1055.38,-3.04,23251.14,781.87,-3.08,6944.87
368900,903.43,839.41,1.00,2,2,2,3044.79,-0.05,207631.33,1616.90,0.04,22777.72,1818.47,-3.10,43378.78,1477.60,3.14,12413.03,816.16,-3.12,1359.39
384500,877.73,848.10,1.00,1,1,1,1739.30,2.82,303926.91,4795.05,3.13,410919.85,1343.02,-3.09,30501.73,2082.23,3.13,38773.42,838.15,-3.13,1537.89
414200,686.22,841.36,1.00,1,1,1,6451.89,-3.11,163761.80,4809.75,-3.09,9131.16,3611.93,3.12,76594.62,1344.89,-3.12,24907.48,699.95,-3.11,4677.52
428300,667.30,838.12,1.00,1,1,1,1362.01,-2.97,362092.93,2158.06,3.08,189825.08,3866.10,3.13,18146.90,1142.53,-3.12,14352.14,596.32,-3.01,8616.34
451000,606.98,846.57,1.00,1,1,1,2683.15,3.00,63716.39,2809.13,3.00,29867.72,668.21,3.10,140884.68,2480.81,3.12,59034.76,795.68,-3.09,9077.18
466200,561.91,853.23,1.00,1,1,1,2997.32,2.99,20716.06,1142.48,-0.10,259928.14,860.43,3.10,12646.07,1944.72,-3.12,35666.27,1081.93,-3.11,18874.00
481300,641.42,843.09,1.00,1,1,1,5308.32,-0.13,550017.40,1699.68,-0.26,39745.16,891.08,-3.13,3537.69,696.39,3.11,82768.79,638.16,-3.10,29397.93
495300,609.70,840.47,1.00,1,1,1,2273.69,-3.06,539090.12,3079.40,3.11,339366.94,762.36,-0.22,117303.41,71.05,-2.61,45537.80,1012.46,3.14,26892.63
509400,554.94,846.10,1.00,1,1,1,3903.76,3.04,121993.42,178.31,2.57,207656.89,725.39,3.11,105020.01,133.75,-0.85,11546.40,1082.63,3.13,4979.42
524600,605.31,843.32,1.00,1,1,1,3318.97,-0.06,475047.98,1057.59,-0.04,79890.00,759.50,-0.14,97535.81,248.31,-0.47,8802.76,724.51,-3.10,23745.01
546500,594.15,844.55,1.00,1,1,1,512.93,3.03,174942.55,1500.36,-0.18,21838.81,962.79,-0.19,9458.48,294.85,-0.09,5157.52,359.43,0.11,49468.86
561100,659.16,833.34,1.00,1,1,1,4518.56,-0.17,344563.88,881.50,-0.42,46190.52,247.38,-2.89,81583.92,853.73,3.09,78661.25,576.86,0.15,14940.60
576100,618.01,833.98,1.00,1,1,1,2743.88,3.13,482795.50,2362.55,3.06,213916.14,1427.52,-0.06,111000.10,404.20,-0.08,83855.27,799.67,0.05,15548.71
590700,589.48,839.24,1.00,1,1,1,1986.93,2.96,58275.35,2065.39,0.10,302013.90,2464.80,3.06,266577.62,568.34,-0.05,11290.46,983.29,-0.00,12939.54
605200,677.82,839.92,1.00,1,1,1,6092.42,0.01,555335.04,2548.44,3.06,316968.21,192.02,2.46,159209.41,1469.44,0.04,62380.53,913.42,0.06,6444.41
626900,497.50,846.40,1.00,2,2,2,8314.71,3.11,663768.84,1913.01,3.11,29716.31,1372.55,0.01,70335.75,1256.28,0.17,12891.24,830.02,0.06,3843.00
641600,608.21,841.87,1.00,2,2,2,7537.36,-0.04,1078368.64,6082.89,-0.04,543935.21,1516.40,0.12,14608.26,1519.17,0.12,18610.46,666.31,0.08,11168.01
657000,680.48,839.74,1.00,1,1,1,4694.72,-0.03,184640.28,5622.10,0.06,46492.71,5301.34,0.04,246133.90,1630.67,0.06,9547.33,859.91,0.02,12905.46
671900,778.28,851.64,1.00,1,1,1,6612.26,0.12,140434.62,4558.49,0.15,78332.37,3336.88,0.07,132081.13,1435.93,0.09,13506.78,698.02,0.04,10922.24
686800,814.75,860.35,1.00,1,1,1,2516.48,0.23,276637.76,986.01,0.16,239765.04,1844.81,0.09,100170.81,2258.08,0.03,55699.81,611.91,0.10,6240.46
701300,806.90,856.21,1.00,1,1,1,611.75,-2.66,214669.14,316.56,-0.49,52335.28,1370.44,0.07,32804.80,896.21,0.14,94596.75,823.80,0.06,14703.85
737800,828.97,852.72,1.00,1,1,1,612.08,-0.16,31810.96,1593.21,0.03,36404.15,342.76,-0.15,28430.54,1101.39,0.05,6148.34,965.62,0.02,4018.72
752800,888.91,858.84,1.00,1,1,1,4016.91,0.10,228584.74,414.50,0.16,78891.66,647.41,3.06,65984.42,97.65,0.09,66920.73,388.52,0.06,38506.27
781700,846.93,855.64,1.00,1,1,1,1456.86,-3.07,189391.56,3288.51,3.12,127927.40,359.51,-0.14,34827.48,132.28,-0.50,2587.88,1304.24,0.01,31709.23
796400,745.56,861.43,1.00,1,1,1,6907.45,3.08,371899.05,350.35,-0.59,244087.60,1186.30,-3.08,104761.55,289.71,-0.16,11632.39,871.68,0.05,29553.01
817900,857.47,848.58,1.00,1,1,1,5239.39,-0.11,564742.23,1342.07,-0.17,47987.00,225.29,-2.76,45365.71,269.93,-0.21,1098.18,279.64,0.25,27910.40
833000,793.95,853.01,1.00,1,1,1,4216.75,3.07,626080.00,832.28,3.08,143794.95,1655.39,-0.12,122910.01,676.22,-3.02,61958.13,96.00,2.24,21902.02
847000,833.30,850.11,1.00,1,1,1,2818.17,-0.07,502493.57,2060.98,-0.07,206659.89,152.34,-0.41,107881.23,186.03,-0.23,60956.37,116.56,-0.04,13801.52
861600,852.74,848.73,1.00,1,1,1,1334.92,-0.07,101593.03,1100.36,-0.16,66372.63,104.39,-1.95,12463.74,853.06,-0.07,45887.14,42.26,2.48,10470.64
876800,865.68,844.97,1.00,2,2,2,886.72,-0.28,33115.57,1681.11,-3.11,182200.20,566.70,0.00,40365.05,807.07,3.04,109200.36,59.31,1.09,4355.37
898100,791.41,846.71,1.00,2,2,2,3487.92,3.12,204273.52,200.23,0.80,85952.29,99.60,0.89,23913.35,308.71,2.59,25596.95,420.95,-3.13,21220.54
913100,870.76,850.18,1.00,3,3,3,5294.79,0.04,585198.86,2262.75,0.11,140815.86,1666.50,3.01,114736.11,137.52,0.55,26043.57,199.99,3.06,14857.58
927200,856.88,853.78,1.00,1,1,1,1017.17,2.89,444983.66,3907.67,3.06,435837.20,677.74,2.42,82683.89,434.45,2.88,38172.66,108.56,-0.15,21873.20
942100,757.79,859.19,1.00,1,1,1,6659.70,3.09,380290.15,3249.97,2.94,52673.85,418.02,2.77,21408.12,278.83,2.50,13644.68,26.95,1.59,7788.09
957200,761.32,873.14,1.00,1,1,1,952.88,1.32,457350.41,3045.08,-0.00,414843.34,904.02,2.98,33241.54,154.50,2.56,8283.61,153.43,-0.02,10373.84
971700,847.93,859.06,1.00,1,1,1,6051.57,-0.16,416861.80,1000.51,-0.25,144240.33,1192.39,0.10,143335.11,608.73,3.01,32694.86,150.44,2.92,20848.01
994200,797.14,863.82,1.00,1,1,1,2266.97,3.05,369544.98,383.17,2.54,60768.50,322.65,-0.85,46150.69,635.16,3.10,2740.32,44.15,2.82,4736.49
1008300,836.35,866.97,1.00,1,1,1,2789.21,0.08,357259.10,798.97,-2.85,44897.56,796.23,3.12,73832.94,761.18,-0.04,99030.76,287.31,3.00,17299.57
1022800,775.27,857.22,1.00,1,1,1,4265.60,-2.98,486182.81,1432.97,-2.97,44638.56,380.26,-2.87,30742.55,528.68,-0.27,19081.04,123.67,0.47,27246.22
1036800,796.10,860.01,1.00,1,1,1,1501.54,0.13,411913.49,44.78,3.14,99207.03,370.35,-0.50,49641.11,372.52,-3.14,63781.61,215.00,3.00,23180.59
1058300,773.68,857.23,1.00,1,1,1,1051.03,-3.02,118722.91,1696.92,-0.07,81004.34,754.93,-0.08,20610.84,329.93,-0.25,32413.44,94.79,3.06,5601.62
1073000,857.36,855.46,1.00,1,1,1,5694.07,-0.02,458218.99,1395.68,-0.08,20500.49,33.57,-2.77,53416.37,339.41,-2.96,44480.58,324.90,-0.01,28534.50
1102600,835.31,852.31,1.00,1,1,1,752.55,-3.00,217493.32,1432.38,3.09,95535.83,913.31,-0.07,31882.89,297.13,0.11,21492.68,323.34,-0.21,2278.51
1117600,793.58,859.02,1.00,2,2,2,2818.00,2.98,140749.48,202.00,0.02,108921.05,772.23,3.12,112337.49,85.51,-0.10,14288.33,21.37,-1.75,21556.65
1132600,841.37,852.45,1.00,1,1,1,3216.04,-0.14,402242.83,217.96,-2.98,27930.42,194.36,2.44,42183.03,359.57,-0.02,18295.37,189.94,-0.20,12719.92
1170300,782.24,857.16,1.00,1,1,1,1573.27,3.06,126991.52,400.42,2.63,7071.59,200.75,-0.03,9888.33,45.38,2.67,10635.83,200.93,-0.17,318.48
1184800,823.10,862.61,1.00,1,1,1,2842.67,0.13,302978.86,968.12,0.05,91351.00,148.94,2.84,23887.16,118.77,0.06,11004.79,436.18,-0.07,16358.81
1198900,809.89,858.61,1.00,1,1,1,978.61,-2.85,270341.24,315.63,-0.77,55967.22,1170.25,0.02,93063.98,360.25,-0.12,17325.10,291.94,-0.05,10236.93
1214300,829.76,856.10,1.00,1,1,1,1300.29,-0.13,144801.73,1362.39,0.00,75197.69,508.94,-0.31,45977.25,61.93,0.07,19457.44,133.50,-0.07,10290.77
1229100,851.04,858.65,1.00,1,1,1,1447.90,0.12,24718.48,742.07,-0.12,42724.56,554.05,-0.15,6283.41,883.44,-0.00,55519.81,28.89,-2.43,10497.82
1244700,852.15,853.38,1.00,1,1,1,345.29,-1.36,93467.90,192.74,-2.20,54697.72,315.40,-0.14,15301.60,625.45,-0.18,18628.32,31.02,1.23,3709.28
1266300,846.79,852.87,1.00,1,1,1,249.33,-3.05,20756.51,45.72,-2.99,7576.36,632.06,-0.04,14816.78,557.02,-0.05,4875.77,131.46,-0.12,5944.17
1280800,850.52,853.13,1.00,1,1,1,257.86,0.07,34975.79,1571.87,0.09,111551.94,737.34,-0.10,7858.67,133.95,-3.05,47579.98,126.62,3.02,17798.36
1296000,893.29,857.02,1.00,1,1,1,2825.42,0.09,168922.89,1684.22,-0.09,20926.86,568.35,0.08,13450.49,65.00,-1.57,9419.85,149.47,0.05,18098.03
1310600,900.49,848.41,1.00,1,1,1,768.60,-0.87,169182.02,452.72,-3.02,145790.81,582.61,3.11,78715.23,119.23,2.68,10891.14,60.78,-2.51,13908.59
1325200,880.17,855.40,1.00,1,1,1,1471.60,2.81,148377.05,2447.59,3.07,137325.04,653.99,-2.98,9662.58,143.82,3.04,3615.72,50.17,-0.18,6995.30
1346800,812.09,854.42,1.00,1,1,1,3152.21,-3.13,85021.84,816.33,-2.96,77260.59,973.54,2.95,19652.17,350.14,3.06,9554.19,82.49,-2.40,5547.25
1361500,851.03,850.04,1.00,1,1,1,2665.49,-0.11,394976.43,920.65,0.22,118138.60,789.39,-3.13,17412.62,555.39,3.11,14048.23,104.64,-1.04,8111.80
1375800,838.14,860.29,1.00,1,1,1,1151.88,2.47,258219.97,788.77,2.93,116823.51,93.22,2.73,49342.36,690.57,3.09,9528.09,60.68,2.67,11131.42
1389900,829.10,854.64,1.00,1,1,1,755.78,-2.58,81425.91,1063.01,-3.02,28639.34,485.13,2.85,27857.89,440.28,3.13,17817.92,34.59,2.08,2655.49
1405200,807.10,856.60,1.00,1,1,1,1443.70,3.05,62557.08,259.42,2.66,56274.73,435.91,-2.90,16117.19,97.29,-1.48,30121.21,36.09,1.31,1739.74
1427000,820.56,859.08,1.00,1,1,1,627.81,0.18,94289.29,129.58,-0.75,17700.10,101.85,2.89,16049.96,154.49,-0.83,4449.25,199.11,3.00,9473.52
1441100,810.51,853.44,1.00,2,2,2,817.59,-2.63,101145.85,117.39,-0.93,1825.90,210.59,-1.19,20079.94,13.34,2.59,11868.67,281.76,2.88,6187.15
1456000,822.59,856.34,1.00,2,2,2,833.90,0.24,109789.97,291.37,-1.35,12753.82,702.81,-0.51,37325.03,89.64,0.49,6514.67,192.63,2.90,5990.20
1484600,813.29,841.07,1.00,1,1,1,625.13,-2.12,47190.63,1096.10,-0.48,32727.63,279.12,0.30,19154.76,287.19,0.14,7180.73,147.27,0.26,11523.85
1500000,865.46,834.24,1.00,1,1,1,3416.19,-0.13,241134.67,577.27,0.72,67376.15,207.19,0.26,4709.14,112.89,0.36,11613.42,66.80,2.33,12248.99
1537800,836.29,861.42,1.00,1,1,1,1054.68,2.39,114239.87,680.56,2.28,23443.48,550.89,0.50,9346.10,129.09,0.92,1809.27,25.59,0.57,2007.11
1552900,841.98,861.54,1.00,1,1,1,376.98,0.02,89465.41,574.99,0.10,73823.49,513.64,2.31,55450.62,83.36,1.26,3805.39,102.73,2.53,7617.28
1567400,853.23,863.11,1.00,1,1,1,783.04,0.14,28355.17,215.71,2.50,51630.02,268.33,2.61,18534.09,310.32,0.54,17466.98,105.21,0.23,13109.27
1582100,836.93,865.30,1.00,1,1,1,1118.60,3.01,128202.86,1065.14,2.94,59481.50,288.26,2.71,2262.52,272.49,2.32,30779.77,40.81,0.60,4684.45
1596700,822.67,869.43,1.00,1,1,1,1017.20,2.86,12864.82,366.55,2.82,48096.02,30.11,1.65,18818.26,67.69,0.34,20944.76,151.98,-0.14,8559.93
1611800,826.59,868.70,1.00,1,1,1,264.29,-0.18,84799.51,814.59,-0.14,77959.27,23.60,-0.94,3423.39,307.66,2.88,24203.64,216.99,-0.26,4549.37
1634400,853.07,865.12,1.00,1,1,1,1182.46,-0.13,40645.54,328.07,-0.39,22284.98,330.85,-0.23,13861.44,132.89,3.13,8041.72,89.60,1.54,11214.77
1649000,837.86,864.02,1.00,1,1,1,1044.51,-3.07,151724.12,294.88,-3.04,41386.19,331.61,3.01,45314.02,50.10,3.08,5676.15,288.32,2.69,18110.06
1664100,844.36,864.26,1.00,1,1,1,430.43,0.04,97664.76,1168.54,2.92,59196.65,284.45,-3.04,5715.27,289.03,-0.62,22031.40,78.56,-3.13,14614.57
1678000,804.82,871.57,1.00,1,1,1,2892.28,2.96,238399.80,273.64,-3.03,65803.89,117.34,2.92,12753.89,478.07,-0.47,14161.42,124.31,3.09,3316.41
1692700,836.58,863.39,1.00,1,1,1,2230.76,-0.25,348300.29,699.95,-0.23,65472.06,299.72,-1.06,26386.22,316.03,3.13,52664.46,204.75,-2.87,6477.99
1715300,830.27,865.72,1.00,1,1,1,297.73,2.79,111818.74,650.33,-0.75,15676.45,1276.03,-0.38,46885.01,350.62,3.04,2048.08,186.17,3.08,3025.49
1729000,853.83,847.27,1.00,1,1,1,2184.41,-0.66,180266.22,2041.07,-0.45,104538.42,347.10,3.05,117659.35,224.46,-3.03,10178.75,90.97,-2.33,10621.20
1744000,882.92,840.05,1.00,1,1,1,1998.56,-0.24,59597.28,1502.72,2.71,236236.59,618.85,3.06,18124.90,82.86,-0.96,18290.85,132.11,-3.08,5973.82
1758200,813.95,865.58,1.00,2,2,2,5179.23,2.79,504847.62,3179.92,2.83,119513.61,668.35,2.78,13126.50,279.87,-2.74,21710.04,145.32,-2.71,3669.46
1773200,794.55,868.55,1.00,1,1,1,1308.40,2.99,260430.57,167.57,-1.02,220583.14,1265.41,2.83,39924.07,315.08,3.08,9452.05,156.79,-2.98,2777.34
1788500,816.60,861.24,1.00,1,1,1,1517.95,-0.32,184081.69,561.57,-0.33,29162.47,301.50,-2.18,79126.45,344.69,3.05,1984.89,144.97,2.99,3151.75
1803800,810.83,863.05,1.00,1,1,1,394.89,2.84,125019.64,507.44,-2.43,60692.13,102.58,3.13,16883.12,683.11,2.86,22931.68,43.06,-1.90,9380.83
1825800,802.27,848.87,1.00,1,1,1,752.53,-2.11,34636.71,487.39,2.92,20407.84,181.96,-2.42,5738.04,109.08,-1.51,33023.99,191.54,-3.09,8177.23
1855900,786.07,868.67,1.00,1,1,1,849.92,2.26,43534.95,94.01,0.68,18282.59,253.68,2.98,6561.47,72.82,-1.68,1300.61,152.92,3.10,1382.25
1869800,805.48,851.49,1.00,1,1,1,1865.00,-0.72,194779.16,178.28,-0.46,11766.05,132.29,-0.09,27750.88,99.82,2.54,10698.56,182.78,2.76,4670.45
1884500,790.64,866.41,1.00,1,1,1,1431.57,2.35,224145.95,194.68,-0.38,1515.66,172.17,-1.03,9659.45,64.70,-2.83,5366.49,127.60,0.88,17206.55
1922500,815.01,847.69,1.00,1,1,1,808.70,-0.65,58834.20,191.37,-1.31,4540.45,232.99,1.69,10435.52,153.62,2.64,3134.58,309.57,-0.01,6562.23
1937200,793.28,856.67,1.00,1,1,1,1599.71,2.75,162577.60,880.74,2.05,72681.71,146.79,-0.58,23557.40,12.61,-0.85,11260.62,118.14,0.02,13026.72
1951600,803.13,870.40,1.00,2,2,2,1173.69,0.95,152071.13,272.86,0.39,65589.00,609.50,2.78,52330.50,104.87,1.62,7989.37,99.82,2.54,14436.34
1967000,800.78,859.80,1.00,2,2,2,705.27,-1.79,119678.66,799.15,-2.71,69604.13,205.23,2.09,30540.81,772.76,0.02,50873.01,64.70,-2.83,5122.56
1981600,781.32,860.45,1.00,2,2,2,1333.67,3.11,95169.03,518.40,2.63,44172.14,53.26,-1.14,17694.88,715.80,0.19,9456.50,153.62,2.64,8158.50
1996900,787.24,867.33,1.00,1,1,1,593.30,0.86,115472.44,645.26,0.28,70317.23,1569.58,0.08,101443.26,297.37,0.34,27706.62,12.61,-0.85,10819.03
2019200,804.65,867.13,1.00,1,1,1,780.63,-0.01,27121.91,3160.09,0.01,114072.68,1820.68,0.03,11848.51,53.26,-1.14,13315.14,104.87,1.62,5159.06
2034700,906.68,868.54,1.00,1,1,1,6583.74,0.01,374412.93,3334.02,-0.03,13490.34,620.70,0.04,77419.77,1569.58,0.08,100134.31,772.76,0.02,50544.80
2049000,903.97,864.58,1.00,1,1,1,335.60,-2.17,474342.64,2645.33,3.13,418118.19,3334.02,-0.03,189864.30,1820.68,0.03,18477.04,715.80,0.19,9654.89
2064100,828.91,869.08,1.00,1,1,1,4979.36,3.08,318862.61,4979.36,3.08,155093.04,2645.33,3.13,395966.23,620.70,0.04,79470.62,297.37,0.34,28073.59
