@RELATION gaze_labels

%@METADATA width_px 1920
%@METADATA height_px 1080
%@METADATA width_mm 540.00
%@METADATA height_mm 254.00
%@METADATA distance_mm 620.00


@ATTRIBUTE time INTEGER
@ATTRIBUTE x NUMERIC
@ATTRIBUTE y NUMERIC
@ATTRIBUTE confidence NUMERIC
@ATTRIBUTE handlabeller1 INTEGER
@ATTRIBUTE handlabeller2 INTEGER
@ATTRIBUTE handlabeller_final INTEGER
@ATTRIBUTE speed_1 numeric
@ATTRIBUTE direction_1 numeric
@ATTRIBUTE acceleration_1 numeric
@ATTRIBUTE speed_2 numeric
@ATTRIBUTE direction_2 numeric
@ATTRIBUTE acceleration_2 numeric
@ATTRIBUTE speed_4 numeric
@ATTRIBUTE direction_4 numeric
@ATTRIBUTE acceleration_4 numeric
@ATTRIBUTE speed_8 numeric
@ATTRIBUTE direction_8 numeric
@ATTRIBUTE acceleration_8 numeric
@ATTRIBUTE speed_16 numeric
@ATTRIBUTE direction_16 numeric
@ATTRIBUTE acceleration_16 numeric

%The number after speed, direction denotes the step size that was used for the calculation.
%Acceleration was calculated between two adjacent samples of the already low pass filtered velocity

@DATA
0,1180.96,834.93,1.00,1,1,1,0.00,0.00,0.00,3085.15,0.03,0.00,1091.29,0.04,0.00,676.38,0.02,0.00,618.97,-0.07,0.00
15100,1227.53,836.37,1.00,1,1,1,3085.15,0.03,204314.73,1091.29,0.04,132048.88,1628.65,3.12,180057.72,134.80,-2.80,53330.31,48.10,0.04,37829.12
30300,1214.00,836.27,1.00,1,1,1,889.80,-3.13,261497.24,1628.65,3.12,178873.13,676.38,0.02,151627.64,87.75,3.08,4226.68,458.81,-0.01,27025.90
53000,1165.81,837.40,1.00,1,1,1,2123.61,3.12,54384.95,341.04,-0.04,86766.99,134.80,-2.80,35475.23,1280.36,-0.11,60265.20,639.80,-0.03,7987.86
67700,1226.75,835.75,1.00,1,1,1,4146.89,-0.03,426564.49,1868.09,-0.08,103899.11,87.75,3.08,4370.45,618.97,-0.07,45050.25,14.85,-2.09,44002.00
81600,1219.08,833.36,1.00,1,1,1,577.63,-2.84,337917.40,465.06,3.09,167842.83,1280.36,-0.11,98418.70,48.10,0.04,41094.94,269.79,-0.12,19846.68
110200,1207.00,836.71,1.00,1,1,1,438.30,2.87,11083.52,958.87,-0.14,49737.75,571.68,-0.17,24840.24,458.81,-0.01,14363.41,651.62,-0.05,13382.54
133700,1268.52,826.19,1.00,1,1,1,2655.84,-0.17,131583.34,1958.63,-0.13,42551.57,172.47,0.20,17686.94,639.80,-0.03,7715.93,109.96,0.43,23684.21
141900,1268.57,828.70,1.00,1,1,1,306.24,1.55,331497.91,787.43,2.83,333802.40,985.49,-0.02,99757.33,14.85,-2.09,78881.63,312.83,-0.02,26699.75
177900,1235.35,836.71,1.00,1,1,1,949.39,2.90,25912.09,414.29,0.32,31901.02,118.63,1.98,28896.02,269.79,-0.12,7663.02,228.96,-0.05,2340.19
193100,1288.69,835.43,1.00,1,1,1,3510.37,-0.02,292296.71,984.91,-0.08,41165.47,539.31,3.02,32255.72,651.62,-0.05,25180.31,318.10,0.04,6095.80
208100,1264.99,834.28,1.00,1,1,1,1581.70,-3.09,339280.00,2175.68,-3.12,210440.02,450.91,-0.31,65694.83,109.96,0.43,37105.25,373.37,0.04,3686.82
222100,1225.62,833.76,1.00,2,2,2,2812.73,-3.13,88090.59,247.77,-2.20,145353.31,236.95,-0.26,15335.21,36.17,0.99,5829.57,180.00,0.11,13871.41
237200,1260.77,828.43,1.00,1,1,1,2354.68,-0.15,341078.20,2124.25,-0.03,150493.42,266.73,-0.09,3396.38,461.12,-0.06,29420.12,115.59,0.01,4363.13
258900,1303.76,831.41,1.00,1,1,1,1985.50,0.07,27671.33,597.37,0.19,71273.91,680.95,-0.01,19155.20,142.06,0.28,15233.31,184.93,-0.07,3237.05
274400,1282.60,832.61,1.00,1,1,1,1367.15,3.08,215886.25,1055.31,3.09,105896.37,492.67,0.14,13427.33,73.37,0.88,5910.82,62.43,2.12,14640.11
289500,1271.51,833.16,1.00,1,1,1,735.21,3.09,41853.29,367.58,0.04,94145.56,151.51,1.32,30309.04,408.89,0.14,23706.52,73.51,0.74,5767.80
304900,1293.80,833.09,1.00,1,1,1,1447.35,-0.00,141690.42,1162.84,0.21,52098.35,242.94,2.49,14983.72,71.49,2.56,30183.75,284.16,-3.11,22288.90
319800,1306.00,840.36,1.00,1,1,1,953.00,0.54,53547.55,817.60,2.79,127982.86,164.00,0.96,19365.62,354.76,3.10,19844.14,505.82,-3.13,14881.21
334700,1270.91,841.44,1.00,1,1,1,2356.35,3.11,214841.81,970.99,3.11,21665.70,609.03,3.13,47940.07,188.96,2.81,12193.10,649.20,3.10,9872.49
349500,1277.18,841.20,1.00,1,1,1,423.75,-0.04,187844.12,524.49,-2.74,36498.46,713.99,-3.00,10088.19,118.41,0.65,18435.98,332.26,3.05,21463.69
372400,1252.69,833.74,1.00,1,1,1,1117.59,-2.85,66564.85,541.06,-2.75,746.25,165.90,-3.05,23950.41,1030.12,3.13,49153.97,538.45,3.06,9004.62
387500,1258.17,833.35,1.00,2,2,2,363.82,-0.07,96887.85,322.66,0.76,56273.22,95.01,0.18,17260.46,1148.43,-3.09,8888.82,722.73,3.10,12326.73
402500,1259.70,840.47,1.00,2,2,2,485.18,1.36,37618.62,907.91,0.34,41851.55,1510.26,3.13,106910.71,1341.25,-3.14,13404.85,631.66,3.12,6102.61
417100,1283.49,842.36,1.00,1,1,1,1634.61,0.08,107254.57,3319.49,-3.08,287639.42,1651.08,3.14,9680.49,959.58,3.14,26146.33,533.88,3.09,6769.25
431600,1163.29,834.49,1.00,1,1,1,8307.55,-3.08,685657.34,4168.45,-3.07,58612.38,2685.81,3.14,71363.02,995.14,3.09,3822.48,463.59,3.14,5109.83
446700,1160.43,833.42,1.00,1,1,1,202.15,-2.78,537360.94,2092.98,3.04,141789.04,1833.01,-3.14,56488.94,1026.46,3.10,2178.80,448.87,3.14,977.11
461800,1100.44,841.15,1.00,1,1,1,4006.08,3.01,253538.15,532.62,2.83,104312.18,624.71,3.02,80475.97,1003.69,-3.12,4259.48,123.07,0.42,37325.90
498600,1134.10,841.84,1.00,1,1,1,915.09,0.02,133503.45,234.98,-0.06,20716.40,645.48,3.05,669.76,1044.91,-3.13,1163.45,40.90,0.22,2265.32
513400,1112.54,840.47,1.00,1,1,1,1459.87,-3.08,160435.09,801.29,-3.07,69923.94,50.82,-0.96,45926.32,25.87,-2.90,68900.06,493.23,0.10,30582.52
543300,1098.37,839.43,1.00,1,1,1,475.31,-3.07,32929.58,219.08,-2.80,19853.26,187.86,-3.06,7297.16,101.86,0.43,4258.93,406.51,0.19,3170.79
558400,1103.26,837.14,1.00,2,2,2,357.86,-0.44,53422.85,720.15,0.06,61751.20,575.74,-0.15,50327.00,1248.77,0.07,76428.13,510.56,0.13,7089.94
573500,1120.08,840.73,1.00,2,2,2,1138.69,0.21,58296.87,1518.44,-0.07,53574.61,1150.50,0.01,39045.94,1099.94,0.01,10898.25,212.15,0.31,20111.56
595300,1159.17,833.49,1.00,1,1,1,1824.02,-0.18,40718.82,1503.62,-0.01,4195.55,3025.40,0.09,86277.94,1974.85,0.03,40146.48,562.03,0.12,16305.52
610400,1175.56,840.43,1.00,1,1,1,1178.54,0.40,70383.55,4936.75,0.15,229164.06,2567.64,0.02,33346.64,2157.74,0.06,12758.46,761.77,0.09,13304.45
624900,1303.58,855.87,1.00,1,1,1,8892.81,0.12,535676.99,3931.70,0.03,78930.09,3925.26,0.06,94150.04,2279.25,0.08,8875.13,809.69,0.05,4035.31
639200,1288.74,843.76,1.00,1,1,1,1338.97,-2.46,702772.08,2967.86,-0.09,72999.14,3297.30,0.07,44000.66,1682.43,0.09,41780.66,727.01,0.06,5840.35
654500,1391.09,848.15,1.00,1,1,1,6695.24,0.04,510400.81,2708.99,0.14,44628.57,1536.66,0.04,115170.92,1328.06,0.13,23430.86,910.36,0.09,12064.04
669800,1370.88,854.95,1.00,1,1,1,1393.33,2.82,523613.69,516.28,0.68,149222.65,837.19,0.31,49813.84,1633.69,0.06,20884.86,1069.82,0.06,10581.99
691600,1405.98,860.19,1.00,1,1,1,1628.03,0.15,134763.11,818.27,2.94,55712.45,1005.19,3.05,82796.42,243.25,-0.12,63990.89,1098.37,0.08,1729.52
705900,1341.93,860.79,1.00,1,1,1,4479.69,3.13,426075.31,2782.66,-3.07,140248.76,133.89,-0.18,79623.07,338.03,0.24,9706.21,827.35,0.08,18958.59
720900,1324.65,854.53,1.00,1,1,1,1225.25,-2.79,223946.39,1295.12,-0.20,269780.13,1230.62,-3.03,90622.01,261.13,2.71,37732.60,720.05,0.12,7522.41
735500,1379.53,853.33,1.00,1,1,1,3759.82,-0.02,337140.35,322.06,-0.23,66666.50,176.23,-2.56,73766.12,19.63,0.51,18704.86,741.85,0.06,3438.93
750500,1333.93,852.34,1.00,1,1,1,3040.84,-3.12,453270.88,1306.25,3.12,108177.80,553.92,0.23,48108.14,179.29,3.12,13096.58,153.85,-0.06,39291.34
771700,1332.25,854.39,1.00,1,1,1,124.99,2.25,139892.81,782.62,0.38,96690.51,107.84,2.72,30340.80,89.65,-2.79,4783.19,625.42,0.06,22313.94
786200,1359.90,862.64,1.00,1,1,1,1989.44,0.29,140729.83,1415.49,0.04,49853.93,787.95,0.17,60674.72,196.72,0.09,19606.78,59.73,0.14,39028.75
800600,1373.12,856.20,1.00,1,1,1,1021.46,-0.45,98411.02,842.05,-0.08,40943.63,45.65,1.86,55188.41,21.77,-2.87,15150.89,114.30,-2.88,12067.04
814800,1383.90,860.68,1.00,1,1,1,822.00,0.39,54869.50,1425.38,3.12,159602.93,106.63,-2.46,9238.46,78.24,0.09,7023.06,310.67,-2.96,13872.88
829800,1331.51,856.94,1.00,1,1,1,3501.76,-3.07,285951.47,593.69,-3.03,56014.64,61.79,-0.84,8388.00,878.94,0.00,53403.77,153.22,-3.11,10717.34
866800,1353.22,857.23,1.00,1,1,1,586.94,0.01,110482.62,870.50,-0.10,39360.03,480.11,-2.96,13913.84,308.80,-0.24,15788.02,136.91,2.91,1101.96
881700,1376.46,852.47,1.00,1,1,1,1592.24,-0.20,68893.33,294.91,-2.69,76016.35,1419.95,-0.02,127031.59,221.32,-2.86,34414.67,278.22,2.99,9547.09
896600,1345.31,853.41,1.00,1,1,1,2092.11,3.11,246377.73,2074.91,0.03,157510.47,683.94,-0.12,49858.73,413.09,-2.90,12891.50,146.67,2.96,8838.43
925600,1467.52,854.83,1.00,2,2,2,4214.63,0.01,217431.62,1227.05,-0.04,29482.50,470.41,-2.98,39430.89,206.04,3.06,7823.55,171.16,3.06,990.97
948100,1408.44,850.68,1.00,3,3,3,2632.32,-3.07,304185.64,3404.38,-3.08,205601.98,347.95,-2.82,6141.41,473.80,3.05,11902.38,202.89,-3.08,1818.42
963600,1338.44,846.28,1.00,1,1,1,4525.18,-3.08,122130.62,2973.73,-3.07,27790.08,2499.40,3.11,140353.78,544.85,2.98,5123.00,349.20,2.99,10104.29
978500,1318.25,844.45,1.00,1,1,1,1360.20,-3.05,212463.20,1427.17,2.83,116493.08,2026.85,3.04,33777.18,375.92,3.02,11415.95,321.11,-3.10,4826.63
993500,1297.88,859.53,1.00,1,1,1,1690.05,2.50,75199.35,1232.50,2.60,23485.35,710.89,2.68,92103.02,1433.72,3.12,70691.24,98.21,2.77,15640.32
1008700,1286.28,863.51,1.00,1,1,1,806.40,2.81,62679.85,200.77,1.16,80517.86,501.69,2.61,14093.41,844.23,3.06,39034.30,221.75,3.05,8560.02
1023400,1300.29,865.03,1.00,1,1,1,958.11,0.11,117180.22,238.96,-0.55,22642.85,229.10,-3.06,23285.61,552.76,2.77,23958.24,215.40,-3.06,2647.65
1038500,1292.34,859.77,1.00,1,1,1,630.76,-2.56,102376.06,579.30,-2.75,49315.72,233.99,-0.27,30175.84,236.95,2.73,20943.17,219.85,-0.29,28333.63
1053500,1284.18,858.35,1.00,1,1,1,552.39,-2.97,16898.63,243.46,-0.05,53727.43,417.55,2.90,43431.12,82.95,0.83,18332.57,74.36,-2.43,17850.55
1075400,1301.32,859.31,1.00,1,1,1,783.60,0.06,60903.34,469.56,2.26,30105.15,53.51,-1.99,18785.16,60.76,-0.10,3072.68,176.73,-0.19,10530.20
1090400,1273.11,871.67,1.00,1,1,1,2052.95,2.73,184967.86,367.80,-2.88,30617.90,340.96,0.41,25464.50,201.11,-0.75,10477.23,674.96,-0.17,33218.04
1104700,1290.90,856.54,1.00,1,1,1,1633.47,-0.70,255087.11,1093.64,-0.14,100680.59,135.87,2.71,30996.35,850.62,-0.21,47987.77,500.55,-0.06,12985.37
1119800,1304.96,867.25,1.00,1,1,1,1170.50,0.65,118912.51,226.04,1.12,69243.23,868.69,-0.48,66519.15,1270.40,-0.10,28868.94,473.93,-0.13,2964.62
1135300,1293.94,862.75,1.00,2,2,2,767.94,-2.75,124023.13,798.20,-0.95,59846.28,1700.37,-0.18,58693.95,1190.65,-0.11,5319.81,668.52,-0.21,12847.05
1149900,1318.89,847.68,1.00,2,2,2,1996.67,-0.54,173369.85,3075.81,-0.24,173134.75,2237.38,-0.17,36807.32,1881.48,-0.23,48781.66,398.04,-0.18,18555.88
1171900,1403.36,836.29,1.00,3,3,3,3874.18,-0.13,99618.72,3630.81,-0.04,39044.33,2351.55,-0.13,6606.36,1136.20,-0.12,34572.89,514.97,-0.16,5327.91
1186800,1452.76,842.21,1.00,1,1,1,3339.09,0.12,70800.86,1579.44,0.12,140057.79,2789.32,-0.16,29880.23,850.96,-0.20,19869.61,541.85,-0.15,1871.16
1203400,1452.76,842.21,1.00,1,1,1,0.00,0.00,201149.74,1910.06,-0.43,59799.77,649.67,-0.00,129541.53,1154.88,-0.21,18317.16,458.20,-0.15,5039.24
1218600,1508.06,817.10,1.00,1,1,1,3996.05,-0.43,262897.90,132.01,-1.49,121663.97,366.04,3.14,66822.77,578.78,-0.04,39091.30,750.71,-0.27,19828.21
1248700,1453.25,836.25,1.00,1,1,1,1928.89,2.81,196666.51,1940.41,2.85,66206.67,299.40,-0.75,20621.18,234.55,-0.02,11437.94,566.26,-0.17,6502.58
1263500,1424.68,842.36,1.00,1,1,1,1974.16,2.93,16810.65,511.15,-0.57,164608.03,1003.55,2.86,86371.56,92.95,-2.63,21508.25,850.96,-0.20,19295.80
1293600,1472.57,823.86,1.00,1,1,1,1705.65,-0.37,121874.38,195.70,2.96,23132.39,158.88,-3.09,28413.22,146.24,-3.04,2367.17,1154.88,-0.21,10101.82
1315500,1414.68,844.22,1.00,1,1,1,2802.29,2.80,205819.52,945.89,2.79,34408.52,209.77,-0.44,16323.81,191.26,-3.04,2055.86,578.78,-0.04,27131.86
1329800,1440.39,835.55,1.00,1,1,1,1897.42,-0.33,328644.73,936.91,-0.35,131663.87,690.02,2.78,62884.73,58.53,-2.02,11764.21,234.55,-0.02,24075.67
1344200,1439.97,835.10,1.00,1,1,1,42.54,-2.32,132996.99,378.57,2.74,91323.02,1196.35,-0.44,130903.25,209.77,-0.44,15154.34,92.95,-2.63,22105.70
1359500,1430.04,839.95,1.00,1,1,1,722.41,2.69,46496.63,1449.36,-0.50,119381.23,192.34,-0.63,65877.17,690.02,2.78,58774.61,146.24,-3.04,4656.97
1374400,1478.41,814.16,1.00,1,1,1,3678.85,-0.49,295361.06,756.59,-0.52,46508.39,1449.36,-0.50,84483.27,1196.35,-0.44,126510.52,191.26,-3.04,3021.69
1389300,1449.66,828.85,1.00,1,1,1,2166.48,2.67,392289.60,2166.48,2.67,196144.80,756.59,-0.52,46508.39,192.34,-0.63,67645.69,58.53,-2.02,11290.48
