@RELATION gaze_labels

%@METADATA width_px 1920
%@METADATA height_px 1080
%@METADATA width_mm 540.00
%@METADATA height_mm 254.00
%@METADATA distance_mm 620.00


@ATTRIBUTE time INTEGER
@ATTRIBUTE x NUMERIC
@ATTRIBUTE y NUMERIC
@ATTRIBUTE confidence NUMERIC
@ATTRIBUTE handlabeller1 INTEGER
@ATTRIBUTE handlabeller2 INTEGER
@ATTRIBUTE handlabeller_final INTEGER
@ATTRIBUTE speed_1 numeric
@ATTRIBUTE direction_1 numeric
@ATTRIBUTE acceleration_1 numeric
@ATTRIBUTE speed_2 numeric
@ATTRIBUTE direction_2 numeric
@ATTRIBUTE acceleration_2 numeric
@ATTRIBUTE speed_4 numeric
@ATTRIBUTE direction_4 numeric
@ATTRIBUTE acceleration_4 numeric
@ATTRIBUTE speed_8 numeric
@ATTRIBUTE direction_8 numeric
@ATTRIBUTE acceleration_8 numeric
@ATTRIBUTE speed_16 numeric
@ATTRIBUTE direction_16 numeric
@ATTRIBUTE acceleration_16 numeric

%The number after speed, direction denotes the step size that was used for the calculation.
%Acceleration was calculated between two adjacent samples of the already low pass filtered velocity

@DATA
0,1364.70,862.63,1.00,1,1,1,0.00,0.00,0.00,1723.09,2.88,0.00,520.28,2.37,0.00,1013.39,2.96,0.00,1008.29,3.03,0.00
14000,1341.42,868.94,1.00,1,1,1,1723.09,2.88,123078.21,520.28,2.37,92299.42,816.51,2.93,33174.11,694.52,3.03,23133.66,319.60,2.94,49332.37
29000,1353.86,873.12,1.00,1,1,1,874.76,0.32,166549.18,816.51,2.93,30962.50,1013.39,2.96,13258.74,842.48,3.12,10988.81,707.32,3.08,26227.76
44800,1316.84,874.24,1.00,1,1,1,2344.09,3.11,201199.44,1584.97,3.13,50788.82,694.52,3.03,20498.18,653.43,3.08,12106.98,119.03,-0.10,52296.87
59700,1305.20,873.56,1.00,1,1,1,782.35,-3.08,105126.10,579.23,-3.11,67543.33,842.48,3.12,11062.56,1008.29,3.03,23999.96,342.80,-0.02,15053.67
74800,1299.47,873.74,1.00,1,1,1,379.84,3.11,26855.74,74.33,2.90,33642.64,653.43,3.08,12668.23,319.60,2.94,45738.62,324.98,-0.01,1188.47
89300,1303.06,874.09,1.00,1,1,1,249.19,0.10,43297.24,717.25,3.03,44384.87,1007.79,3.09,24442.18,707.32,3.08,27132.17,185.04,-0.31,10887.26
111400,1273.39,876.78,1.00,1,1,1,1348.13,3.05,72112.39,1763.86,3.10,47498.79,62.17,0.99,47077.89,119.03,-0.10,37388.71,259.26,-0.21,3508.81
125900,1238.57,876.93,1.00,1,1,1,2401.58,3.14,73433.47,960.00,0.01,187779.12,586.02,3.02,42468.64,342.80,-0.02,15468.95,432.23,3.00,47660.12
140900,1301.71,877.18,1.00,1,1,1,4209.35,0.00,440725.43,880.68,0.07,6443.15,990.85,-0.07,105087.00,324.98,-0.01,1196.39,576.93,3.02,9674.05
155500,1264.56,878.87,1.00,1,1,1,2546.70,3.10,462611.24,1028.04,-0.15,17509.13,1860.58,-0.04,59632.84,185.04,-0.31,10812.69,301.86,3.12,19050.30
170400,1331.71,872.78,1.00,1,1,1,4525.18,-0.09,474511.81,2858.00,-0.07,123089.37,617.71,-0.10,83526.87,259.26,-0.21,5204.34,261.80,-3.07,3140.42
184800,1348.07,872.65,1.00,1,1,1,1136.03,-0.01,235714.51,293.01,0.03,178248.40,941.70,-0.20,23089.60,144.58,0.05,8676.94,131.73,-3.08,9033.15
207300,1342.52,873.11,1.00,2,2,2,247.57,3.06,61468.18,592.99,-2.86,39108.92,390.33,-3.03,58626.58,838.20,3.06,43632.97,215.19,3.03,3913.33
222600,1326.53,866.48,1.00,2,2,2,1131.90,-2.75,60057.79,1210.91,-3.06,41770.19,1358.41,3.09,63759.12,53.85,-0.56,57937.11,131.91,3.10,5498.64
238000,1305.49,869.91,1.00,1,1,1,1384.29,2.98,47445.46,2394.56,2.98,81543.11,2465.63,3.05,71999.08,586.26,-3.10,41006.91,96.00,-0.18,14761.50
252100,1256.80,877.77,1.00,1,1,1,3497.97,2.98,149906.89,3834.10,2.99,102136.85,698.11,2.99,125475.98,497.12,-3.13,6384.59,97.65,0.04,1505.92
266700,1196.63,886.03,1.00,1,1,1,4159.24,3.01,45717.63,293.36,-0.21,282664.30,754.47,-3.13,8607.10,676.79,3.07,12775.04,24.16,-3.10,8343.11
302600,1271.28,874.67,1.00,1,1,1,2103.24,-0.15,174438.22,1022.75,-0.33,20393.02,130.20,-0.54,24184.87,390.32,3.00,8051.06,17.60,-0.24,1151.45
317300,1245.66,869.45,1.00,1,1,1,1778.93,-2.94,260041.62,113.94,-2.44,73895.61,437.59,-0.13,21925.32,32.95,2.79,24364.62,123.69,2.76,9602.12
347100,1267.40,871.41,1.00,1,1,1,732.56,0.09,84170.85,300.56,2.17,11122.37,87.46,3.01,17619.46,60.84,0.02,3097.76,221.25,2.92,3383.92
362100,1238.02,880.53,1.00,1,1,1,2051.16,2.84,182844.46,143.08,2.22,10514.36,673.73,0.04,50667.60,608.75,-0.09,36554.39,147.97,2.77,5186.77
383900,1264.23,875.61,1.00,2,2,2,1223.56,-0.19,149981.61,1719.75,-0.14,83655.00,100.05,1.70,31619.73,24.81,2.12,28616.72,106.35,1.05,8952.26
398800,1300.52,871.75,1.00,2,2,2,2449.00,-0.11,82761.86,113.83,0.78,110963.77,855.11,-0.06,59025.31,394.55,0.30,26929.89,85.91,0.74,2394.83
412900,1266.58,877.94,1.00,2,2,2,2446.85,2.96,346983.73,258.61,2.41,20488.71,95.14,0.37,54599.68,176.84,0.74,17463.07,148.56,0.48,4897.49
428600,1294.77,876.88,1.00,1,1,1,1796.68,-0.04,269616.67,96.77,-0.10,21763.23,241.70,1.70,15144.00,500.25,0.12,23627.23,356.58,-0.03,15202.42
443000,1269.48,877.65,1.00,1,1,1,1757.05,3.11,246785.63,335.51,1.16,22216.95,306.38,0.47,22245.73,637.75,0.22,10294.03,257.16,0.23,8819.57
458000,1298.66,885.94,1.00,1,1,1,2022.96,0.28,249049.74,496.46,0.56,19421.12,219.90,0.94,9941.66,220.20,0.57,29146.06,452.35,0.16,13119.90
479000,1284.61,887.15,1.00,1,1,1,671.48,3.06,126737.92,143.59,0.50,16819.10,1129.17,0.21,46559.29,272.14,0.61,2528.04,271.59,0.34,9149.73
493100,1303.08,888.37,1.00,1,1,1,1312.46,0.07,140341.79,1952.99,0.10,129211.40,384.47,0.02,53543.92,64.10,0.75,14810.02,373.96,0.15,8457.71
508400,1341.76,892.78,1.00,1,1,1,2544.20,0.11,80703.82,693.28,-0.10,83654.79,241.61,0.81,17961.00,539.69,0.18,31814.27,370.96,0.20,1213.49
522800,1323.57,886.38,1.00,1,1,1,1338.49,-2.80,268094.13,1623.56,3.04,160891.89,93.50,-1.93,22890.10,522.38,0.04,5490.57,226.99,0.24,10038.40
537700,1294.41,897.40,1.00,1,1,1,2092.37,2.78,92124.08,629.57,-2.98,69057.58,48.01,-2.36,3615.35,391.92,0.16,9481.96,325.87,0.19,6716.88
559300,1300.91,882.57,1.00,1,1,1,749.63,-1.16,123653.86,1225.62,-0.15,84919.80,656.46,0.05,32080.13,244.38,0.21,6874.07,248.98,0.41,4604.30
574900,1339.48,890.54,1.00,1,1,1,2524.66,0.20,158946.43,2207.24,0.09,67781.51,580.18,-0.07,6614.30,110.65,0.09,8671.48,257.77,0.17,3843.77
589500,1367.31,888.46,1.00,1,1,1,1911.29,-0.07,59206.95,246.15,2.52,164355.17,571.72,0.36,16699.62,250.33,-0.00,9620.94,223.71,0.17,2335.93
605100,1333.43,894.85,1.00,1,1,1,2210.10,2.96,263779.80,1126.72,2.96,58280.23,274.41,0.21,19444.20,401.84,-0.05,9756.86,374.47,0.03,9993.35
620100,1333.43,894.85,1.00,1,1,1,0.00,0.00,147340.27,733.20,-0.04,123669.76,111.59,-2.88,25726.44,421.98,0.36,11265.36,193.73,0.12,12153.03
635600,1355.78,893.99,1.00,1,1,1,1442.75,-0.04,93080.40,604.19,-0.32,14693.58,255.79,-0.02,23507.62,20.43,-0.03,26008.73,135.39,3.12,21184.45
665000,1359.17,886.29,1.00,1,1,1,286.50,-1.16,45656.29,27.25,2.79,21477.03,310.95,0.36,4082.67,60.43,2.12,2499.68,21.08,1.61,4614.99
687300,1354.45,894.48,1.00,1,1,1,423.89,2.09,31811.74,477.34,1.68,20895.12,141.79,-2.88,20281.25,365.24,-0.08,18101.57,47.82,-2.58,2735.72
702100,1357.27,903.89,1.00,1,1,1,664.09,1.28,32677.23,282.82,-2.81,40944.17,131.99,1.27,16217.74,156.32,0.00,14182.74,90.14,3.00,4182.53
731300,1342.68,890.46,1.00,1,1,1,679.41,-2.40,44369.48,199.44,-0.96,13315.08,487.42,-0.12,16483.02,326.44,-3.13,16532.96,106.78,-0.91,6264.06
746800,1362.39,896.59,1.00,1,1,1,1331.85,0.30,126934.87,1578.92,-0.01,94994.40,111.65,-1.37,29999.48,243.94,2.97,6236.96,195.55,2.85,18665.96
761500,1390.36,890.14,1.00,1,1,1,1952.73,-0.23,71178.74,100.25,-2.68,113531.21,595.83,3.06,43215.31,507.50,-3.08,18778.88,263.84,2.89,4690.60
784000,1359.05,894.92,1.00,2,2,2,1407.56,2.99,149243.98,2341.05,3.10,100166.46,582.89,-3.04,4812.92,587.55,-2.93,5089.69,94.09,-3.03,7950.54
799100,1302.41,893.64,1.00,2,2,2,3752.42,-3.12,157532.07,1186.10,-3.07,77390.47,1592.07,-3.14,67154.48,222.22,-0.99,46250.36,183.97,3.05,6203.98
814200,1323.31,892.52,1.00,3,3,3,1386.59,-0.05,340136.89,669.56,-2.96,34845.15,1388.77,-3.04,16783.76,384.80,2.98,37013.17,187.28,2.92,1692.58
829200,1282.58,890.04,1.00,1,1,1,2720.82,-3.08,273427.40,1592.07,-3.01,61598.57,1029.57,-0.45,155214.50,1030.79,2.96,43071.56,111.62,-2.80,7363.62
844500,1275.48,886.30,1.00,1,1,1,524.34,-2.66,147259.02,2629.64,-0.30,269972.81,251.96,2.24,82412.13,416.40,-3.08,41401.26,202.80,-3.00,6264.07
859300,1358.18,866.61,1.00,1,1,1,5744.52,-0.23,415483.23,1427.26,0.44,124802.86,531.31,2.32,18996.10,40.77,1.50,28612.74,188.28,3.02,3627.47
874300,1313.96,904.42,1.00,1,1,1,3879.20,2.43,624357.82,3612.51,2.69,309846.43,468.96,0.18,58635.15,121.97,2.79,7810.82,248.57,3.14,4389.50
889200,1260.78,913.30,1.00,1,1,1,3618.15,2.98,135743.07,402.23,-2.12,241178.47,975.33,2.62,91761.51,347.84,-0.13,31372.51,175.51,-2.88,6142.79
911100,1306.22,891.80,1.00,1,1,1,2295.36,-0.44,267576.73,1240.72,-0.33,63195.22,124.97,-2.24,44104.19,234.72,0.34,7942.21,57.24,-1.76,7259.37
925000,1302.75,898.76,1.00,1,1,1,559.23,2.03,198328.69,221.64,1.17,89560.21,1076.15,-0.41,80131.43,549.44,2.70,52864.81,184.67,-0.17,13999.93
940900,1308.82,897.88,1.00,1,1,1,385.57,-0.14,52900.18,895.96,-0.54,59914.20,88.39,2.14,72389.22,131.69,-2.66,30274.52,548.62,-0.20,22901.61
955600,1326.20,884.55,1.00,1,1,1,1489.83,-0.65,79486.10,191.90,-2.85,70340.49,131.74,-2.84,9327.27,676.32,-0.39,52213.37,729.05,-0.14,12551.31
970600,1303.36,896.22,1.00,1,1,1,1709.51,2.67,212414.87,1082.95,2.78,62563.25,161.64,-3.02,2621.65,356.07,-0.24,21939.23,749.53,-0.13,1440.57
986400,1295.02,896.39,1.00,1,1,1,528.46,3.12,79457.31,138.88,3.03,60069.34,295.35,-0.32,28283.11,349.87,-0.27,765.89,256.42,0.07,31726.97
1001300,1299.13,896.69,1.00,1,1,1,276.59,0.07,53977.67,1391.98,-0.35,102507.56,652.68,-0.30,23986.08,1079.32,-0.22,49001.68,617.95,-0.28,25977.29
1025100,1345.69,878.11,1.00,1,1,1,2106.41,-0.38,78216.17,1101.33,-0.29,12556.77,688.87,-0.19,3474.26,1031.39,-0.15,3691.02,602.42,-0.22,1577.92
1055300,1356.11,879.68,1.00,2,2,2,349.06,0.15,60054.38,208.35,0.87,34271.14,1828.10,-0.20,37723.49,1180.39,-0.21,5369.55,434.58,-0.17,5633.25
1070400,1351.81,885.29,1.00,1,1,1,468.74,2.22,46817.27,2700.58,-0.16,172033.31,1604.26,-0.12,17164.64,847.39,-0.17,22146.20,486.77,-0.20,3592.55
1100700,1477.25,860.74,1.00,1,1,1,4218.53,-0.19,151166.11,3122.28,-0.18,14112.55,1783.84,-0.16,6363.47,1169.33,-0.22,10715.14,549.56,-0.22,2101.51
1115000,1488.82,860.44,1.00,1,1,1,809.82,-0.03,239344.61,365.60,-0.27,192895.55,1011.38,-0.16,54018.98,556.10,-0.04,44059.81,441.16,-0.15,7897.29
1130000,1487.57,857.88,1.00,1,1,1,190.12,-2.03,60373.81,1554.79,2.94,127983.50,178.37,-0.49,56316.36,517.10,-0.11,3793.07,395.65,-0.13,3095.31
1151700,1432.96,872.06,1.00,1,1,1,2600.08,2.89,118378.52,73.80,-1.58,72396.96,881.46,2.89,48638.54,630.76,-0.16,5360.31,135.97,0.07,12161.98
1166300,1487.55,855.20,1.00,1,1,1,3913.51,-0.30,446026.24,98.03,1.77,11705.96,934.99,2.92,4034.42,130.97,2.94,52166.51,669.89,3.14,55173.42
1181100,1432.38,874.88,1.00,1,1,1,3958.09,2.80,531741.25,2127.13,2.88,140856.75,100.15,-0.10,69897.77,268.47,3.02,9345.74,471.34,3.06,13731.27
1195300,1428.03,871.41,1.00,1,1,1,391.89,-2.47,265272.26,250.83,-0.49,167058.10,471.17,2.82,40093.24,552.96,2.82,20743.77,577.00,3.10,7566.27
1210000,1438.77,871.46,1.00,1,1,1,730.21,0.00,72486.23,1143.14,-0.22,61507.79,352.03,-0.45,55895.94,811.90,2.87,17768.92,431.27,-3.13,10106.94
1225100,1461.29,864.01,1.00,2,2,2,1570.75,-0.32,60185.59,430.11,-0.43,48193.80,206.57,2.38,36577.45,2806.33,3.03,133063.03,855.57,3.06,28366.97
1247600,1453.49,864.76,1.00,2,2,2,348.16,3.05,84970.18,1238.43,2.77,74136.76,1598.51,2.88,63132.04,1605.28,3.08,53532.05,825.47,3.07,1415.18
1262700,1417.92,880.98,1.00,2,2,2,2588.61,2.71,149818.16,4143.03,2.86,192844.29,4485.16,3.05,193490.32,1654.07,3.08,3234.08,599.08,2.97,15680.10
1277500,1334.50,899.21,1.00,3,3,3,5769.91,2.93,221990.38,7269.26,3.09,227774.44,3324.86,3.04,78429.96,1415.27,3.08,16160.16,811.90,2.87,15125.03
1307300,1094.14,897.65,1.00,1,1,1,8065.72,-3.14,92181.38,2869.28,-3.07,148914.10,3005.36,3.12,13251.75,1461.77,3.07,1762.13,2806.33,3.03,67424.55
1322400,1206.03,889.56,1.00,1,1,1,7428.93,-0.07,1025343.40,3320.15,-0.11,408198.02,1318.63,-3.00,113936.55,1349.67,3.08,7521.76,1605.28,3.08,79766.30
1337400,1193.50,886.91,1.00,1,1,1,853.51,-2.93,550167.12,580.44,-0.28,183315.07,2265.37,-0.12,237058.67,647.86,3.08,46787.58,1654.07,3.08,3255.64
1359900,1226.97,883.61,1.00,1,1,1,1494.55,-0.10,103226.82,1398.20,-0.13,36801.21,891.19,-0.22,61459.10,1318.63,-3.00,30957.27,1415.27,3.08,10629.80
1374000,1244.23,880.16,1.00,1,1,1,1248.45,-0.20,19904.17,1298.84,-0.19,9205.77,1546.46,0.00,50089.54,2265.37,-0.12,252190.07,1461.77,3.07,3724.21
1388600,1263.54,876.41,1.00,1,1,1,1347.51,-0.19,6801.92,1688.01,0.09,39344.07,1298.84,-0.19,25358.81,891.19,-0.22,94714.36,1349.67,3.08,7779.35
1417700,1317.68,886.94,1.00,1,1,1,1895.35,0.19,28163.60,1895.35,0.19,9409.35,1688.01,0.09,19739.64,1546.46,0.00,24270.19,647.86,3.08,24117.31
