@RELATION gaze_labels

%@METADATA width_px 1920
%@METADATA height_px 1080
%@METADATA width_mm 540.00
%@METADATA height_mm 254.00
%@METADATA distance_mm 620.00


@ATTRIBUTE time INTEGER
@ATTRIBUTE x NUMERIC
@ATTRIBUTE y NUMERIC
@ATTRIBUTE confidence NUMERIC
@ATTRIBUTE handlabeller1 INTEGER
@ATTRIBUTE handlabeller2 INTEGER
@ATTRIBUTE handlabeller_final INTEGER
@ATTRIBUTE speed_1 numeric
@ATTRIBUTE direction_1 numeric
@ATTRIBUTE acceleration_1 numeric
@ATTRIBUTE speed_2 numeric
@ATTRIBUTE direction_2 numeric
@ATTRIBUTE acceleration_2 numeric
@ATTRIBUTE speed_4 numeric
@ATTRIBUTE direction_4 numeric
@ATTRIBUTE acceleration_4 numeric
@ATTRIBUTE speed_8 numeric
@ATTRIBUTE direction_8 numeric
@ATTRIBUTE acceleration_8 numeric
@ATTRIBUTE speed_16 numeric
@ATTRIBUTE direction_16 numeric
@ATTRIBUTE acceleration_16 numeric

%The number after speed, direction denotes the step size that was used for the calculation.
%Acceleration was calculated between two adjacent samples of the already low pass filtered velocity

@DATA
0,493.18,919.17,1.00,1,1,1,0.00,0.00,0.00,2300.86,-2.85,0.00,388.45,-1.52,0.00,746.37,-2.71,0.00,132.53,-0.79,0.00
14300,461.65,909.75,1.00,1,1,1,2300.86,-2.85,160899.01,388.45,-1.52,156799.63,434.95,-1.43,4114.28,66.83,1.27,55453.61,50.94,-1.22,6198.10
29000,493.79,907.92,1.00,1,1,1,2190.05,-0.06,300915.38,434.95,-1.43,4002.33,746.37,-2.71,50822.85,147.32,-0.29,10940.50,238.05,-2.72,16325.29
43600,463.46,897.13,1.00,1,1,1,2204.99,-2.80,295074.85,1254.60,-2.93,89105.52,66.83,1.27,54314.15,418.30,0.54,23034.67,134.74,0.72,25273.79
65700,448.73,898.44,1.00,1,1,1,668.92,3.05,73357.62,455.39,1.60,63742.17,147.32,-0.29,7277.16,132.53,-0.79,18445.68,163.65,-3.03,12884.47
80600,462.98,913.98,1.00,1,1,1,1414.45,0.83,127313.70,1846.65,0.12,124842.33,418.30,0.54,22570.89,50.94,-1.22,5948.51,147.38,-2.06,9768.20
95400,503.17,905.13,1.00,1,1,1,2780.68,-0.22,162537.33,829.58,-0.11,71305.67,960.19,0.16,40011.19,238.05,-2.72,16214.99,293.00,-3.11,17139.54
110200,487.40,911.39,1.00,1,1,1,1146.52,2.76,264642.13,93.72,0.95,53215.29,173.83,-1.49,66764.17,134.74,0.72,24932.25,134.79,-2.30,15079.19
124800,504.77,907.37,1.00,1,1,1,1221.62,-0.23,161742.96,841.75,-2.83,62933.48,596.17,-2.88,40509.35,163.65,-3.03,19503.20,163.77,-2.54,3157.29
139600,463.85,903.76,1.00,1,1,1,2775.68,-3.05,267251.69,1129.75,-2.84,19475.44,163.33,-2.91,29251.26,147.38,-2.06,9834.20,111.35,-2.57,3552.92
161700,464.97,895.00,1.00,1,1,1,399.55,-1.44,127571.71,383.31,0.37,68429.16,1165.16,-3.00,45365.28,293.00,-3.11,11478.06,85.06,-0.37,7936.22
176200,476.91,908.90,1.00,1,1,1,1263.71,0.86,107584.41,1246.67,3.11,110738.63,171.68,-2.58,69675.87,134.79,-2.30,15391.18,536.19,-0.15,31277.31
191100,428.33,896.22,1.00,1,1,1,3369.22,-2.89,299764.20,861.35,-2.68,42513.71,157.01,1.39,20200.81,340.92,-2.87,16048.22,1161.22,-0.07,42158.59
205500,454.26,897.77,1.00,1,1,1,1803.49,0.06,357654.40,1348.29,0.20,152252.07,155.83,-1.78,21722.70,192.84,-2.77,10435.32,1338.74,-0.09,12399.16
220100,466.65,904.01,1.00,1,1,1,950.51,0.47,68771.16,389.13,-0.06,66938.97,351.02,-0.08,27544.30,335.02,0.08,35796.75,894.68,-0.09,30415.20
257000,474.26,896.59,1.00,2,2,2,288.21,-0.77,24367.70,276.89,-2.36,16517.10,210.58,-2.87,15003.27,907.26,-0.25,16239.54,1091.08,-0.08,5331.76
271700,456.53,893.92,1.00,2,2,2,1219.69,-2.99,96097.95,894.15,-3.04,47660.02,521.95,-0.10,49151.19,2184.18,-0.06,88607.12,1105.41,-0.05,2514.66
301400,434.78,892.43,1.00,3,3,3,734.09,-3.07,16549.46,1354.02,0.09,75692.68,1808.16,-0.16,43352.84,2415.30,-0.04,7896.91,1255.00,-0.02,5121.15
316200,516.57,899.08,1.00,3,3,3,5544.21,0.08,424206.07,5012.78,-0.10,249444.63,3997.16,-0.06,148993.37,1804.14,-0.07,41489.62,1341.33,-0.01,5989.60
338500,619.75,873.16,1.00,1,1,1,4771.00,-0.25,82736.38,7197.38,-0.09,98002.48,6188.11,-0.03,98488.44,2318.08,-0.03,23419.21,1281.54,-0.03,2918.82
353200,781.70,874.18,1.00,1,1,1,11017.05,0.01,442656.57,7702.72,0.03,71775.71,3657.34,-0.07,172608.52,2606.48,-0.00,20075.91,1431.25,0.01,10773.63
367900,846.11,880.14,1.00,1,1,1,4400.05,0.09,451979.50,812.81,2.79,575614.19,3060.36,0.08,52645.21,3009.00,0.01,27456.57,1227.61,-0.03,14370.45
382700,759.21,882.49,1.00,1,1,1,5873.38,3.11,692939.02,1569.92,2.98,53309.63,754.24,0.44,160106.06,2519.02,-0.02,33507.77,1298.04,-0.02,4793.67
397600,800.06,887.45,1.00,1,1,1,2761.33,0.12,578133.48,2177.36,0.17,248295.05,309.78,2.28,59598.86,1815.54,0.12,51056.52,1323.72,0.02,4199.90
411800,821.70,892.98,1.00,1,1,1,1573.14,0.25,85801.35,936.48,0.24,87738.23,1382.88,0.11,111127.04,506.96,0.44,94707.91,1394.02,0.01,5143.00
433700,832.86,895.63,1.00,1,1,1,523.71,0.23,47924.30,760.11,-0.02,12883.34,701.55,0.26,31834.50,319.64,2.97,36068.59,1419.95,-0.03,2389.00
448400,849.51,892.50,1.00,1,1,1,1152.99,-0.19,48124.63,413.65,0.31,26564.80,288.06,0.44,28673.92,652.67,0.16,65346.98,913.89,-0.01,34446.33
463100,844.46,899.29,1.00,1,1,1,575.89,2.21,110481.05,461.92,2.46,52426.73,464.37,-2.82,51091.67,293.87,0.43,25761.25,582.52,0.13,23586.65
478000,838.93,901.16,1.00,1,1,1,391.53,2.82,22661.38,1333.51,-2.83,77261.14,171.49,2.87,22515.26,115.17,0.20,12343.90,916.85,2.86,98632.05
492800,806.79,887.06,1.00,1,1,1,2371.43,-2.73,141797.92,202.56,-1.44,88683.66,152.97,2.68,2393.96,277.72,-2.76,26450.14,1145.17,2.93,16105.28
507600,839.73,895.21,1.00,1,1,1,2293.14,0.24,314027.19,893.57,0.53,66864.57,85.11,-1.98,12061.24,777.14,3.10,36233.36,1271.12,3.11,17088.25
529800,835.30,903.79,1.00,1,1,1,434.97,2.05,109508.61,85.58,2.90,43091.51,115.55,-2.52,2736.19,642.89,-3.05,7370.08,1314.39,3.09,2244.37
544400,836.68,895.97,1.00,2,2,2,543.87,-1.40,66286.27,1388.94,-2.59,91109.91,1322.47,3.13,84348.73,2027.59,3.00,96595.24,1357.00,3.13,4536.44
559100,800.57,882.58,1.00,2,2,2,2619.58,-2.79,175350.24,2868.35,3.14,124971.44,1228.59,-2.97,16839.01,1843.04,2.92,16248.55,1520.88,3.13,11150.46
573900,752.06,896.35,1.00,2,2,2,3407.11,2.87,136207.02,1276.66,2.89,112050.22,3651.76,2.98,170228.76,2889.97,-3.14,78847.94,1377.87,3.11,9789.09
588500,764.19,891.80,1.00,2,2,2,886.96,-0.36,293953.54,4119.01,2.92,194729.52,3280.66,2.90,31950.67,2663.17,3.13,15673.49,1611.47,-3.11,17177.50
626400,541.06,943.68,1.00,1,1,1,6044.39,2.91,182713.37,4411.53,2.90,8037.41,4166.88,-3.13,33705.98,2613.51,3.14,1315.97,1510.96,-3.12,2676.89
640600,540.97,946.58,1.00,1,1,1,203.99,1.60,422211.79,4760.25,-2.77,196116.24,3555.07,3.10,45325.34,2502.15,3.09,11110.13,1495.12,3.12,4581.76
655300,412.89,893.70,1.00,1,1,1,9426.39,-2.75,646283.49,2829.30,-2.82,131845.89,1624.67,-2.75,149200.98,1844.71,3.11,44818.31,1545.68,-3.13,4634.88
684400,423.59,906.84,1.00,1,1,1,582.43,0.89,341667.66,429.71,0.24,111947.74,1884.80,-2.85,10698.65,2363.38,-3.13,18118.32,1580.75,-3.12,1324.43
699500,431.33,898.25,1.00,1,1,1,765.76,-0.84,68268.11,763.76,-2.99,78967.36,535.88,0.27,160301.06,1047.19,-2.78,94258.73,1471.35,-3.14,7362.02
721000,395.96,902.55,1.00,1,1,1,1656.83,3.02,106520.47,666.94,0.29,66390.44,710.10,-2.67,57668.97,1226.61,-2.84,8974.12,887.97,3.07,27434.91
735400,454.27,905.10,1.00,1,1,1,4052.64,0.04,395382.83,750.55,-2.27,94297.42,408.28,-2.92,22827.01,191.90,-3.06,72213.72,244.59,-2.75,47055.73
750300,381.84,885.70,1.00,1,1,1,5032.25,-2.88,606145.17,1707.10,-2.89,79047.47,325.35,-2.81,6181.47,326.40,-2.87,9552.02,283.44,-0.08,34460.47
765100,405.23,892.24,1.00,1,1,1,1640.66,0.27,450867.13,382.71,1.93,115717.55,1064.24,-2.95,50233.72,133.28,-2.87,13048.69,1781.60,-0.13,101249.38
779700,377.94,896.25,1.00,1,1,1,1889.18,3.00,236516.90,554.13,-3.10,39040.83,144.20,1.55,75620.61,1200.59,-0.01,91021.55,2534.35,-0.09,51896.39
801900,384.86,891.29,1.00,2,2,2,383.31,-0.62,100759.26,113.93,-0.24,29920.79,139.72,0.13,8323.32,1876.87,-0.15,31845.42,2798.54,0.00,15928.83
816600,382.02,895.26,1.00,2,2,2,331.28,2.19,47961.72,1004.41,0.07,60999.11,2532.05,0.03,162804.58,3693.25,-0.00,126436.86,2978.38,-0.01,12478.38
831400,414.40,893.48,1.00,2,2,2,2191.30,-0.05,162998.67,5551.58,0.03,307314.29,5136.46,-0.07,177541.73,4640.84,-0.02,64153.39,3019.46,0.00,3918.60
846200,546.27,900.49,1.00,2,2,2,8922.09,0.05,455921.41,9280.24,-0.09,258457.41,7828.26,-0.02,183114.61,6400.60,-0.01,118918.49,3187.52,-0.02,12179.62
860900,687.13,869.66,1.00,2,2,2,9809.77,-0.22,180838.14,10117.37,-0.05,61631.66,9143.56,-0.02,89504.19,6316.23,0.01,8875.21,2720.39,-0.01,31858.15
875800,845.34,885.11,1.00,3,3,3,10668.76,0.10,221589.60,9066.36,0.04,91256.71,10288.71,-0.02,76860.35,6466.15,0.00,10064.88,3224.86,0.01,34094.86
897700,1020.52,882.57,1.00,1,1,1,7999.96,-0.01,130675.58,10434.77,0.01,64174.75,7399.30,0.05,135040.92,6343.87,0.01,5750.56,2752.53,0.02,21579.24
912400,1227.25,887.32,1.00,1,1,1,14066.66,0.02,413585.21,5272.91,0.08,353365.67,5242.71,0.04,146807.31,5074.96,-0.02,86987.64,2927.20,-0.00,12649.91
926500,1171.85,895.34,1.00,1,1,1,3970.23,3.00,1276165.09,1378.59,2.85,466223.90,3192.57,0.10,146351.45,3467.54,0.06,116404.40,2800.96,0.01,9279.98
941400,1188.99,898.91,1.00,1,1,1,1175.19,0.21,341634.62,1184.48,0.16,167716.09,186.62,3.08,226647.90,2823.83,0.03,43651.68,3010.82,-0.03,15534.94
956300,1206.72,900.80,1.00,1,1,1,1196.72,0.11,8049.96,771.07,-0.40,44586.58,283.18,0.22,31235.97,1136.44,0.14,114022.92,2688.93,-0.00,22003.79
978000,1215.03,888.03,1.00,1,1,1,701.94,-0.99,49688.13,245.18,-3.11,46041.79,858.69,-0.02,27060.36,74.31,0.52,49201.20,2216.47,-0.01,21789.79
1007400,1194.20,900.36,1.00,1,1,1,823.28,2.61,50524.23,1005.36,0.22,42418.11,152.32,2.69,33967.41,87.10,0.20,970.63,1720.92,0.04,17147.62
1022100,1258.28,897.80,1.00,1,1,1,4362.46,-0.04,347082.25,154.83,1.65,67659.42,243.31,0.23,25451.50,367.61,-0.44,20559.79,1230.46,0.04,33367.89
1051600,1193.68,907.18,1.00,1,1,1,2212.57,3.00,222611.32,411.80,-2.92,15596.35,110.31,-2.88,11985.89,161.73,-2.76,16668.03,736.67,0.04,16740.08
1073400,1237.65,893.23,1.00,1,1,1,2116.04,-0.31,197900.40,335.41,-2.30,11076.06,358.76,-2.15,13155.93,232.24,2.99,5751.94,196.61,2.88,42503.79
1087800,1185.62,898.11,1.00,1,1,1,3629.03,3.05,396842.08,694.31,-1.33,39984.58,299.21,-2.17,4166.20,85.95,-1.80,16795.26,399.19,3.11,14738.22
1102500,1242.54,873.63,1.00,1,1,1,4215.09,-0.41,527140.70,263.10,-1.97,34615.15,989.04,3.14,58390.44,362.93,3.10,24309.93,464.53,3.06,4629.58
1117100,1182.63,891.00,1.00,1,1,1,4272.71,2.86,580240.81,2235.09,2.83,152504.03,174.40,-1.05,74461.15,310.25,-0.43,45229.47,591.26,-3.06,10428.80
1132000,1179.69,893.57,1.00,1,1,1,261.60,2.42,270946.63,249.13,-0.32,166724.34,693.30,2.53,57358.95,523.00,3.01,55318.54,679.43,3.05,9545.15
1154100,1191.37,888.07,1.00,2,2,2,583.84,-0.44,37938.97,720.81,0.25,23932.86,727.60,-0.02,61474.14,1025.55,3.13,23099.94,568.43,-3.12,5964.51
1168500,1205.19,900.06,1.00,3,3,3,1270.38,0.71,80818.91,1353.58,0.05,46043.11,159.88,2.26,58404.79,1457.97,2.96,33649.02,677.40,3.10,8007.80
1183200,1230.71,889.98,1.00,3,3,3,1866.52,-0.38,115960.22,1087.53,3.09,165858.07,2295.94,3.06,148778.32,1123.34,-3.11,29661.36,677.52,-3.03,7060.55
1198200,1172.93,901.71,1.00,1,1,1,3930.45,2.94,385163.60,5911.68,3.09,321610.14,2301.10,3.08,3218.91,1201.03,3.06,9966.06,927.66,3.13,17993.83
1212500,1057.74,899.07,1.00,1,1,1,8057.67,-3.12,301621.92,3288.63,3.08,183463.75,2967.90,-3.12,48892.13,1213.62,3.08,1880.85,342.54,-3.06,41104.31
1234700,1053.14,909.38,1.00,1,1,1,508.39,1.99,354744.52,730.37,-2.65,121532.73,2296.87,3.11,30724.75,1043.95,3.10,7719.17,761.06,3.07,19193.40
1249500,1033.98,886.20,1.00,1,1,1,2032.20,-2.26,155648.62,1082.59,-3.03,33174.79,272.30,-3.02,137023.23,1674.01,-3.13,42804.40,815.73,-3.12,6130.01
1264200,1021.40,905.90,1.00,1,1,1,1589.74,2.14,199926.05,406.49,1.08,92123.26,361.87,-0.21,42559.20,1335.68,-3.11,23100.38,1100.13,3.11,19648.69
1279300,1039.68,896.89,1.00,1,1,1,1349.80,-0.46,187547.85,1764.91,-0.02,107387.69,225.86,3.07,38835.01,306.19,-0.21,108239.68,1669.95,3.12,37743.80
1294100,1074.16,904.86,1.00,1,1,1,2391.07,0.23,107702.09,726.67,-2.67,164196.56,311.36,-2.59,12437.14,195.14,-2.25,29146.36,1854.16,3.11,12452.56
1308700,1020.64,887.19,1.00,1,1,1,3860.06,-2.82,427735.57,2348.19,-3.02,115249.26,877.73,-0.11,78061.26,525.01,3.14,29409.79,2023.63,3.08,12467.10
1323500,1005.66,896.24,1.00,1,1,1,1182.33,2.60,217445.12,2082.06,0.04,299086.71,517.83,-2.73,91328.88,1007.13,-3.12,32591.05,1900.84,3.14,11040.96
1345700,1097.61,890.48,1.00,1,1,1,4149.83,-0.06,235445.40,610.99,-0.26,68012.10,744.75,-3.13,14990.76,2025.41,3.13,45903.74,1441.43,3.11,20754.72
1374700,1035.89,888.19,1.00,2,2,2,2129.57,-3.10,216290.81,3132.42,-3.11,128339.07,1556.88,3.09,28127.71,2486.27,3.12,15940.52,1480.07,3.13,1529.96
1389500,960.48,886.21,1.00,2,2,2,5097.59,-3.12,200556.16,5353.02,3.05,154072.07,4058.25,3.12,169094.98,2302.02,3.04,17914.34,1463.34,3.08,5315.21
1403800,880.83,903.05,1.00,3,3,3,5692.65,2.93,97498.25,4861.11,3.09,37551.16,4513.17,3.07,35033.88,2342.37,3.12,13276.20,1452.74,3.13,5194.65
1440400,713.40,899.40,1.00,1,1,1,4575.80,-3.12,44235.46,4038.20,3.09,22484.46,3879.32,3.01,18400.86,2886.06,3.10,14923.53,1375.84,3.10,2429.09
1455100,673.98,914.39,1.00,1,1,1,2868.58,2.78,149627.18,2276.94,2.74,139492.15,3127.02,3.13,58356.01,2783.30,3.08,8124.09,1457.48,3.13,6531.27
1469600,652.23,925.46,1.00,1,1,1,1683.33,2.67,83351.19,1568.96,-2.94,91887.72,1211.27,3.00,133341.93,2361.92,3.06,29157.49,1472.32,3.09,4303.78
1484300,629.11,905.12,1.00,1,1,1,2094.61,-2.42,146170.10,631.03,-2.46,71532.06,677.26,3.13,37260.46,1877.07,3.11,33648.69,1220.79,3.10,17138.70
1506400,634.26,910.75,1.00,1,1,1,345.18,0.83,110318.83,261.39,1.55,37312.32,579.54,-2.82,10257.05,548.47,2.91,60795.42,1828.53,3.06,27604.81
1521100,629.28,914.74,1.00,1,1,1,433.96,2.47,38902.87,633.54,3.00,44557.34,373.93,2.86,23291.76,138.52,-2.83,29604.97,1793.57,3.09,3516.77
1535900,615.76,913.37,1.00,1,1,1,918.56,-3.04,45982.06,818.20,-3.02,17669.62,224.11,0.33,38699.40,492.45,-2.90,23938.28,2361.92,3.06,38535.26
1550700,605.23,911.91,1.00,1,1,1,718.12,-3.00,13699.02,1058.95,0.05,126767.60,488.11,-0.20,21239.12,145.42,0.30,43086.52,1877.07,3.11,33421.33
1565200,646.74,914.98,1.00,1,1,1,2870.74,0.07,247425.71,1785.95,-0.05,51103.40,409.45,-3.00,61033.62,493.69,2.82,42565.80,548.47,2.91,92660.60
1580000,657.49,909.17,1.00,2,2,2,825.47,-0.50,150059.84,1564.45,-3.05,225777.63,637.33,-0.02,70499.83,759.99,3.12,21979.71,138.52,-2.83,29404.94
1602400,588.80,909.54,1.00,3,3,3,3066.42,3.14,170285.33,272.28,2.97,58207.00,1090.78,2.93,76817.97,409.45,-3.00,16147.73,492.45,-2.90,15816.37
1617100,647.54,910.91,1.00,3,3,3,3996.84,0.02,480444.79,838.57,2.14,46618.90,1660.99,3.09,41428.51,637.33,-0.02,70979.42,145.42,0.30,43379.63
1632100,575.46,930.57,1.00,1,1,1,4981.02,2.88,592337.48,2830.98,3.09,163148.76,838.57,2.14,90419.40,1090.78,2.93,114714.83,493.69,2.82,41146.94
1661200,522.83,916.75,1.00,1,1,1,1869.83,-2.88,119883.56,1869.83,-2.88,40776.72,2830.98,3.09,84097.30,1660.99,3.09,20927.81,759.99,3.12,11178.69
