@RELATION gaze_labels

%@METADATA width_px 1920
%@METADATA height_px 1080
%@METADATA width_mm 540.00
%@METADATA height_mm 254.00
%@METADATA distance_mm 620.00


@ATTRIBUTE time INTEGER
@ATTRIBUTE x NUMERIC
@ATTRIBUTE y NUMERIC
@ATTRIBUTE confidence NUMERIC
@ATTRIBUTE handlabeller1 INTEGER
@ATTRIBUTE handlabeller2 INTEGER
@ATTRIBUTE handlabeller_final INTEGER
@ATTRIBUTE speed_1 numeric
@ATTRIBUTE direction_1 numeric
@ATTRIBUTE acceleration_1 numeric
@ATTRIBUTE speed_2 numeric
@ATTRIBUTE direction_2 numeric
@ATTRIBUTE acceleration_2 numeric
@ATTRIBUTE speed_4 numeric
@ATTRIBUTE direction_4 numeric
@ATTRIBUTE acceleration_4 numeric
@ATTRIBUTE speed_8 numeric
@ATTRIBUTE direction_8 numeric
@ATTRIBUTE acceleration_8 numeric
@ATTRIBUTE speed_16 numeric
@ATTRIBUTE direction_16 numeric
@ATTRIBUTE acceleration_16 numeric

%The number after speed, direction denotes the step size that was used for the calculation.
%Acceleration was calculated between two adjacent samples of the already low pass filtered velocity

@DATA
0,5.73,428.16,1.00,1,1,1,0.00,0.00,0.00,954.41,-0.82,0.00,949.37,2.25,0.00,857.61,1.11,0.00,766.31,1.47,0.00
14500,15.13,418.01,1.00,1,1,1,954.41,-0.82,65821.17,949.37,2.25,131218.91,2599.45,0.37,208715.65,1363.47,1.94,69566.76,576.27,2.12,31823.24
29200,-11.68,449.74,1.00,1,1,1,2825.79,2.27,257106.24,2599.45,0.37,205875.98,857.61,1.11,139620.82,1071.17,0.59,105090.28,572.35,0.51,56236.94
43600,85.65,445.37,1.00,1,1,1,6766.24,-0.04,620099.91,1563.02,0.54,75688.76,1363.47,1.94,70049.86,855.69,2.91,122875.14,319.68,2.86,57599.50
58700,27.92,473.35,1.00,1,1,1,4248.53,2.69,715236.31,3192.21,2.64,278706.19,1071.17,0.59,102306.43,766.31,1.47,70816.20,160.06,-0.92,30309.60
80500,-17.75,501.78,1.00,1,1,1,2468.00,2.58,83161.69,679.30,0.68,160878.13,855.69,2.91,81165.23,576.27,2.12,21166.84,204.16,-0.95,2033.23
95300,47.23,489.01,1.00,1,1,1,4474.89,-0.19,462067.15,2195.50,-0.73,148329.23,771.55,1.76,59928.59,572.35,0.51,55856.96,239.21,-1.22,4700.05
110000,30.35,458.41,1.00,1,1,1,2377.22,-2.07,385831.68,1245.51,2.17,232538.47,168.37,-2.89,54362.14,319.68,2.86,56424.00,1112.12,0.38,77928.57
139700,16.10,534.71,1.00,1,1,1,2613.55,1.76,158195.04,1125.76,2.59,17088.83,237.98,0.27,13681.10,160.06,-0.92,15409.93,772.60,0.18,13122.54
176600,-33.44,497.81,1.00,1,1,1,1674.14,-2.50,99514.27,1284.80,-0.64,65264.83,23.24,1.24,6114.54,204.16,-0.95,1201.21,1066.50,0.15,7987.48
191300,69.25,495.09,1.00,1,1,1,6988.33,-0.03,569268.91,1688.34,-0.52,30008.21,927.52,-1.24,64348.70,239.21,-1.22,4732.02,1292.52,-0.16,29406.03
220700,31.19,460.84,1.00,2,2,2,1741.59,-2.41,283615.74,1145.94,-2.07,68815.16,588.34,-0.59,19692.09,1112.12,0.38,38964.29,833.91,0.09,17911.02
235400,44.97,450.78,1.00,2,2,2,1160.61,-0.63,155285.28,1071.16,2.72,102195.93,573.92,-1.73,42689.87,1410.87,-0.29,59906.84,771.37,0.02,5477.14
250100,2.42,473.63,1.00,3,3,3,3285.88,2.65,301925.49,455.78,-0.09,102723.65,2940.92,0.37,222557.72,2628.72,-0.08,87141.28,1201.27,-0.20,32806.53
272300,61.72,449.22,1.00,1,1,1,2888.59,-0.39,277766.29,5906.94,0.27,246995.13,2876.09,0.10,36330.55,2307.06,-0.34,32097.00,965.01,-0.14,11100.23
287100,213.01,532.09,1.00,1,1,1,11655.54,0.50,682051.51,5904.34,0.11,62406.97,4969.42,-0.02,144537.42,2436.30,0.02,58636.93,979.98,-0.03,7185.95
301900,235.35,469.14,1.00,1,1,1,4513.16,-1.23,888700.28,4622.16,-0.50,228779.50,5378.82,-0.20,68112.60,1680.99,0.13,53034.69,985.06,-0.31,18704.56
316800,333.81,466.87,1.00,1,1,1,6609.96,-0.02,439175.88,5452.27,-0.54,57627.69,2365.18,-0.48,213186.76,2547.90,-0.13,68503.15,1550.09,-0.08,42546.57
331500,373.87,386.33,1.00,1,1,1,6119.26,-1.11,448418.65,113.32,0.12,364845.50,495.01,0.30,139141.54,2190.23,-0.00,32314.78,1964.55,-0.05,28419.22
346300,337.13,467.28,1.00,1,1,1,6006.39,2.00,819171.62,3838.49,2.43,264557.58,587.19,-1.46,56528.17,1120.85,-0.63,97388.65,2338.78,0.07,30611.98
368400,266.75,479.00,1.00,1,1,1,3228.27,2.98,225719.05,1062.51,-1.54,209180.25,1102.10,2.12,74839.89,438.42,-0.41,31672.84,2944.01,-0.01,29053.15
383100,338.23,428.19,1.00,1,1,1,5965.56,-0.62,610895.11,2593.98,-0.41,159654.14,313.10,-2.10,87165.62,346.30,-0.05,11400.68,3212.59,-0.09,24690.31
397600,336.15,448.65,1.00,1,1,1,1418.48,1.67,481512.77,821.28,2.07,226347.77,624.99,-1.02,37942.92,1846.15,0.34,105591.49,2956.25,-0.02,23869.08
412500,326.66,449.38,1.00,2,2,2,638.94,3.06,97244.40,1666.52,-3.12,99640.66,903.65,0.75,80564.85,2251.84,0.12,40871.69,2279.94,-0.15,51103.43
427700,286.01,447.33,1.00,2,2,2,2677.93,-3.09,134590.41,1770.13,0.30,224020.66,4049.59,0.07,223408.16,4308.96,-0.07,140731.13,2239.56,-0.11,6916.33
442400,377.26,464.90,1.00,2,2,2,6321.74,0.19,610972.79,8788.10,0.07,481424.00,4691.95,0.17,52547.94,3922.86,-0.06,26347.85,1930.86,-0.12,21049.66
464000,604.32,468.36,1.00,1,1,1,10513.32,0.02,204963.60,7099.24,0.15,83507.50,7869.35,-0.01,155861.03,3641.16,-0.02,14667.14,1576.13,0.03,20272.63
478900,633.62,502.65,1.00,1,1,1,3026.93,0.86,591280.12,6829.55,-0.13,131607.50,6921.87,-0.15,92813.55,3399.70,-0.02,16212.33,1831.47,-0.03,18616.65
493700,805.35,441.32,1.00,1,1,1,12321.06,-0.34,783351.20,7528.25,-0.49,180256.49,3309.96,-0.13,244108.84,3796.97,-0.08,30223.14,1904.14,-0.11,10394.53
508300,828.41,397.57,1.00,1,1,1,3387.93,-1.09,691031.48,939.71,-0.12,456358.42,2525.43,-0.32,65318.79,3161.68,-0.12,44829.23,1585.17,-0.05,22974.29
537800,846.49,436.38,1.00,1,1,1,1451.64,1.13,149830.73,786.79,1.57,43953.06,662.41,-0.79,66398.10,1502.84,-0.30,57706.70,1708.64,-0.14,6534.65
560100,828.33,438.32,1.00,1,1,1,819.05,3.04,84465.57,902.33,-1.67,75648.22,589.73,0.07,23510.87,1523.21,-0.23,4861.03,1755.16,-0.06,6360.50
574900,843.17,403.07,1.00,1,1,1,2583.89,-1.17,207087.92,1532.30,-0.58,92732.05,514.47,-2.06,65167.53,135.16,-1.30,98860.57,2024.42,-0.07,18218.19
604200,884.85,401.27,1.00,1,1,1,1423.88,-0.04,80475.97,375.65,-2.92,61885.96,496.20,0.29,31818.99,218.94,2.89,10554.11,1454.50,-0.13,19745.35
619100,826.98,399.39,1.00,1,1,1,3886.02,-3.11,356168.42,1764.04,2.00,116027.47,446.90,2.65,58507.16,405.38,-1.96,29018.74,586.68,-0.31,59304.66
633800,863.35,448.86,1.00,1,1,1,4177.07,0.94,493473.58,707.09,2.22,73883.37,1365.42,3.09,66576.41,139.86,-1.45,19847.71,1465.88,-0.25,59921.82
656000,811.22,420.19,1.00,1,1,1,2680.16,-2.64,301992.04,2194.40,-2.59,100804.45,280.85,-1.75,61197.04,168.55,0.21,10265.25,1416.66,-0.03,14287.03
670900,793.91,406.36,1.00,1,1,1,1486.57,-2.47,83329.07,1387.19,-1.27,154081.95,667.73,-2.40,31830.66,746.49,3.02,60927.59,1498.03,0.09,13085.27
685600,823.57,381.03,1.00,1,1,1,2653.04,-0.71,222887.04,1325.97,0.33,131991.75,956.36,-0.22,98350.00,482.60,2.86,19172.68,1524.08,-0.07,16346.82
700200,830.69,418.87,1.00,1,1,1,2637.47,1.38,313559.39,1716.12,0.56,35952.26,109.66,1.90,69717.55,1399.66,-0.27,128919.70,1743.55,-0.06,15068.57
715000,866.28,407.88,1.00,2,2,2,2516.66,-0.30,259863.82,1335.21,-2.98,202170.99,1033.02,2.58,64220.98,3208.39,0.02,129169.33,1464.93,0.00,19824.59
729700,791.83,412.46,1.00,2,2,2,5074.34,3.08,513156.61,2738.18,3.05,101123.55,3202.77,-0.09,282430.37,3721.64,0.07,36399.80,1661.82,0.07,15468.91
752000,765.42,417.41,1.00,1,1,1,1204.99,2.96,174055.60,6801.13,-0.05,427698.44,5250.45,0.06,96094.35,3513.88,0.06,9326.96,1704.06,-0.05,9442.29
766600,1042.44,399.08,1.00,1,1,1,19015.19,-0.07,1384392.99,15410.31,0.03,592284.56,7068.40,0.05,124568.96,3565.23,-0.02,19638.44,1445.93,-0.16,21467.22
781000,1212.17,429.01,1.00,1,1,1,11968.83,0.17,550167.84,7512.58,0.17,559523.68,8499.76,-0.02,106316.42,2840.67,-0.01,50323.78,1142.61,-0.05,23175.41
795600,1257.00,436.87,1.00,1,1,1,3117.38,0.17,606263.81,1801.81,-0.40,416039.02,3947.02,0.05,312847.83,3939.03,0.04,76140.17,325.33,1.58,82676.01
810300,1260.88,408.66,1.00,1,1,1,1937.24,-1.43,253762.56,1418.19,-0.52,29133.13,599.24,-0.71,240454.22,3782.09,-0.08,32402.55,996.18,2.50,57107.24
832600,1302.67,411.02,1.00,1,1,1,1876.86,0.06,116019.08,521.24,-2.85,81532.87,830.34,-0.08,22160.51,1496.10,-0.08,102511.16,1324.51,2.75,19626.44
847400,1242.36,403.09,1.00,1,1,1,4109.90,-3.01,404271.54,798.70,1.17,81138.85,537.32,-0.84,38848.14,491.45,-2.80,132068.97,1374.83,2.76,3488.10
861800,1311.79,432.49,1.00,1,1,1,5236.01,0.40,643215.72,1248.12,-0.51,107907.25,392.04,-2.15,40216.38,2668.47,3.00,155982.46,1129.31,2.93,22589.56
891100,1289.91,376.37,1.00,1,1,1,2055.67,-1.94,233140.86,918.55,-2.08,52900.87,1105.94,-3.13,32290.19,3945.88,2.92,44440.76,1059.67,2.93,2379.54
927400,1282.25,379.97,1.00,2,2,2,233.08,2.70,57420.23,3028.90,2.97,78612.92,4784.75,3.00,101756.62,4925.35,2.95,27240.05,1968.39,2.99,25178.61
942100,1137.63,402.33,1.00,2,2,2,9954.94,2.99,662008.80,11518.02,2.89,578377.99,7683.24,2.89,203185.56,4478.66,2.93,30972.67,2426.96,3.01,31249.56
971200,793.26,504.05,1.00,3,3,3,12339.61,2.85,96489.68,13107.33,2.86,56166.43,10544.48,2.91,98623.67,4902.48,3.08,27853.08,2602.26,3.10,10164.56
986000,584.55,561.10,1.00,3,3,3,14618.75,2.87,155105.65,9393.86,2.94,256845.59,8471.54,2.90,140251.34,5236.31,3.01,32387.03,2576.72,3.08,3376.05
1008100,453.97,575.06,1.00,1,1,1,5942.30,3.04,398363.57,3007.71,3.09,291400.67,5153.07,-3.09,174082.40,5976.21,3.01,33481.99,2957.61,3.06,17451.43
1022800,474.01,566.61,1.00,1,1,1,1479.07,-0.40,501421.84,3031.56,-1.59,294643.79,2275.70,-2.61,224348.76,4626.07,2.95,94444.41,2628.94,2.98,27118.20
1037500,452.09,485.95,1.00,1,1,1,5686.13,-1.84,386488.23,2861.66,-1.80,43361.18,1529.52,-1.51,141949.92,2559.03,-3.04,156230.18,2932.31,3.03,22442.51
1051900,455.01,485.53,1.00,1,1,1,205.24,-0.14,396875.34,239.34,0.03,203689.28,557.91,-1.60,67687.92,1189.40,-2.39,122455.87,2773.76,3.00,12092.50
1066300,458.98,486.18,1.00,1,1,1,278.91,0.16,7178.75,1314.77,1.19,85919.52,261.73,-1.25,22517.08,804.71,-1.93,40822.85,3160.93,2.99,27032.47
1088400,472.99,530.03,1.00,1,1,1,2082.85,1.26,89224.03,451.09,-1.66,79250.37,525.52,-1.13,12114.19,312.35,-1.82,22419.46,2413.40,3.07,35417.94
1103100,457.48,469.65,1.00,1,1,1,4240.75,-1.82,430017.94,2579.98,-1.61,144867.16,615.90,-3.03,63203.43,390.32,1.87,46017.85,1618.79,-3.05,57997.16
1117800,469.85,454.24,1.00,1,1,1,1344.34,-0.89,244872.94,1385.96,2.85,219003.74,148.55,-3.02,31793.10,221.92,0.12,32798.18,1183.78,-2.79,38703.29
1132500,418.48,481.46,1.00,1,1,1,3954.86,2.65,354869.95,2549.21,1.64,164932.23,1118.97,1.88,74925.01,258.81,2.36,29454.91,745.69,-2.27,44354.25
1147200,464.32,528.98,1.00,1,1,1,4491.95,0.80,459589.87,1856.41,1.21,79563.60,565.51,1.18,52708.41,668.28,-1.44,60382.40,762.17,-2.83,28533.51
1161800,437.78,532.31,1.00,1,1,1,1832.01,3.02,395828.27,1198.94,-1.11,192570.06,499.76,1.06,6267.34,628.08,-3.11,66079.75,405.97,-3.13,26831.46
1184400,484.21,489.06,1.00,1,1,1,2807.47,-0.75,195785.61,601.99,-1.71,34594.39,1269.69,-1.33,73927.62,1363.92,3.13,32593.06,587.00,-3.07,8095.16
1198700,434.65,510.32,1.00,2,2,2,3770.61,2.74,453335.35,1439.33,-1.57,59263.52,1319.45,-2.31,84860.42,777.20,-2.61,56109.71,578.35,-3.10,1429.94
1213500,484.17,447.18,1.00,3,3,3,5421.75,-0.91,602390.72,2387.96,-2.49,127832.61,3215.76,-2.96,156393.43,1284.80,-3.01,43272.58,550.18,-2.30,29725.61
1228100,379.00,467.53,1.00,3,3,3,7337.27,2.95,819993.34,6314.09,3.09,325248.70,2149.20,-2.48,112962.56,728.14,-2.68,43870.83,591.01,2.91,39967.37
1242800,299.37,455.83,1.00,1,1,1,5474.95,-3.00,192254.83,1912.94,-2.47,342060.35,2652.62,2.88,149076.48,1355.10,-3.06,49930.70,92.81,1.38,40426.92
1257800,334.39,432.33,1.00,1,1,1,2811.78,-0.59,519339.04,1018.96,2.01,157320.54,502.45,2.72,143846.23,935.57,-2.93,29719.94,795.27,-0.00,52220.47
1294500,276.80,503.43,1.00,1,1,1,2493.13,2.25,142940.82,1017.22,1.43,15964.60,232.75,1.76,11294.38,751.58,-2.85,5307.76,985.92,-0.39,10549.91
1309300,341.76,484.20,1.00,1,1,1,4577.33,-0.29,458154.46,1180.34,-0.99,139061.36,657.71,2.29,31823.23,592.06,2.70,34080.89,1573.20,-0.28,40691.74
1323900,295.74,474.35,1.00,1,1,1,3223.20,-2.93,518269.66,1105.24,-3.05,134184.60,1574.85,-0.79,152850.75,1089.45,0.14,110718.03,1450.84,-0.21,10671.86
1353700,292.88,479.82,1.00,2,2,2,207.05,2.05,106510.83,1816.91,-0.71,90736.22,681.81,2.68,74885.12,1949.59,0.15,28872.20,1726.72,-0.19,9334.98
1375900,367.15,412.48,1.00,2,2,2,4515.60,-0.74,212183.60,790.47,1.60,109033.48,2196.87,0.03,126796.29,3255.83,-0.18,69784.02,1381.08,-0.10,16940.42
1390600,292.18,508.98,1.00,3,3,3,8312.72,2.23,869672.31,4304.24,0.56,269211.31,5329.27,0.00,213213.82,3822.80,-0.14,39499.57,1891.44,-0.10,34717.94
1405500,474.90,480.46,1.00,3,3,3,12411.97,-0.15,1296841.69,12034.42,-0.08,601719.83,6085.89,0.03,51610.91,4058.07,-0.12,16575.95,1997.39,-0.10,7127.83
1420200,647.28,480.79,1.00,1,1,1,11726.25,0.00,136715.13,8751.46,-0.23,245965.01,9965.70,-0.17,284231.55,4763.18,-0.10,48408.35,1829.36,-0.06,12532.33
1435100,727.30,422.17,1.00,1,1,1,6657.70,-0.63,502465.24,8028.13,-0.31,68431.07,6393.05,-0.19,239964.59,4086.12,-0.01,53466.99,2029.76,-0.20,22153.20
1449800,873.38,407.68,1.00,1,1,1,9986.35,-0.10,369817.09,4508.17,-0.13,250453.67,4262.26,-0.23,145757.48,5067.77,-0.15,79875.82,1966.06,-0.05,20240.36
1471900,891.73,400.15,1.00,1,1,1,897.55,-0.39,413125.16,1353.82,0.15,146270.37,2310.89,-0.09,90732.10,3235.43,-0.20,83549.68,2150.26,-0.10,9622.25
1486600,922.61,415.32,1.00,1,1,1,2340.63,0.46,127250.54,499.02,2.50,118360.67,728.89,0.15,109591.95,1813.26,-0.36,100150.16,2743.73,-0.06,41154.60
1501400,879.94,408.96,1.00,1,1,1,2915.12,-2.99,350945.72,51.43,-2.82,31863.66,345.74,-3.04,72593.07,730.31,-0.29,73407.10,3048.00,0.01,24339.01
1516100,921.18,414.84,1.00,1,1,1,2833.35,0.14,391050.43,469.98,-2.23,29129.02,1088.62,-2.90,50850.81,369.91,1.49,60003.53,3234.83,-0.03,15256.79
1530700,871.51,398.07,1.00,1,1,1,3590.35,-2.82,438145.68,2122.50,-2.91,121945.59,933.41,-2.91,10640.32,152.89,2.34,20036.78,2665.79,-0.10,41358.11
1545700,860.08,400.18,1.00,1,1,1,774.51,2.96,195849.03,1406.94,-3.08,51689.19,912.01,2.38,58650.03,850.68,0.20,62769.25,1982.87,0.05,50649.92
1567400,819.98,394.84,1.00,2,2,2,1864.57,-3.01,53139.03,1615.17,1.27,114799.29,263.50,1.15,39628.92,2158.43,0.04,61054.55,1716.73,0.08,12594.99
1582200,877.58,456.48,1.00,2,2,2,5699.95,0.82,489108.59,2124.10,0.31,120084.05,2277.59,0.21,144096.89,1891.59,0.23,31045.67,1168.45,0.11,37121.44
1596400,878.56,413.89,1.00,2,2,2,3000.06,-1.55,571823.05,3704.65,-0.11,138917.63,4691.33,0.07,172993.79,2252.97,0.02,38892.89,1134.36,0.02,7039.20
1626000,1038.87,438.72,1.00,3,3,3,5480.46,0.15,222360.90,6187.10,0.03,86685.65,3606.47,0.08,36660.00,2258.32,0.27,18682.30,1046.50,0.09,3894.68
1647600,1195.23,422.13,1.00,1,1,1,7279.63,-0.11,112513.52,3628.11,0.24,127781.81,3738.03,-0.02,17763.60,2504.76,0.16,16555.19,1213.63,0.04,8212.83
1676600,1216.98,483.20,1.00,1,1,1,2235.59,1.23,244726.09,936.53,-0.38,100713.37,2248.58,0.32,61277.42,2015.28,-0.03,22429.53,1130.59,0.24,8583.93
1691300,1233.23,406.93,1.00,1,1,1,5305.31,-1.36,496841.23,942.28,0.59,59557.59,766.26,0.63,104730.43,2011.26,-0.01,2067.28,1076.84,0.04,15249.92
1728300,1257.49,510.26,1.00,1,1,1,2868.81,1.34,216065.26,1201.96,1.23,19388.82,491.07,-1.21,27434.38,1222.56,0.03,21401.43,554.70,0.19,14423.98
1743000,1254.11,465.46,1.00,1,1,1,3056.84,-1.65,401892.41,2363.93,-1.96,242517.77,23.21,1.97,34984.11,319.59,0.03,61427.00,162.52,2.10,42706.23
1757700,1231.11,445.97,1.00,1,1,1,2050.93,-2.44,148239.17,2066.78,-1.93,20584.75,1177.92,-1.89,81326.01,302.48,0.34,6524.28,341.34,-2.84,23340.50
1772400,1232.50,408.66,1.00,1,1,1,2539.44,-1.53,139809.08,159.99,-0.28,141922.01,722.79,-1.80,31553.42,210.46,2.96,33746.42,404.61,-3.11,8016.46
1787000,1235.61,444.67,1.00,2,2,2,2475.54,1.48,342836.44,652.37,0.90,41732.09,893.04,1.08,109701.52,1940.04,-2.81,120527.96,924.16,-2.95,36199.32
1802100,1244.58,423.82,1.00,2,2,2,1503.51,-1.16,256054.83,1582.19,1.16,64001.02,453.32,3.01,75166.24,3676.31,-3.08,124258.65,1606.01,-3.10,46613.99
1823800,1258.97,498.01,1.00,2,2,2,3482.61,1.38,221226.04,1186.38,-2.88,115264.44,3135.65,-3.08,124063.06,3626.79,-3.10,3884.55,1557.84,-3.00,7364.58
1838600,1202.75,412.60,1.00,3,3,3,6908.52,-2.15,690222.96,8123.24,-2.86,468720.04,6818.34,3.11,250450.31,3620.24,3.14,11402.29,1617.31,3.14,16060.70
1853400,1027.80,431.87,1.00,3,3,3,11892.81,3.03,722641.81,13879.00,3.08,457951.88,8284.59,-2.99,133901.87,3271.99,-3.02,37649.05,1856.97,-2.87,36114.02
1868000,795.45,437.09,1.00,1,1,1,15918.50,3.12,287727.87,8589.22,-3.12,367424.36,6800.73,-3.14,125395.77,3642.31,-3.10,31669.27,1842.03,-3.03,19809.18
1882300,779.63,426.50,1.00,1,1,1,1331.08,-2.55,1038385.56,1350.17,-2.57,522539.09,3393.53,-2.97,244611.23,3519.34,-2.98,30083.72,1770.48,-3.06,6961.08
1904600,753.91,410.32,1.00,1,1,1,1362.61,-2.58,2206.54,884.33,-2.03,33464.58,1122.79,-2.73,103991.25,3110.91,-3.13,28843.08,1757.43,3.10,9733.85
1933600,759.56,385.82,1.00,1,1,1,867.07,-1.34,46666.91,963.77,-2.92,27551.64,88.39,-2.24,36050.35,1791.37,-2.92,48618.05,1552.01,-3.10,8532.45
1948200,712.92,401.05,1.00,1,1,1,3360.48,2.83,265740.79,1307.02,1.15,139424.26,221.08,-0.06,19253.72,331.73,-2.50,102411.41,1607.53,3.14,5578.90
1963000,775.18,420.93,1.00,1,1,1,4415.72,0.31,500473.71,1956.01,0.14,113288.02,240.34,-0.75,10556.35,356.95,-2.80,7120.38,1791.09,-2.96,24088.83
1977700,770.04,409.28,1.00,1,1,1,866.28,-1.99,342316.59,1244.64,-1.66,173127.92,658.75,0.16,37041.36,211.56,2.42,21388.73,1678.88,3.12,25317.39
2000100,771.25,374.92,1.00,1,1,1,1534.88,-1.54,37699.25,367.64,-3.04,54935.85,638.34,-2.87,57809.45,252.44,1.65,7952.23,1289.50,-3.05,18882.84
2015000,756.39,407.89,1.00,1,1,1,2426.91,1.99,261158.04,1270.34,2.53,68466.34,572.32,2.63,31092.99,259.33,0.57,17639.01,600.62,-2.99,46376.65
2044300,725.18,407.02,1.00,1,1,1,1065.66,-3.11,76563.10,821.32,2.42,15856.73,561.68,1.85,14745.03,318.43,-2.75,19637.01,356.95,-2.80,8865.52
2059000,729.36,431.86,1.00,1,1,1,1713.84,1.40,148697.21,709.54,0.57,83323.85,187.58,2.04,25766.16,462.67,2.93,18379.39,211.56,2.42,21388.73
2096100,756.22,426.70,1.00,2,2,2,737.36,-0.19,50714.26,396.95,-0.40,15673.75,76.30,-1.22,7103.84,858.37,2.97,10687.56,252.44,1.65,4801.35
2110800,748.33,423.95,1.00,3,3,3,568.40,-2.81,85826.25,1310.30,-2.42,103821.04,412.15,-2.94,29292.01,905.24,3.13,9941.06,259.33,0.57,17878.99
2125500,727.34,401.21,1.00,3,3,3,2105.20,-2.32,110580.65,1761.53,3.12,81463.91,2024.25,-2.90,109699.41,76.30,-1.22,63650.53,318.43,-2.75,39140.43
2140200,696.56,425.21,1.00,1,1,1,2654.87,2.48,220940.83,2939.08,-3.10,80686.09,2243.52,-3.04,25112.71,412.15,-2.94,29292.01,462.67,2.93,18379.39
2155200,640.11,397.88,1.00,1,1,1,4180.88,-2.69,255741.22,2740.61,-2.96,30697.28,2939.08,-3.10,47713.28,2024.25,-2.90,107505.42,858.37,2.97,26433.91
2170100,616.01,410.16,1.00,1,1,1,1815.37,2.67,228601.44,1815.37,2.67,114683.00,2740.61,-2.96,30903.30,2243.52,-3.04,24775.62,905.24,3.13,9807.62
