%@metadata width_px 1920.0
%@metadata height_px 1080.0
%@metadata width_mm 540.0
%@metadata height_mm 254.0
%@metadata distance_mm 620.0
% The number after speed, direction denotes the step size that was used for the calculation.
% Acceleration was calculated between two adjacent samples of the already low pass filtered velocity
@RELATION gaze_labels

@ATTRIBUTE time INTEGER
@ATTRIBUTE x NUMERIC
@ATTRIBUTE y NUMERIC
@ATTRIBUTE confidence NUMERIC
@ATTRIBUTE handlabeller_final INTEGER
@ATTRIBUTE EYE_MOVEMENT_TYPE {UNKNOWN, FIX, SACCADE, SP, NOISE, BLINK, NOISE_CLUSTER, PSO}

@DATA
0,235.11,620.97,1.0,1,FIX
14700,232.66,574.96,1.0,1,FIX
28900,277.75,637.23,1.0,1,FIX
51100,250.0,624.98,1.0,1,FIX
66200,243.43,616.2,1.0,1,FIX
81200,286.23,633.83,1.0,1,FIX
96300,279.61,629.73,1.0,1,FIX
112200,211.18,533.42,1.0,1,FIX
126200,247.37,620.88,1.0,1,FIX
141700,245.82,611.21,1.0,1,FIX
179700,206.75,593.92,1.0,2,SACCADE
194700,208.74,581.32,1.0,2,SACCADE
224200,273.35,652.81,1.0,3,SACCADE
238800,309.0,736.95,1.0,3,FIX
253900,547.68,850.82,1.0,1,FIX
275100,511.23,861.8,1.0,1,FIX
290200,568.21,829.23,1.0,1,FIX
304600,515.26,838.31,1.0,1,FIX
319800,572.88,846.51,1.0,1,FIX
334800,524.24,862.78,1.0,1,FIX
349700,537.43,836.69,1.0,1,FIX
365200,512.65,846.53,1.0,1,FIX
386800,557.91,863.32,1.0,1,FIX
401100,510.13,810.86,1.0,1,FIX
415700,569.3,842.89,1.0,2,FIX
429800,512.86,814.77,1.0,1,FIX
445000,543.76,794.88,1.0,1,FIX
467300,559.13,859.71,1.0,1,FIX
482200,561.94,867.27,1.0,1,FIX
497400,545.1,875.4,1.0,1,FIX
512800,525.16,838.84,1.0,1,FIX
541300,578.22,893.52,1.0,1,FIX
563900,560.55,889.76,1.0,1,SACCADE
579500,623.55,922.27,1.0,2,SACCADE
609500,521.34,863.22,1.0,2,SACCADE
624700,692.51,892.94,1.0,3,SP
638700,918.4,818.13,1.0,1,FIX
653700,1022.63,628.19,1.0,1,FIX
675400,1119.93,620.34,1.0,1,FIX
690000,1086.52,586.6,1.0,1,FIX
704900,1118.6,617.56,1.0,1,FIX
720000,1115.95,606.31,1.0,1,FIX
734900,1110.53,603.27,1.0,1,FIX
749400,1178.65,716.36,1.0,1,FIX
771200,1179.64,712.42,1.0,1,FIX
786100,1200.18,699.12,1.0,1,FIX
800600,1173.63,685.82,1.0,1,FIX
815400,1162.38,680.19,1.0,1,FIX
829700,1144.89,633.94,1.0,1,FIX
845200,1175.15,647.92,1.0,1,FIX
866800,1127.08,677.71,1.0,1,FIX
881400,1080.14,619.4,1.0,1,FIX
896400,1209.32,732.98,1.0,1,FIX
926700,1115.12,673.05,1.0,1,FIX
941200,1124.47,659.88,1.0,1,FIX
978300,1150.95,656.96,1.0,1,FIX
1007000,1162.87,725.07,1.0,2,FIX
1022100,1174.48,655.17,1.0,2,FIX
1036900,1134.3,687.86,1.0,2,FIX
1058000,1145.01,701.41,1.0,1,FIX
1072500,1122.37,742.96,1.0,1,FIX
1087000,1139.18,731.37,1.0,1,FIX
1101100,1120.85,657.47,1.0,1,FIX
1123700,1126.05,677.15,1.0,1,FIX
1138000,1144.0,680.28,1.0,1,FIX
1152500,1126.32,706.55,1.0,1,FIX
1166700,1095.81,719.91,1.0,1,FIX
1181100,1224.38,751.64,1.0,1,FIX
1203200,1141.56,730.21,1.0,2,FIX
1218600,1125.21,699.19,1.0,1,FIX
1234300,1112.23,667.22,1.0,1,FIX
1249900,1100.0,692.44,1.0,1,FIX
1264700,1117.71,728.06,1.0,1,FIX
1294300,1047.1,643.68,1.0,1,FIX
1309800,1061.65,651.19,1.0,1,FIX
1324900,1075.66,675.72,1.0,1,FIX
1363100,1175.33,739.75,1.0,1,FIX
1378300,1059.4,664.69,1.0,1,FIX
1393700,1096.09,708.53,1.0,2,SACCADE
1407800,1081.08,666.98,1.0,2,SACCADE
1422500,1093.66,692.6,1.0,2,SACCADE
1437700,1011.64,757.16,1.0,2,SACCADE
1459700,754.25,843.12,1.0,3,SP
1474100,462.49,786.27,1.0,1,FIX
1489600,464.84,903.43,1.0,1,FIX
1504700,465.28,904.78,1.0,1,FIX
1519100,482.24,909.49,1.0,1,FIX
1534200,459.03,875.3,1.0,1,FIX
1555900,439.43,889.1,1.0,1,FIX
1570400,425.78,871.18,1.0,1,FIX
1585400,413.06,859.35,1.0,1,FIX
1599900,393.75,832.36,1.0,1,FIX
1614400,496.78,931.41,1.0,1,FIX
1630000,418.67,835.61,1.0,1,FIX
1645000,426.76,875.28,1.0,1,FIX
1681500,440.63,835.67,1.0,2,FIX
1696400,406.65,845.81,1.0,3,FIX
1725700,365.55,799.78,1.0,1,FIX
1747300,414.68,879.97,1.0,1,FIX
1762000,332.08,863.98,1.0,1,FIX
1777000,328.39,778.55,1.0,1,FIX
1791200,333.04,838.9,1.0,1,FIX
1806300,353.64,853.05,1.0,2,SACCADE
1821000,308.59,795.48,1.0,2,SACCADE
1844200,363.35,862.94,1.0,2,SACCADE
1859100,550.53,901.13,1.0,3,SACCADE
1874100,810.54,861.62,1.0,3,FIX
1889600,1049.28,781.01,1.0,1,FIX
1904800,1107.05,730.7,1.0,1,FIX
1919300,1136.67,760.18,1.0,1,FIX
1934100,1100.65,683.81,1.0,1,FIX
1948900,1093.69,681.46,1.0,1,FIX
1970700,1098.25,672.41,1.0,1,FIX
1986200,1155.21,724.43,1.0,1,FIX
2000900,1164.91,797.2,1.0,1,FIX
2016200,1136.01,735.36,1.0,1,FIX
2046400,1105.07,701.24,1.0,4,FIX
2061500,1056.56,689.22,1.0,4,NOISE
2098600,1195.95,808.92,1.0,4,NOISE
2113400,1121.69,756.93,1.0,4,NOISE
2129100,1200.04,767.98,1.0,4,NOISE
2144100,1598.24,641.96,1.0,4,NOISE
2158200,1783.01,676.4,1.0,4,NOISE
2173000,1799.85,616.1,1.0,4,NOISE
2194400,1796.59,605.61,1.0,4,NOISE
2210100,1685.64,645.76,1.0,4,NOISE
2225700,1627.89,634.54,1.0,4,NOISE
2240600,1390.25,652.74,1.0,4,NOISE
2255900,1278.88,566.38,1.0,4,NOISE
2270300,1204.61,719.02,1.0,1,NOISE
2285000,1226.06,603.51,1.0,1,FIX
2306600,1189.47,639.17,1.0,1,FIX
2321300,1128.49,635.42,1.0,1,FIX
2336400,1099.95,636.3,1.0,1,FIX
2351400,1169.64,695.87,1.0,1,FIX
2366500,1163.15,710.14,1.0,1,FIX
2381700,1205.81,629.85,1.0,1,FIX
2419600,1106.23,651.84,1.0,1,FIX
2434700,1118.19,638.6,1.0,1,FIX
2448800,1149.37,629.14,1.0,1,SACCADE
2479100,1110.55,633.26,1.0,1,SACCADE
2494200,1150.14,672.41,1.0,1,FIX
2509900,1147.46,725.43,1.0,1,FIX
2532000,1167.06,690.69,1.0,1,FIX
2547100,1171.56,711.17,1.0,1,FIX
2562700,1140.69,724.79,1.0,4,FIX
2577200,1122.06,664.38,1.0,4,FIX
2592000,1103.04,689.1,1.0,4,FIX
2607100,1096.34,647.0,1.0,4,SACCADE
2622000,1143.53,691.72,1.0,4,SACCADE
2637500,1170.81,701.19,1.0,4,SACCADE
2659500,1108.54,651.66,1.0,4,SACCADE
2673800,1393.98,638.67,1.0,4,SACCADE
2688000,1728.64,652.38,1.0,4,SACCADE
2703000,1781.98,562.03,1.0,4,SACCADE
2717600,1792.05,590.56,1.0,4,SACCADE
2732900,1792.05,590.56,1.0,4,SACCADE
2754900,1720.66,635.69,1.0,4,SACCADE
2768900,1661.39,682.44,1.0,4,SACCADE
2798400,1545.36,508.71,1.0,4,SACCADE
2813400,1377.62,520.84,1.0,4,SACCADE
2849000,1449.96,525.26,1.0,4,FIX
2864000,1347.27,597.36,1.0,4,FIX
2879600,1366.5,574.74,1.0,4,FIX
2894600,1318.87,628.62,1.0,4,FIX
2909700,1366.66,601.43,1.0,4,FIX
2931800,1290.86,601.26,1.0,1,FIX
2946900,1280.91,631.37,1.0,1,FIX
2961500,1272.44,581.57,1.0,1,FIX
2976600,1276.06,656.27,1.0,2,SACCADE
2992100,1227.17,604.97,1.0,2,SACCADE
3007500,1285.3,603.66,1.0,2,SACCADE
3037300,1125.08,783.03,1.0,1,SP
3059500,902.56,759.57,1.0,1,FIX
3074400,983.86,900.43,1.0,1,FIX
3088500,968.05,852.74,1.0,1,FIX
3103500,890.35,828.82,1.0,1,FIX
3118400,985.74,864.14,1.0,1,FIX
3133000,952.51,834.58,1.0,1,FIX
3170000,959.12,879.04,1.0,1,FIX
3184400,913.13,827.51,1.0,1,FIX
3199700,909.89,795.91,1.0,1,FIX
3229900,931.45,866.02,1.0,1,FIX
3245000,911.54,819.8,1.0,1,FIX
3266100,960.21,880.21,1.0,1,FIX
3280600,897.63,776.91,1.0,1,FIX
