@RELATION gaze_labels

%@METADATA width_px 1920
%@METADATA height_px 1080
%@METADATA width_mm 540.00
%@METADATA height_mm 254.00
%@METADATA distance_mm 620.00


@ATTRIBUTE time INTEGER
@ATTRIBUTE x NUMERIC
@ATTRIBUTE y NUMERIC
@ATTRIBUTE confidence NUMERIC
@ATTRIBUTE handlabeller1 INTEGER
@ATTRIBUTE handlabeller2 INTEGER
@ATTRIBUTE handlabeller_final INTEGER
@ATTRIBUTE speed_1 numeric
@ATTRIBUTE direction_1 numeric
@ATTRIBUTE acceleration_1 numeric
@ATTRIBUTE speed_2 numeric
@ATTRIBUTE direction_2 numeric
@ATTRIBUTE acceleration_2 numeric
@ATTRIBUTE speed_4 numeric
@ATTRIBUTE direction_4 numeric
@ATTRIBUTE acceleration_4 numeric
@ATTRIBUTE speed_8 numeric
@ATTRIBUTE direction_8 numeric
@ATTRIBUTE acceleration_8 numeric
@ATTRIBUTE speed_16 numeric
@ATTRIBUTE direction_16 numeric
@ATTRIBUTE acceleration_16 numeric

%The number after speed, direction denotes the step size that was used for the calculation.
%Acceleration was calculated between two adjacent samples of the already low pass filtered velocity

@DATA
0,23.38,408.71,1.00,1,1,1,0.00,0.00,0.00,2244.14,-0.34,0.00,2180.27,-0.24,0.00,1428.03,-0.16,0.00,799.30,-0.08,0.00
22600,71.18,391.76,1.00,1,1,1,2244.14,-0.34,99298.22,2180.27,-0.24,9841.80,673.24,-0.09,67178.58,116.12,0.25,58507.00,2720.81,0.06,85517.36
37600,102.92,388.86,1.00,1,1,1,2124.77,-0.09,37169.63,673.24,-0.09,101215.72,1428.03,-0.16,50491.24,179.28,0.27,4215.08,2972.86,0.11,18705.81
53000,91.56,389.87,1.00,1,1,1,740.60,3.05,186062.69,577.80,0.26,15435.42,116.12,0.25,85860.92,1178.11,-0.06,65614.18,2897.53,0.09,5438.25
68700,120.30,393.46,1.00,1,1,1,1844.42,0.12,163893.56,466.98,2.88,64331.23,179.28,0.27,4027.15,799.30,-0.08,24148.05,2525.90,0.00,28335.19
83100,77.99,393.51,1.00,2,2,2,2938.20,3.14,331507.06,236.72,-2.91,19634.40,1178.11,-0.06,70170.72,2720.81,0.06,134214.74,2309.04,0.07,18512.81
98500,113.44,391.80,1.00,2,2,2,2304.75,-0.05,340359.29,2860.10,-0.09,200318.18,150.07,0.98,72082.03,2972.86,0.11,18219.95,2186.93,0.07,7971.98
112400,161.41,385.56,1.00,2,2,2,3480.26,-0.13,86175.25,506.75,0.65,180752.39,5088.83,0.06,359675.84,2897.53,0.09,6025.11,1832.35,0.06,25546.53
127800,125.23,400.83,1.00,3,3,3,2549.90,2.74,388094.39,6875.10,0.11,418609.93,5556.81,0.10,33719.48,2525.90,0.00,28887.18,1468.35,0.04,23781.03
149700,416.30,413.73,1.00,1,1,1,13303.88,0.04,714398.34,9662.03,0.08,127746.94,4451.50,0.13,50905.69,2309.04,0.07,12172.81,1291.88,0.03,8065.81
164400,477.73,429.10,1.00,1,1,1,4307.65,0.25,620638.33,1359.84,0.27,566689.27,4333.11,-0.02,45038.97,2186.93,0.07,8351.60,1045.74,0.03,16750.18
178800,454.45,424.25,1.00,1,1,1,1651.48,-2.94,413762.42,803.78,-1.75,128989.44,41.41,1.11,299698.01,1832.35,0.06,24659.49,1223.94,0.09,13318.83
207700,471.39,394.88,1.00,1,1,1,1173.42,-1.05,79780.53,722.62,-2.94,29602.15,557.40,-2.84,20300.67,1996.60,0.08,5738.40,1512.27,0.08,9984.34
230600,417.78,416.74,1.00,1,1,1,2528.52,2.75,154124.16,1113.85,2.63,32246.99,210.12,-1.24,26254.40,145.58,-0.43,81689.35,3038.52,-0.00,67107.76
245700,434.47,415.58,1.00,1,1,1,1108.57,-0.07,238297.30,983.09,-0.27,137842.98,442.46,2.16,42912.19,541.14,-2.76,43025.16,3398.77,0.05,26343.98
276300,461.11,404.88,1.00,1,1,1,938.02,-0.38,11779.78,423.02,0.55,24851.61,304.11,-0.58,23910.56,63.35,-2.94,15651.83,3222.27,0.03,6433.25
291400,450.92,425.74,1.00,1,1,1,1537.42,2.03,153667.32,816.16,-3.11,79524.90,527.85,-2.66,48193.15,608.39,0.39,44419.90,3419.61,0.02,13225.12
305900,436.96,404.23,1.00,2,2,2,1768.26,-2.15,198553.61,1994.62,-2.64,91221.30,364.59,2.34,37748.22,3807.19,-0.04,225228.31,2532.73,-0.01,61321.53
321000,399.16,397.33,1.00,2,2,2,2544.44,-2.96,122560.94,530.31,1.18,160923.14,1583.68,0.04,122379.30,4659.37,0.04,61235.17,2213.20,-0.02,21274.00
342400,444.30,422.14,1.00,2,2,2,2406.75,0.50,228372.99,4367.01,0.20,191331.67,7829.69,-0.02,292033.79,5047.43,0.01,19708.43,2362.34,0.02,7997.68
357600,555.69,429.69,1.00,1,1,1,7345.04,0.07,346130.49,17166.06,-0.06,854985.38,10497.72,0.07,183024.41,5296.62,-0.01,17811.03,2303.91,0.06,7967.19
372300,956.73,392.86,1.00,1,1,1,27396.37,-0.09,1372638.43,18119.76,0.02,116888.09,10999.23,-0.02,70880.73,5356.24,0.01,8728.82,2494.31,0.04,13410.14
387300,1093.69,442.59,1.00,1,1,1,9714.07,0.35,1270741.22,4699.39,0.12,896651.16,9515.50,-0.02,98941.50,5403.67,0.03,7533.95,2337.02,0.04,10486.30
401300,1092.02,409.22,1.00,1,1,1,2386.42,-1.62,776027.03,1072.92,-1.00,310014.57,2895.54,0.09,474686.39,5478.33,0.02,5940.40,1468.45,0.87,123619.26
415900,1110.29,416.78,1.00,1,1,1,1354.13,0.39,219768.03,1503.39,0.01,89079.13,543.19,-0.79,177005.05,4338.58,0.01,78143.23,1408.12,0.82,6847.58
438700,1148.25,409.74,1.00,1,1,1,1693.15,-0.18,40535.74,232.41,-0.02,55748.34,824.14,0.50,37408.34,1117.33,0.37,145465.73,1764.07,0.86,15820.61
454300,1119.21,416.64,1.00,1,1,1,1912.98,2.91,231090.13,878.67,1.82,61901.96,262.72,1.60,47705.90,252.37,-3.12,87000.78,1886.16,0.83,8505.77
469700,1141.55,436.15,1.00,4,4,4,1925.28,0.72,221580.31,667.04,2.05,17850.93,1098.29,2.60,63694.31,3753.59,2.52,230832.99,1048.60,1.03,57457.97
485300,1109.70,435.00,1.00,4,4,4,2042.95,-3.11,239743.33,1696.57,2.98,89923.24,1047.90,2.73,9325.92,3423.69,2.52,21180.28,795.95,1.49,31345.74
500400,1090.16,444.64,1.00,4,4,4,1442.79,2.68,68361.93,1674.10,3.00,2767.41,8476.25,2.62,492410.99,3385.97,2.35,40052.21,1357.96,2.65,83973.71
514300,1061.64,441.92,1.00,4,4,4,2060.85,-3.05,81074.83,15680.67,2.58,1019266.11,6476.13,2.55,147936.64,3306.51,2.31,10646.64,1235.62,2.77,14229.51
529800,700.06,690.31,1.00,4,4,4,28302.04,2.54,1726109.59,9665.09,2.51,392341.03,4877.39,2.31,135722.29,3458.15,2.70,84713.45,1246.02,2.79,1560.95
559600,709.02,701.44,1.00,4,4,4,479.35,0.89,951089.40,1867.84,0.94,329902.45,4768.21,2.25,9834.44,3422.97,2.73,4327.03,690.37,2.80,18648.08
596700,773.42,791.47,1.00,4,4,4,2983.67,0.95,67526.96,2246.00,1.02,11010.58,847.30,3.14,115343.78,2930.08,2.86,17104.86,1083.79,2.90,10878.01
611200,769.80,800.12,1.00,4,4,4,646.77,1.97,186259.21,4387.16,-2.60,445787.66,1449.80,-2.89,46084.64,1954.93,2.73,70403.46,1175.70,2.88,6618.26
641300,605.59,690.89,1.00,4,4,4,6552.21,-2.55,222740.04,5326.22,-2.54,32669.26,3367.59,-2.30,76436.73,866.05,-1.34,85306.25,878.03,2.94,10138.99
655700,574.22,666.23,1.00,4,4,4,2770.77,-2.48,263637.87,2839.54,-1.71,278333.82,2765.69,-1.69,134553.54,1818.82,-0.81,80307.39,856.33,2.96,1913.81
677600,591.36,588.80,1.00,4,4,4,3621.62,-1.35,158826.19,5298.91,-0.47,233810.53,3031.82,-0.86,107687.80,2233.96,-1.37,54246.27,623.53,3.00,10700.21
691600,743.43,579.33,1.00,4,4,4,10883.20,-0.06,748352.50,5225.86,-0.32,58693.79,5809.55,-0.49,227187.25,1971.84,-1.55,33356.26,582.50,2.92,4593.71
706600,735.28,541.30,1.00,1,1,1,2592.62,-1.78,770416.27,6425.46,-0.50,105192.80,4538.47,-0.40,90082.83,2610.88,-0.63,141118.11,1104.08,-0.61,110597.79
721400,911.85,488.22,1.00,1,1,1,12457.85,-0.29,845829.46,3893.93,-0.50,171051.60,1136.12,-1.15,255884.70,2559.00,-0.58,9530.76,1298.17,-0.76,17762.49
735900,835.49,486.76,1.00,1,1,1,5267.00,-3.12,1210084.88,3789.03,2.98,522333.71,2364.20,-0.35,122201.93,2703.07,-0.36,41616.81,1454.56,-1.12,35789.26
758100,774.59,510.49,1.00,1,1,1,2944.37,2.77,125251.60,1261.09,0.05,226580.24,864.99,-3.02,142371.51,1423.28,-0.59,61106.65,1456.05,-1.10,1081.90
772200,881.22,488.82,1.00,1,1,1,7717.37,-0.20,753941.62,2951.23,-0.35,131175.33,1080.35,-0.22,136001.09,1886.55,-0.18,57141.31,1571.20,-0.71,42207.30
787200,855.35,481.30,1.00,1,1,1,1795.93,-2.86,622989.53,997.16,-0.64,134533.11,2071.58,-0.25,66146.45,672.00,-0.57,85947.11,2081.36,-0.44,47407.22
801300,904.47,471.45,1.00,1,1,1,3552.59,-0.20,369611.23,1227.95,-0.00,51935.95,1493.32,0.07,57013.45,919.68,-0.42,19489.17,2348.51,-0.25,35176.07
815800,890.47,481.20,1.00,1,1,1,1176.28,2.53,321023.17,2131.49,0.31,71475.80,2088.94,-0.30,61054.38,1492.08,-0.34,40007.55,1870.36,-0.26,33015.83
838600,980.13,495.88,1.00,1,1,1,3984.53,0.16,214799.15,2810.50,-0.40,80691.31,810.16,-0.68,60125.24,528.41,-1.14,52085.62,1884.87,-0.22,3504.28
852800,986.20,440.58,1.00,1,1,1,3917.94,-1.46,403803.78,2352.33,-2.10,274071.15,1001.83,-0.50,17709.99,1670.09,-0.21,99800.59,1128.38,-0.07,55518.87
867300,945.92,437.68,1.00,2,2,2,2785.01,-3.07,337319.15,1386.20,2.91,162212.60,1703.04,-2.39,153843.26,2048.67,-0.11,29274.69,1453.05,-0.12,22955.31
881200,947.88,449.63,1.00,2,2,2,871.67,1.41,223436.72,1335.76,-2.92,43903.26,1271.25,-0.07,196716.46,2340.32,-0.09,21136.32,1744.40,-0.14,21072.43
896000,908.50,429.36,1.00,2,2,2,2993.21,-2.67,242001.53,3301.50,-0.12,309619.12,3466.64,0.02,148864.95,1885.29,-0.25,37830.82,1186.49,-0.14,37700.20
918200,1069.14,434.80,1.00,1,1,1,7240.18,0.03,451724.96,7245.58,0.05,181531.18,3474.16,-0.00,3534.14,1657.63,0.12,30847.70,1296.90,-0.13,4975.10
932300,1171.21,441.90,1.00,1,1,1,7256.88,0.07,18345.41,3644.93,0.08,255672.75,3950.73,0.00,33849.76,1942.98,-0.01,25754.97,1043.45,-0.12,18026.23
964200,1236.24,448.55,1.00,1,1,1,2049.08,0.10,163301.00,1422.68,-0.17,71990.23,2019.08,0.22,63475.32,1974.66,-0.03,1568.64,1180.38,-0.16,4517.84
979100,1236.80,430.44,1.00,1,1,1,1215.72,-1.54,164799.63,864.23,2.29,145236.79,880.04,-0.08,80941.26,1889.13,0.04,10547.28,969.69,-0.24,15327.40
994300,1219.13,468.14,1.00,1,1,1,2739.19,2.01,255618.22,361.40,0.30,69938.01,351.67,-0.28,35544.73,999.16,-0.02,58828.01,929.27,-0.05,12217.92
1025200,1252.71,435.39,1.00,1,1,1,1518.03,-0.77,135737.55,1101.00,-0.56,29426.70,227.85,2.47,18414.54,218.19,-0.17,25371.86,900.47,0.02,2152.57
1040300,1261.94,441.08,1.00,1,1,1,717.99,0.55,100218.62,852.19,2.92,127470.01,458.30,-1.35,43175.22,155.82,-1.86,18761.04,967.29,-0.07,6720.03
1062100,1222.02,442.24,1.00,1,1,1,1831.99,3.11,113017.06,984.38,-2.87,21485.23,708.69,3.13,42645.19,74.21,0.00,8761.79,1109.90,0.02,7579.84
1076700,1227.46,431.31,1.00,1,1,1,836.32,-1.11,160652.15,593.63,-2.78,27117.68,525.00,-2.74,21485.15,356.00,-0.92,21704.26,596.80,-0.04,35271.83
1091800,1205.51,436.03,1.00,1,1,1,1486.92,2.93,139910.92,155.13,-1.04,42255.50,464.61,-0.43,59856.84,336.53,2.99,42472.99,130.34,-2.65,47183.54
1106900,1229.82,427.26,1.00,1,1,1,1711.29,-0.35,211326.18,1382.01,-0.13,85617.88,375.50,-0.16,9577.36,256.82,-2.85,10024.53,2001.08,-3.12,124890.28
1122400,1247.43,430.45,1.00,1,1,1,1154.93,0.18,59247.92,667.45,0.02,47086.74,99.29,1.14,23354.06,103.13,-0.65,21170.74,3146.88,3.12,74137.93
1136700,1249.70,427.71,1.00,1,1,1,249.17,-0.88,73814.31,1125.07,2.85,123937.80,61.47,1.69,3958.69,93.14,-0.26,2746.54,2881.08,-3.11,21374.04
1158700,1208.28,442.07,1.00,1,1,1,1992.87,2.81,100436.04,572.47,2.97,25463.34,238.68,2.89,10177.20,539.91,-2.97,28440.21,3127.21,3.13,12728.37
1172800,1229.35,431.28,1.00,2,2,2,1678.76,-0.47,259770.69,867.54,-0.31,101902.41,165.43,3.09,5921.22,4230.93,3.12,262590.38,3049.59,3.14,5624.66
1187800,1232.32,434.38,1.00,2,2,2,286.10,0.80,107969.08,331.69,-0.31,35723.39,1214.73,-2.89,70518.14,6646.34,3.12,161038.19,3090.07,-3.12,6031.55
1202700,1238.80,428.28,1.00,2,2,2,597.09,-0.76,44256.88,3119.84,-3.04,229942.13,8923.61,3.13,520577.23,6188.33,3.12,30739.70,3041.05,3.13,6466.08
1218100,1138.32,424.41,1.00,2,2,2,6529.49,-3.10,452017.79,18322.13,3.12,989075.44,12954.71,3.13,261763.37,6092.29,3.14,8328.43,2855.82,-3.14,12223.01
1232100,700.23,438.91,1.00,1,1,1,31308.96,3.11,1771467.65,21207.07,3.11,206317.51,12103.77,3.12,60895.55,6008.27,3.12,9162.20,2805.69,-3.13,3645.49
1254300,370.90,445.11,1.00,1,1,1,14837.37,3.12,742092.91,7267.48,3.13,627977.18,10493.02,3.11,72824.48,6291.76,-3.13,15129.84,2896.24,-3.14,4122.50
1269900,425.54,441.79,1.00,1,1,1,3508.74,-0.06,1175874.00,2350.13,-0.01,616512.87,3401.05,3.11,454613.91,5728.62,3.13,36932.11,2813.95,3.14,5363.96
1284500,441.87,444.56,1.00,1,1,1,1134.81,0.17,165549.53,1736.00,0.08,43836.06,1384.80,-0.23,326411.79,4860.83,3.13,59438.87,2801.48,-3.12,4100.81
1298400,474.85,445.82,1.00,1,1,1,2374.10,0.04,90455.54,698.33,-1.19,120229.16,352.87,-2.97,123330.32,1702.40,-3.08,227787.21,2647.01,-3.12,11129.10
1312300,449.04,426.52,1.00,1,1,1,2318.83,-2.50,322347.07,1516.34,-3.03,131409.06,242.50,-2.47,13099.20,315.01,-0.37,143374.44,2829.48,3.14,13987.78
1349500,397.88,436.89,1.00,1,1,1,1403.17,2.94,46661.73,441.94,2.88,30021.16,573.48,-2.66,9115.32,120.02,-0.74,5587.54,2852.24,3.13,789.89
1364500,426.74,432.42,1.00,1,1,1,1946.69,-0.15,223264.95,752.55,-0.51,79046.13,335.60,3.11,21720.86,262.75,-2.71,21927.31,2137.24,3.11,47841.56
1393200,426.58,420.82,1.00,1,1,1,404.41,-1.58,67333.36,251.93,-2.71,32154.04,559.76,-0.18,31119.39,198.55,-1.82,7226.55,265.31,-0.32,83370.01
1409300,416.51,427.66,1.00,1,1,1,756.21,2.54,64311.05,485.09,0.59,45657.51,295.48,-2.91,52095.37,204.20,2.84,18167.96,1239.16,-0.14,60827.48
1424700,439.29,429.30,1.00,1,1,1,1483.05,0.07,138225.36,360.10,-3.08,53025.02,603.23,-0.15,57397.44,129.93,-0.06,21545.15,1139.91,-0.03,10754.72
1446100,403.28,426.86,1.00,1,1,1,1686.46,-3.07,148107.62,865.57,-0.49,55489.28,132.73,1.50,29348.85,686.91,0.13,26165.95,1046.06,-0.05,4443.91
1460900,466.93,414.54,1.00,2,2,2,4380.50,-0.19,407181.96,566.51,0.61,53296.65,360.45,2.87,24215.27,2706.57,-0.02,137169.74,822.97,-0.18,17132.85
1475900,417.15,436.48,1.00,2,2,2,3626.33,2.73,530476.17,1819.56,2.74,145152.54,2021.34,0.15,156945.44,2383.46,-0.11,26270.45,831.07,-0.14,2225.02
1491100,416.25,435.78,1.00,1,1,1,75.35,-2.48,236248.65,3521.93,0.08,342384.44,5075.13,-0.00,203462.87,2361.25,0.01,17877.46,1680.21,-0.09,56001.09
1506100,523.15,445.31,1.00,1,1,1,7155.02,0.09,481240.22,11871.92,-0.06,560042.78,5045.10,-0.14,45965.35,2664.74,0.01,20246.74,1360.47,-0.04,21797.39
1521200,772.96,414.54,1.00,1,1,1,16668.83,-0.12,648282.54,6730.83,-0.25,359112.78,5057.57,-0.01,41398.19,1904.48,-0.04,50996.21,935.29,0.03,28654.15
1535700,716.05,395.50,1.00,1,1,1,4138.39,-2.82,1412494.89,705.49,2.42,508090.42,3258.88,-0.07,124919.39,2143.90,-0.16,22863.70,976.58,-0.05,6076.00
1557800,753.56,431.58,1.00,1,1,1,2354.93,0.77,287180.40,1180.82,0.89,61088.82,943.77,-2.98,189304.29,3393.93,-0.09,57190.03,665.15,0.19,16519.23
1574200,744.61,430.88,1.00,1,1,1,547.56,-3.06,170718.26,1662.50,-2.58,171096.88,383.26,-3.07,34337.90,2119.28,-0.10,77763.69,1142.87,1.13,56597.89
1588700,710.10,404.19,1.00,1,1,1,3008.43,-2.48,177096.38,2182.99,-2.54,36179.08,1653.15,-0.34,138658.01,837.62,3.01,203911.90,1957.59,0.89,61521.28
1604600,689.72,393.58,1.00,1,1,1,1445.29,-2.66,101050.63,4570.57,-0.04,405902.06,843.95,-0.27,51162.68,425.48,2.78,27411.64,1634.34,1.21,41592.16
1619200,849.37,398.07,1.00,1,1,1,10939.38,0.03,839445.31,3578.32,0.23,100977.84,820.09,2.64,113196.39,1133.51,2.94,49075.92,1635.66,1.11,11315.80
1634400,793.63,417.53,1.00,1,1,1,3884.29,2.81,962807.35,6103.65,2.98,625770.70,549.38,2.43,20157.17,2447.45,2.22,115285.76,1107.12,1.54,51300.67
1649600,666.27,428.13,1.00,4,4,4,8407.75,3.06,312330.45,4331.20,-3.12,131897.66,3660.83,2.88,208971.85,3020.66,1.36,154497.34,1766.93,2.73,111769.18
1664100,665.02,414.99,1.00,4,4,4,910.47,-1.67,582479.14,1750.88,2.60,206560.62,4766.01,2.30,181084.81,3142.31,1.80,92197.81,1584.78,2.85,18548.76
1686700,610.55,461.52,1.00,4,4,4,3169.66,2.43,166683.03,6166.97,1.99,213891.31,5121.13,1.25,221143.78,3249.40,2.03,33898.42,1563.48,2.95,7434.38
1715900,533.77,706.23,1.00,4,4,4,8783.44,1.87,216632.00,9144.69,1.09,246518.86,4798.58,1.75,86071.50,2669.59,2.21,26676.85,1333.43,2.96,7888.67
1731700,800.46,826.59,1.00,4,4,4,18518.25,0.42,1235653.75,3824.00,1.30,345809.69,4398.39,1.54,66734.20,2533.20,2.66,73437.17,1097.61,2.91,15428.68
1761300,579.94,873.59,1.00,4,4,4,7617.09,2.93,846783.04,4082.64,2.99,199814.70,758.47,1.59,123013.48,2496.74,2.86,17110.02,962.29,2.84,5139.00
1775900,622.05,853.69,1.00,4,4,4,3189.94,-0.44,736086.09,3103.04,-2.00,301622.80,6693.33,-2.75,479619.59,1921.78,2.96,42460.09,1701.39,3.02,53013.59
1798400,532.30,768.79,1.00,4,4,4,5490.88,-2.38,323704.98,10869.85,-2.51,369358.93,6968.19,-2.30,136430.03,1864.44,-2.23,87500.36,2669.59,2.21,86429.50
1812400,301.30,620.17,1.00,4,4,4,19619.64,-2.57,1018534.54,12129.78,-2.39,131907.98,6952.48,-2.30,2015.25,3614.74,-2.42,130275.47,2533.20,2.66,82879.09
1827500,273.30,528.97,1.00,4,4,4,6317.65,-1.87,1016103.40,3692.12,-1.42,696677.19,5374.74,-2.10,132384.34,3225.60,-1.95,110203.61,2496.74,2.86,33540.17
1841500,317.72,513.99,1.00,4,4,4,3348.92,-0.33,504923.83,3590.09,-0.30,275754.61,2622.80,-0.97,348436.51,3580.06,-2.15,56561.23,1921.78,2.96,44279.81
1856800,373.78,497.87,1.00,4,4,4,3812.52,-0.28,32102.52,2422.94,-0.43,79990.14,2398.55,-0.34,101692.33,5374.74,-2.10,118302.86,1864.44,-2.23,128677.00
1878800,400.05,476.72,1.00,1,1,1,1533.18,-0.68,112348.17,1468.00,-0.43,43407.42,1061.86,-0.94,74400.10,2622.80,-0.97,221732.33,3614.74,-2.42,82902.57
1894000,423.46,475.18,1.00,1,1,1,1542.93,-0.07,61019.77,1503.23,-2.67,175813.68,1468.00,-0.43,49739.43,2398.55,-0.34,102361.36,3225.60,-1.95,109478.59
1909000,359.71,455.90,1.00,1,1,1,4439.94,-2.85,393956.92,4439.94,-2.85,198282.95,1503.23,-2.67,178157.86,1061.86,-0.94,109120.15,3580.06,-2.15,52790.48
