@RELATION gaze_labels

%@METADATA width_px 1920
%@METADATA height_px 1080
%@METADATA width_mm 540.00
%@METADATA height_mm 254.00
%@METADATA distance_mm 620.00


@ATTRIBUTE time INTEGER
@ATTRIBUTE x NUMERIC
@ATTRIBUTE y NUMERIC
@ATTRIBUTE confidence NUMERIC
@ATTRIBUTE handlabeller1 INTEGER
@ATTRIBUTE handlabeller2 INTEGER
@ATTRIBUTE handlabeller_final INTEGER
@ATTRIBUTE speed_1 numeric
@ATTRIBUTE direction_1 numeric
@ATTRIBUTE acceleration_1 numeric
@ATTRIBUTE speed_2 numeric
@ATTRIBUTE direction_2 numeric
@ATTRIBUTE acceleration_2 numeric
@ATTRIBUTE speed_4 numeric
@ATTRIBUTE direction_4 numeric
@ATTRIBUTE acceleration_4 numeric
@ATTRIBUTE speed_8 numeric
@ATTRIBUTE direction_8 numeric
@ATTRIBUTE acceleration_8 numeric
@ATTRIBUTE speed_16 numeric
@ATTRIBUTE direction_16 numeric
@ATTRIBUTE acceleration_16 numeric

%The number after speed, direction denotes the step size that was used for the calculation.
%Acceleration was calculated between two adjacent samples of the already low pass filtered velocity

@DATA
0,304.13,886.99,1.00,1,1,1,0.00,0.00,0.00,1910.12,-2.93,0.00,1034.24,-3.12,0.00,270.78,2.34,0.00,250.98,-0.67,0.00
14400,277.22,881.29,1.00,1,1,1,1910.12,-2.93,132647.49,1034.24,-3.12,63444.58,429.52,1.98,66581.43,572.05,0.58,47097.32,283.52,-0.60,2656.73
35700,267.22,886.11,1.00,1,1,1,521.46,2.69,71889.60,429.52,1.98,45012.80,270.78,2.34,9409.30,719.85,0.05,17192.64,403.63,-0.86,6970.61
50100,271.11,895.35,1.00,2,2,2,695.87,1.17,58891.19,988.12,0.49,72505.57,572.05,0.58,47097.32,791.80,-0.29,18249.83,535.23,-0.87,9154.68
64200,292.02,899.46,1.00,2,2,2,1511.37,0.19,89533.17,1324.97,0.16,36119.79,719.85,0.05,25971.87,250.98,-0.67,40240.92,709.03,-0.78,13025.86
78100,307.74,901.20,1.00,1,1,1,1138.18,0.11,27993.34,666.91,-0.33,57360.66,791.80,-0.29,18906.30,283.52,-0.60,2752.30,985.54,-0.60,22545.57
113700,323.30,888.91,1.00,1,1,1,556.86,-0.67,23555.78,649.07,-0.81,8803.34,679.79,-0.72,9313.14,403.63,-0.86,4170.62,1413.51,-0.38,14047.45
127700,330.05,877.99,1.00,1,1,1,917.35,-1.02,31263.07,904.67,-1.23,29220.98,469.39,-1.41,31183.76,535.23,-0.87,9416.25,1694.77,-0.27,23370.41
142100,332.00,864.74,1.00,1,1,1,929.88,-1.42,25927.47,545.13,-2.14,49933.85,673.70,-1.86,22518.93,709.03,-0.78,12754.48,957.15,-0.26,51236.97
177300,315.38,855.27,1.00,2,2,2,543.35,-2.62,25298.20,710.88,-2.30,5480.59,599.28,-1.69,3753.58,985.54,-0.60,8902.94,1050.56,-0.22,2885.28
191700,308.44,838.51,1.00,2,2,2,1259.84,-1.96,62139.62,893.41,-1.20,59353.42,737.95,-0.83,39522.51,1413.51,-0.38,34728.42,1085.22,-0.25,3376.07
206000,324.68,831.37,1.00,1,1,1,1240.53,-0.41,122324.55,1935.14,-0.30,108383.91,2062.52,-0.35,101400.33,1694.77,-0.27,22880.13,1146.25,-0.31,6060.93
227400,374.50,818.31,1.00,1,1,1,2406.97,-0.26,55971.81,3279.19,-0.18,64222.54,3157.89,-0.12,57837.77,1653.66,-0.20,5912.53,1254.78,-0.32,5093.87
242100,441.08,809.86,1.00,1,1,1,4565.75,-0.13,149758.70,4740.67,-0.03,107430.74,3723.76,-0.08,39788.58,2050.35,-0.16,27597.09,1436.91,-0.32,12389.48
256000,510.02,814.13,1.00,1,1,1,4968.93,0.06,70583.30,4345.64,0.03,33904.76,3122.99,-0.01,45888.53,2020.54,-0.11,6519.11,1681.05,-0.27,18358.25
270000,562.29,812.98,1.00,1,1,1,3734.25,-0.02,91870.63,1806.52,0.02,181368.29,2113.82,0.03,72623.15,2020.06,-0.13,2924.60,1861.35,-0.24,13503.51
291100,573.42,815.45,1.00,1,1,1,540.17,0.22,152231.23,389.99,0.10,67213.33,878.23,-0.09,59078.94,2080.54,-0.12,3086.65,1783.03,-0.21,4262.62
306100,576.29,814.43,1.00,2,2,2,203.43,-0.34,25540.31,334.74,-2.44,46193.94,392.50,-0.69,39904.46,2094.92,-0.15,3445.78,1954.18,-0.19,11755.31
320000,566.01,809.22,1.00,2,2,2,829.02,-2.67,70537.87,650.36,-1.27,43525.92,1124.05,-0.42,54225.95,1994.96,-0.18,8714.89,2094.10,-0.16,11177.33
334400,581.75,796.85,1.00,2,2,2,1389.81,-0.67,131595.05,2157.66,-0.31,129512.98,2142.92,-0.32,71517.75,2048.03,-0.20,4845.59,2152.32,-0.14,4559.56
356000,640.08,785.82,1.00,1,1,1,2748.57,-0.19,76184.15,3553.87,-0.20,65939.04,3105.99,-0.20,46719.06,1932.63,-0.22,5641.53,2038.66,-0.11,5961.85
370400,707.02,770.89,1.00,1,1,1,4763.00,-0.22,140131.30,4322.40,-0.14,56087.57,3757.15,-0.15,46906.31,1860.26,-0.23,5056.98,2087.94,-0.09,4488.44
384600,762.48,768.45,1.00,1,1,1,3908.87,-0.04,80358.10,4028.85,-0.09,24958.53,2782.28,-0.14,68700.13,2170.37,-0.19,22287.18,1836.55,-0.10,17776.83
398700,820.54,760.26,1.00,1,1,1,4159.06,-0.14,32752.54,1541.51,-0.14,176605.22,1600.77,-0.10,84057.67,2283.46,-0.15,10875.01,1584.61,-0.10,17868.68
420100,816.66,760.78,1.00,2,2,2,183.15,3.01,202906.99,308.11,3.08,86396.08,1239.69,-0.17,17503.52,2001.22,-0.10,13916.70,1576.34,-0.10,391.07
434700,809.47,760.97,1.00,2,2,2,492.29,3.12,21289.06,877.30,-0.22,80994.95,832.56,-0.13,28027.94,2086.85,-0.04,10199.05,1515.94,-0.11,4144.70
449500,841.81,755.06,1.00,3,3,3,2221.01,-0.18,183007.06,2233.46,-0.12,92194.14,1372.56,-0.04,37012.43,1715.97,-0.03,25104.78,1504.08,-0.09,2076.90
464000,874.47,753.39,1.00,1,1,1,2255.66,-0.05,20143.10,1676.87,0.02,42226.15,2486.80,-0.02,76911.53,1239.85,0.03,33338.80,1457.86,-0.06,4087.33
499200,925.14,756.38,1.00,1,1,1,1441.86,0.06,23796.32,2647.15,0.04,27588.85,2062.63,0.03,12337.35,1308.50,0.04,2013.82,1321.27,-0.04,3946.16
513400,1005.16,757.97,1.00,1,1,1,5636.56,0.02,295505.18,2513.92,0.03,9385.94,1516.89,0.08,39039.81,1257.14,0.04,3617.04,1146.96,0.01,13063.93
541700,1031.92,759.97,1.00,1,1,1,948.14,0.07,165728.46,414.14,0.38,75208.36,1253.14,0.13,9607.50,982.31,0.11,10087.11,1073.64,0.03,2680.42
563100,1024.31,765.54,1.00,1,1,1,440.76,2.51,61452.23,368.48,2.39,30915.86,141.04,1.50,57618.47,823.61,0.13,7453.84,1018.19,0.05,2879.71
577400,1022.32,768.96,1.00,1,1,1,277.03,2.10,15251.13,667.20,2.96,28612.89,606.86,2.83,41215.20,650.24,0.14,12144.74,1323.44,0.05,21346.49
591100,1005.93,768.91,1.00,1,1,1,1196.50,-3.14,79243.29,967.56,3.03,22356.83,269.08,2.85,24661.13,234.48,0.48,31855.14,1557.16,0.04,17120.02
606100,994.71,771.92,1.00,1,1,1,774.51,2.88,32893.74,68.14,0.71,67686.42,90.79,3.06,12093.48,318.47,0.41,5761.16,1458.35,0.04,6645.46
627200,1007.79,770.51,1.00,2,2,2,623.50,-0.11,66058.56,626.20,-0.11,27593.32,449.32,0.16,25497.31,736.64,0.11,20992.95,1354.65,0.04,4915.62
641200,1016.55,769.42,1.00,2,2,2,630.33,-0.12,909.42,937.58,0.11,25416.57,1160.21,0.06,51040.14,1341.85,0.06,43342.97,1203.66,0.02,11045.27
656200,1034.81,773.53,1.00,2,2,2,1248.15,0.22,45936.91,1808.98,0.13,58114.67,1716.77,0.05,37123.69,1920.92,0.03,38728.85,886.58,0.00,21162.43
670800,1069.65,776.30,1.00,1,1,1,2393.56,0.08,80221.88,2353.67,0.02,40135.81,2747.20,0.06,70598.89,2042.04,0.01,9011.50,881.71,0.00,336.31
691800,1118.58,775.55,1.00,1,1,1,2330.32,-0.02,11087.15,3537.25,0.03,56361.64,3424.26,0.02,32797.95,2069.25,-0.00,1522.20,889.58,-0.02,862.84
706200,1194.82,779.62,1.00,1,1,1,5302.24,0.05,207062.37,4771.17,0.01,85805.11,2937.09,-0.01,34461.80,1820.08,-0.03,17775.49,760.80,-0.04,9093.19
720100,1253.60,777.02,1.00,1,1,1,4232.38,-0.04,83834.20,2202.33,-0.09,186428.44,2467.64,-0.04,34091.53,1645.75,-0.07,13449.95,800.88,-0.03,2937.51
734700,1257.31,773.71,1.00,1,1,1,340.82,-0.73,272191.15,339.59,-0.76,133261.20,924.46,-0.30,109148.50,1481.70,-0.08,11305.34,920.34,-0.04,8186.88
749500,1260.86,770.17,1.00,1,1,1,338.64,-0.78,1290.98,368.22,-2.04,28648.60,310.93,-1.98,68018.19,1061.45,-0.10,28453.71,891.44,-0.03,2062.35
770300,1251.40,762.01,1.00,1,1,1,600.65,-2.43,34195.89,545.12,-2.49,12921.59,203.53,-1.48,7928.94,232.55,-0.70,42258.77,850.61,-0.02,2001.85
784600,1245.60,758.62,1.00,1,1,1,469.53,-2.61,11439.72,254.47,-0.18,51878.26,252.69,-2.62,17533.19,236.44,-2.67,27277.81,753.99,-0.04,6879.56
798700,1258.52,760.74,1.00,1,1,1,928.20,0.16,97658.12,131.59,1.23,18941.49,529.03,-3.09,23024.16,90.72,-2.12,11772.47,569.55,-0.10,13324.65
813300,1246.85,762.19,1.00,1,1,1,805.17,3.02,117519.20,1149.88,-3.13,82252.14,283.54,3.01,17469.21,41.88,-1.33,4642.62,513.15,-0.09,3869.06
834300,1217.58,760.40,1.00,1,1,1,1396.36,-3.08,29654.97,468.77,-3.11,32441.47,97.86,2.97,8846.71,56.29,0.35,3514.09,533.71,-0.04,1624.03
863000,1223.56,761.54,1.00,1,1,1,212.12,0.19,55993.01,658.94,0.05,39289.85,157.20,0.08,8820.46,46.95,0.96,1128.97,534.15,0.07,1923.00
884000,1250.29,762.13,1.00,1,1,1,1272.84,0.02,50677.29,779.11,0.05,5722.75,456.55,0.11,14258.15,141.28,-3.13,8236.43,667.37,0.09,6374.73
913000,1262.47,763.51,1.00,2,2,2,422.78,0.11,29403.32,228.44,0.30,19325.03,336.41,0.12,4144.66,107.07,0.01,8563.57,801.58,0.08,4628.36
927100,1259.70,765.02,1.00,2,2,2,223.65,2.64,43928.11,444.14,3.05,46892.95,190.87,-3.03,37395.87,827.56,0.10,51135.57,842.15,0.10,3011.35
941600,1249.82,764.67,1.00,2,2,2,681.73,-3.11,34631.40,691.52,-2.95,20097.09,34.66,-0.53,15144.43,1287.50,0.14,31818.46,885.66,0.10,3001.88
963000,1235.31,760.39,1.00,2,2,2,706.98,-2.85,8224.94,415.37,-0.15,51014.46,1362.20,0.10,62351.42,1418.00,0.14,6099.98,906.90,0.11,1016.19
977100,1264.39,762.39,1.00,2,2,2,2067.32,0.07,195872.08,3946.61,0.12,251674.35,2446.59,0.14,77092.78,1813.36,0.11,28214.21,942.54,0.12,2768.90
991500,1346.98,773.84,1.00,2,2,2,5790.30,0.14,259067.52,4957.57,0.17,72010.95,3379.36,0.14,64778.19,1800.29,0.09,3040.96,1131.01,0.12,13091.75
1006100,1406.04,787.00,1.00,1,1,1,4144.26,0.22,116027.55,2935.20,0.16,138555.98,3587.93,0.12,15063.81,1931.65,0.08,9123.38,1259.13,0.11,8785.61
1027800,1452.17,790.78,1.00,1,1,1,2133.20,0.08,94577.13,2483.95,0.03,26089.74,2237.82,0.08,62386.47,2248.50,0.10,14732.10,1008.80,0.12,11536.79
1041600,1494.17,789.91,1.00,1,1,1,3043.84,-0.02,68630.98,1380.80,-0.12,82673.64,1425.52,-0.03,60736.58,2005.14,0.13,18314.28,890.44,0.09,8745.50
1056000,1490.81,785.95,1.00,1,1,1,360.74,-2.27,228005.06,228.40,-1.11,88057.46,1106.06,-0.03,22187.68,1500.43,0.13,35049.16,339.42,0.08,38267.24
1070000,1497.08,784.11,1.00,1,1,1,466.61,-0.28,49728.04,898.19,0.09,60156.46,422.28,0.23,50442.53,1228.45,0.08,19907.11,360.02,-3.10,49952.35
1091300,1522.38,788.87,1.00,1,1,1,1208.64,0.19,38513.90,734.88,0.47,16331.95,774.35,0.26,16548.40,552.73,0.05,31759.80,928.99,3.13,26761.52
1106000,1520.64,796.16,1.00,1,1,1,509.87,1.81,90799.12,666.21,0.54,5588.82,1055.40,0.24,19158.41,51.11,-2.16,39753.18,1522.34,3.12,40366.49
1120700,1539.21,798.89,1.00,1,1,1,1277.17,0.15,96370.83,1501.78,0.10,64086.57,80.21,1.43,69934.80,1120.36,-3.05,74072.40,2152.25,-3.14,42921.46
1134400,1563.08,800.36,1.00,2,2,2,1745.54,0.06,35412.57,472.06,-2.85,143578.92,503.19,-2.77,39935.03,2642.52,-3.07,111156.26,2198.88,-3.13,3936.74
1156300,1523.12,794.03,1.00,2,2,2,1847.20,-2.98,163864.46,2074.65,-2.93,73261.23,3018.95,-3.00,115617.30,3767.83,-3.10,51495.50,2521.26,-3.12,14762.24
1170200,1490.53,784.43,1.00,2,2,2,2444.11,-2.86,47266.60,6185.85,-3.02,296722.06,6321.75,-3.04,237951.54,4696.05,-3.10,66819.41,2691.76,-3.11,12298.54
1185000,1346.95,772.10,1.00,2,2,2,9737.37,-3.06,497190.78,11641.54,-3.07,369833.72,6908.46,-3.09,43955.83,5455.49,-3.11,51350.85,2667.20,-3.12,1971.97
1198900,1157.28,760.47,1.00,2,2,2,13670.76,-3.08,283705.29,7339.03,-3.12,311290.38,8148.86,-3.12,91069.89,4871.61,-3.11,42055.35,2576.69,-3.14,7512.75
1234600,983.02,764.05,1.00,1,1,1,4882.25,3.12,246886.73,6153.55,3.11,34776.12,7477.45,3.14,19546.25,5041.94,-3.12,4777.85,3767.83,-3.10,33584.04
1248700,851.00,770.51,1.00,1,1,1,9374.50,3.09,318889.03,7727.79,3.10,111766.80,3956.22,3.10,250299.68,4867.07,-3.12,12494.20,4696.05,-3.10,65871.62
1263200,762.22,773.62,1.00,1,1,1,6126.87,3.11,224093.11,1774.53,3.05,410764.04,3187.82,3.10,53012.57,3941.27,-3.14,64033.49,5455.49,-3.11,52413.28
1298800,762.48,778.74,1.00,1,1,1,144.23,1.52,172217.19,580.69,3.12,33601.62,1601.94,-3.13,44692.57,2533.53,3.09,39874.12,4871.61,-3.11,16420.49
1313000,733.30,774.15,1.00,1,1,1,2080.01,-2.99,148904.07,1362.09,-2.88,57812.65,435.62,-3.01,82405.70,3187.82,3.10,46145.71,5041.94,-3.12,12011.92
1327600,724.62,768.45,1.00,1,1,1,711.04,-2.56,100129.14,246.42,-2.37,78952.24,322.58,2.96,11129.79,1601.94,-3.13,108976.42,4867.07,-3.12,12066.32
1342000,728.18,769.17,1.00,1,1,1,251.69,0.20,65920.96,633.84,0.68,61074.61,246.42,-2.37,18737.87,435.62,-3.01,81261.18,3941.27,-3.14,64478.17
1363000,742.11,782.51,1.00,1,1,1,918.62,0.76,34220.13,918.62,0.76,13920.05,633.84,0.68,41879.73,322.58,2.96,7737.85,2533.53,3.09,67596.13
