@RELATION gaze_labels

%@METADATA width_px 1920
%@METADATA height_px 1080
%@METADATA width_mm 540.00
%@METADATA height_mm 254.00
%@METADATA distance_mm 620.00


@ATTRIBUTE time INTEGER
@ATTRIBUTE x NUMERIC
@ATTRIBUTE y NUMERIC
@ATTRIBUTE confidence NUMERIC
@ATTRIBUTE handlabeller1 INTEGER
@ATTRIBUTE handlabeller2 INTEGER
@ATTRIBUTE handlabeller_final INTEGER
@ATTRIBUTE speed_1 numeric
@ATTRIBUTE direction_1 numeric
@ATTRIBUTE acceleration_1 numeric
@ATTRIBUTE speed_2 numeric
@ATTRIBUTE direction_2 numeric
@ATTRIBUTE acceleration_2 numeric
@ATTRIBUTE speed_4 numeric
@ATTRIBUTE direction_4 numeric
@ATTRIBUTE acceleration_4 numeric
@ATTRIBUTE speed_8 numeric
@ATTRIBUTE direction_8 numeric
@ATTRIBUTE acceleration_8 numeric
@ATTRIBUTE speed_16 numeric
@ATTRIBUTE direction_16 numeric
@ATTRIBUTE acceleration_16 numeric

%The number after speed, direction denotes the step size that was used for the calculation.
%Acceleration was calculated between two adjacent samples of the already low pass filtered velocity

@DATA
0,213.54,766.08,1.00,1,1,1,0.00,0.00,0.00,3403.64,2.94,0.00,1611.39,2.92,0.00,453.70,2.70,0.00,157.31,2.84,0.00
14500,165.14,775.76,1.00,1,1,1,3403.64,2.94,234733.99,1611.39,2.92,123679.93,282.62,0.21,129088.63,476.68,0.11,61719.93,243.14,0.01,27296.10
35200,158.24,778.69,1.00,1,1,1,362.52,2.74,147322.54,282.62,0.21,90424.40,453.70,2.70,33808.27,727.40,-0.14,14012.18,243.58,0.11,1188.39
49500,174.82,777.80,1.00,1,1,1,1161.47,-0.05,105407.89,994.60,-0.00,50401.00,476.68,0.11,62583.15,450.33,-0.23,19749.91,79.62,2.51,21472.95
64300,187.18,778.58,1.00,1,1,1,836.66,0.06,23293.81,713.24,0.06,19408.17,727.40,-0.14,19598.11,157.31,2.84,41038.03,81.82,-0.23,10694.20
78500,195.46,779.14,1.00,1,1,1,584.60,0.07,17751.42,526.38,-0.35,21955.85,450.33,-0.23,19888.99,243.14,0.01,27872.78,471.37,-0.15,27458.12
99700,204.71,772.27,1.00,1,1,1,543.36,-0.64,18468.75,312.53,-0.81,13367.82,150.20,-0.74,15442.45,243.58,0.11,1160.36,1078.31,-0.08,28718.73
114200,203.17,771.07,1.00,1,1,1,134.77,-2.48,40948.87,365.17,-3.12,42838.69,80.08,-0.45,5310.94,79.62,2.51,21176.77,1538.42,-0.08,31732.03
128300,194.27,772.09,1.00,1,1,1,635.38,3.03,38821.78,104.23,1.86,24977.43,197.73,2.42,19554.84,81.82,-0.23,11225.12,927.27,-0.04,43447.84
164800,201.69,776.13,1.00,1,1,1,231.34,0.50,22884.16,209.64,1.69,2962.10,439.75,2.79,7262.34,471.37,-0.15,10682.34,1011.98,-0.08,2520.78
178700,192.97,782.58,1.00,1,1,1,779.63,2.50,64879.83,892.90,2.90,60541.34,68.56,0.51,35043.79,1078.31,-0.08,43801.23,1072.07,-0.09,4330.60
207500,164.65,785.20,1.00,2,2,2,987.56,3.05,17904.67,202.79,-0.77,37247.64,905.89,-0.12,29565.51,1538.42,-0.08,15976.19,980.90,-0.07,3189.79
229000,200.29,775.47,1.00,3,3,3,1718.26,-0.27,125410.20,3046.30,-0.16,134062.69,2324.57,-0.13,65990.49,1767.87,-0.06,10759.30,920.98,-0.05,3015.23
243300,272.29,767.68,1.00,1,1,1,5064.55,-0.11,236281.67,6170.66,-0.10,219360.11,4402.12,-0.12,145309.84,1824.72,-0.09,5686.13,868.11,-0.04,3703.73
257300,374.10,758.58,1.00,1,1,1,7301.00,-0.09,159952.96,6128.93,-0.09,3493.62,4455.12,-0.08,14339.10,1912.30,-0.11,6591.93,1010.88,0.00,10648.22
271500,444.39,751.67,1.00,1,1,1,4973.47,-0.10,163953.16,3101.82,-0.04,213743.42,2953.93,-0.09,105748.69,2274.80,-0.10,25603.42,1334.02,-0.02,22840.39
293100,485.05,753.91,1.00,1,1,1,1885.36,0.05,144599.63,447.39,-0.01,122903.88,1406.37,-0.07,71667.86,1999.25,-0.04,13999.59,1809.36,-0.05,22085.07
307200,460.36,751.53,1.00,1,1,1,1759.25,-3.05,258428.90,766.53,-3.08,86042.94,180.68,0.48,89012.54,1381.55,0.00,44049.12,2265.94,-0.08,32702.45
321100,463.63,752.58,1.00,1,1,1,246.99,0.31,143978.99,276.77,2.38,44156.86,475.17,2.75,43738.46,939.53,0.11,33154.02,2408.41,-0.10,10885.28
335600,454.68,756.97,1.00,1,1,1,687.17,2.68,60820.75,404.00,2.05,11479.26,299.31,2.15,19646.89,1094.24,0.07,11028.93,2679.67,-0.12,18959.57
357400,456.80,765.56,1.00,2,2,2,405.71,1.33,33014.22,326.50,1.99,3693.30,567.14,0.56,29584.35,1865.45,-0.03,36057.42,2426.00,-0.12,11637.92
371800,449.82,767.75,1.00,2,2,2,507.99,2.84,43772.02,1314.46,0.18,99231.88,2003.44,0.04,106804.65,2775.88,-0.07,63514.70,2018.49,-0.12,28301.98
387200,495.34,772.57,1.00,2,2,2,2972.37,0.11,223662.13,4644.67,-0.04,219097.15,4399.89,-0.07,157147.87,2949.05,-0.10,12309.27,1677.43,-0.13,22152.42
401100,585.80,762.29,1.00,3,3,3,6549.76,-0.11,266525.50,7632.10,-0.12,217470.75,6034.84,-0.11,118569.21,3077.80,-0.14,12671.60,1430.54,-0.13,17767.13
416100,714.39,746.69,1.00,1,1,1,8635.17,-0.12,139080.38,7440.48,-0.16,24453.59,5519.31,-0.16,38979.91,2836.10,-0.18,17921.23,1274.68,-0.14,10420.03
430500,801.79,727.63,1.00,1,1,1,6212.21,-0.21,174905.57,3824.39,-0.23,252560.09,4205.41,-0.22,93430.73,2546.39,-0.18,20123.70,1321.39,-0.13,3323.16
451800,847.26,715.31,1.00,1,1,1,2211.89,-0.26,188009.17,1599.22,-0.46,107817.96,1718.23,-0.38,118376.46,2316.44,-0.21,11338.05,1267.08,-0.15,2848.61
466200,852.89,702.18,1.00,1,1,1,992.18,-1.17,123295.02,456.79,-1.96,113217.95,558.66,-0.61,82041.81,1735.87,-0.24,40529.85,1269.33,-0.15,330.00
494600,839.87,697.21,1.00,1,1,1,490.92,-2.78,39606.83,128.17,-2.25,11827.34,207.04,-1.31,14880.31,885.91,-0.30,30048.91,1195.89,-0.18,2838.54
530600,847.73,695.74,1.00,1,1,1,222.14,-0.18,19172.58,246.62,-0.04,9413.22,52.56,-1.77,4489.86,339.12,-0.50,15486.75,1168.11,-0.16,1038.33
544700,852.21,696.72,1.00,1,1,1,325.61,0.22,10554.47,159.57,0.38,8480.54,255.21,0.11,19550.09,129.96,-1.85,23804.98,1032.16,-0.19,9937.52
558900,851.93,697.40,1.00,1,1,1,51.92,1.97,23866.99,269.00,0.24,7954.74,97.78,0.40,11570.28,67.43,-2.80,7485.93,680.10,-0.21,24820.64
594300,865.17,699.91,1.00,3,3,3,380.71,0.19,11153.90,62.47,0.45,5881.86,146.54,-2.90,6879.86,181.34,2.98,3569.60,262.16,-0.35,11920.35
608300,854.71,698.73,1.00,1,1,1,751.67,-3.03,80833.15,874.82,-2.90,66862.73,122.04,3.06,3524.76,381.21,2.82,14599.36,52.42,-0.55,15081.20
622600,841.13,693.98,1.00,1,1,1,1006.11,-2.80,22423.99,368.97,-3.10,36276.91,856.83,3.10,51392.09,391.77,2.81,756.02,182.90,3.09,16108.25
643900,841.58,698.22,1.00,1,1,1,200.28,1.46,51967.80,891.17,2.88,25779.51,935.80,2.90,9266.75,439.49,2.80,2247.21,252.03,2.85,4025.11
658000,810.63,702.02,1.00,1,1,1,2212.03,3.02,157297.67,1669.29,2.82,55428.06,722.82,2.68,19966.79,608.84,2.89,12416.17,270.82,2.89,1542.85
672300,796.55,713.03,1.00,1,1,1,1249.70,2.48,91626.55,585.56,2.28,84252.83,866.32,2.75,10887.37,345.45,2.66,19787.24,234.63,2.98,3025.61
687100,799.47,714.90,1.00,1,1,1,234.09,0.57,90911.59,251.07,2.37,22701.92,423.62,2.44,32498.40,422.87,2.68,5245.07,261.32,2.89,2348.27
708100,790.12,719.31,1.00,1,1,1,492.16,2.70,30839.08,304.45,2.69,4954.58,309.67,0.32,30614.31,527.83,2.74,5234.47,466.52,3.04,10050.96
722100,789.87,719.53,1.00,1,1,1,23.70,2.43,33525.22,891.61,-0.00,83834.16,120.10,2.67,28826.29,385.04,2.84,10638.90,1020.96,3.00,39647.25
736500,815.44,719.21,1.00,1,1,1,1776.06,-0.01,124603.53,103.36,-0.40,55356.38,190.54,2.71,4907.86,106.31,-2.57,22696.82,1435.09,2.96,28964.22
751000,792.62,718.37,1.00,1,1,1,1574.78,-3.10,231022.80,1023.25,3.00,77488.88,412.22,-3.04,18335.35,124.27,-3.09,4211.23,1668.49,2.94,16226.83
772500,778.98,724.46,1.00,1,1,1,694.82,2.72,46471.60,810.48,-3.09,12808.17,514.47,-2.72,8347.56,525.22,-3.02,18666.21,1562.57,2.96,5076.69
787600,763.00,716.90,1.00,1,1,1,1170.70,-2.70,58969.31,685.42,-1.26,78695.23,155.95,-2.70,23748.21,1430.81,3.05,61264.80,1364.68,2.94,13185.77
801300,784.99,705.65,1.00,2,2,2,1803.15,-0.47,195842.42,731.07,-0.14,55075.16,890.71,-2.91,53933.81,2521.51,3.00,79895.14,1204.53,2.99,12692.31
815900,783.48,714.02,1.00,2,2,2,582.60,1.75,151048.21,1727.93,3.06,168373.55,2471.07,3.01,114283.29,2912.30,2.98,27058.92,1196.52,2.96,2680.04
837500,722.67,711.01,1.00,3,3,3,2819.08,-3.09,129850.16,4960.61,3.01,149779.58,4584.32,2.94,98530.56,2491.85,2.99,19598.41,1188.64,2.96,389.76
852300,604.43,737.37,1.00,1,1,1,8184.89,2.92,372851.29,8096.00,2.91,216505.24,5676.17,2.96,74164.86,2244.74,2.96,17807.50,1182.61,2.97,606.34
867100,489.56,766.57,1.00,1,1,1,8008.87,2.89,20068.01,6590.45,2.91,101744.34,3852.63,2.92,123737.98,2119.25,2.97,8619.02,1332.83,2.99,10280.00
881300,418.35,780.96,1.00,1,1,1,5116.01,2.94,204946.57,1368.36,2.98,368054.74,2068.03,2.90,125771.34,2069.12,2.95,4285.09,1260.84,3.00,5170.05
917600,421.33,777.55,1.00,1,1,1,124.65,-0.85,143683.79,510.30,-0.15,51753.63,385.20,-3.08,46946.80,1756.27,2.89,9155.36,1312.86,3.02,1562.90
932200,444.01,776.97,1.00,1,1,1,1554.04,-0.03,100839.92,826.88,-0.38,23971.40,458.36,-0.10,57597.93,984.60,2.88,52869.74,1378.33,2.99,5095.68
960000,453.84,764.41,1.00,1,1,1,573.48,-0.91,45643.10,398.55,-0.01,17190.27,421.40,0.07,2978.50,340.22,2.93,23207.44,1607.87,3.00,8279.69
974700,460.95,776.75,1.00,1,1,1,968.93,1.05,88278.68,436.47,1.56,40207.47,144.84,0.08,18814.82,78.82,-0.90,27481.62,1726.84,3.03,8795.80
995400,454.04,779.86,1.00,1,1,1,366.30,2.72,51672.29,170.19,2.95,21199.01,331.08,2.46,21591.42,115.92,-2.74,7553.34,1533.45,3.01,9448.35
1009400,455.16,777.90,1.00,1,1,1,161.66,-1.05,36142.04,594.18,-3.01,31181.29,503.49,-2.97,27047.36,496.63,-3.13,27986.86,684.42,3.04,60664.69
1023400,437.55,777.65,1.00,2,2,2,1258.01,-3.13,95972.33,846.13,-2.90,18783.46,767.94,-2.96,18896.18,976.75,3.10,34401.82,291.42,-0.26,69523.45
1044500,426.31,770.85,1.00,2,2,2,622.67,-2.60,37282.54,906.96,-2.94,3227.34,1274.90,-3.12,25133.57,1344.57,-3.10,18025.49,1122.09,-0.16,39472.09
1058600,406.29,771.17,1.00,1,1,1,1419.93,3.13,67493.70,1841.08,3.04,71828.52,1693.99,-3.07,30212.93,1301.75,-3.06,4718.02,1587.45,-0.15,33004.85
1073000,374.09,776.06,1.00,1,1,1,2261.31,2.99,60794.25,2672.54,-3.12,60630.16,2267.25,-3.13,40696.52,382.71,-2.72,65906.32,1543.49,-0.17,3353.55
1087300,329.60,769.57,1.00,2,2,2,3144.19,-3.00,82616.46,2623.84,-3.07,10708.68,1834.11,-3.10,30553.66,1062.37,-0.24,96826.18,1516.43,-0.17,1894.40
1108500,281.21,769.02,1.00,2,2,2,2282.62,-3.13,43988.43,1153.68,-3.06,69347.61,629.67,-0.46,113449.86,2546.72,-0.13,70563.89,1530.94,-0.20,2333.21
1122600,289.00,766.39,1.00,2,2,2,583.09,-0.33,201375.20,4486.31,-0.09,399130.38,3763.03,-0.10,225634.62,3429.38,-0.14,62613.91,1550.89,-0.21,2174.32
1137400,410.40,757.99,1.00,2,2,2,8222.02,-0.07,517535.36,9769.83,-0.08,357018.57,7841.59,-0.08,275656.42,3767.84,-0.14,22920.71,1445.29,-0.21,7171.97
1151400,569.56,745.05,1.00,3,3,3,11406.43,-0.08,227610.30,11173.83,-0.08,100445.84,8581.87,-0.10,53561.05,3972.78,-0.14,14681.36,1481.29,-0.18,4231.42
1166500,734.42,730.86,1.00,1,1,1,10958.22,-0.09,29884.75,7643.36,-0.12,234959.98,6945.75,-0.11,108609.15,4654.93,-0.12,45359.81,1589.74,-0.12,9220.00
1187700,844.97,711.41,1.00,1,1,1,5294.61,-0.17,269030.01,3465.27,-0.19,197825.99,4184.78,-0.17,131021.44,4315.55,-0.13,16038.07,1945.78,-0.09,16918.61
1201700,854.15,707.56,1.00,1,1,1,711.34,-0.40,328829.50,512.08,-2.16,263858.53,1794.41,-0.28,172095.58,3027.70,-0.14,92049.98,2373.61,-0.07,30711.87
1216200,836.85,699.29,1.00,1,1,1,1322.77,-2.70,129156.97,436.50,-2.41,9620.47,255.37,-1.70,122340.94,1842.53,-0.14,81736.75,2797.89,-0.05,29520.95
1230500,844.80,699.16,1.00,1,1,1,556.28,-0.02,128496.54,204.44,-0.60,36589.41,245.39,-2.58,14974.28,873.81,-0.10,67872.06,3145.66,-0.05,24355.45
1252000,842.87,695.13,1.00,1,1,1,207.85,-2.02,31172.88,144.67,-2.89,14809.94,103.46,0.86,16076.64,732.39,0.07,8949.11,3056.70,-0.04,4242.91
1280000,837.87,697.36,1.00,2,2,2,195.52,2.72,10051.04,219.99,1.60,10337.01,366.65,0.52,9676.13,1300.60,0.08,20298.48,2532.97,-0.04,18706.99
1301100,842.60,705.93,1.00,2,2,2,463.82,1.07,24567.67,873.54,0.48,37983.48,1291.05,0.20,45031.05,1903.33,0.09,28571.71,1891.34,-0.03,30422.22
1329500,876.21,717.35,1.00,1,1,1,1249.98,0.33,33778.90,2735.02,0.11,68489.83,2693.19,0.12,49681.07,2051.21,0.09,5212.49,1353.95,-0.02,18929.54
1344000,959.18,719.22,1.00,1,1,1,5723.22,0.02,313552.33,5289.56,0.04,177239.08,3874.50,0.07,82229.23,2054.02,0.12,4243.69,1055.77,0.03,20922.84
1365500,1066.49,724.89,1.00,1,1,1,4998.08,0.05,34557.70,5241.25,0.04,2358.48,4675.80,0.04,37877.37,2078.87,0.12,1158.54,1053.89,0.03,168.88
1379900,1147.17,727.22,1.00,1,1,1,5605.23,0.03,43070.05,3914.04,0.03,92264.81,3155.27,0.07,105882.81,1967.56,0.09,8940.97,1054.89,0.05,1470.13
1394500,1179.95,728.18,1.00,1,1,1,2246.02,0.03,230082.84,549.75,0.34,232501.46,1157.47,0.11,136950.22,1967.19,0.03,8052.04,2051.21,0.09,68329.63
1408400,1161.95,732.42,1.00,1,1,1,1330.20,2.91,255245.25,1714.91,3.06,160329.50,376.00,3.03,109836.55,1449.92,0.00,37298.72,2054.02,0.12,4426.87
1422500,1132.08,731.99,1.00,1,1,1,2118.54,-3.13,63056.01,1086.37,-3.08,46721.95,797.96,-3.05,30886.06,728.65,-0.09,51596.16,2078.87,0.12,1766.56
1444200,1123.14,729.88,1.00,1,1,1,423.34,-2.91,78691.20,242.62,-1.90,46952.08,318.48,-2.49,25559.94,95.90,-1.80,34485.96,1967.56,0.09,5933.18
1458200,1129.31,723.78,1.00,1,1,1,619.46,-0.78,65517.66,863.82,-0.41,62664.51,419.38,-0.58,43261.45,797.96,-3.05,55243.65,1967.19,0.03,8397.13
1472600,1145.63,720.09,1.00,1,1,1,1162.45,-0.22,49724.59,910.75,-0.26,9990.69,403.33,-0.60,1274.20,318.48,-2.49,38517.42,1449.92,0.00,36003.63
1487000,1154.68,717.12,1.00,1,1,1,660.96,-0.32,35306.90,141.08,-1.83,64011.08,910.75,-0.26,38112.38,419.38,-0.58,42059.74,728.65,-0.09,50521.24
1508100,1144.36,715.25,1.00,1,1,1,497.02,-2.96,53229.22,497.02,-2.96,21591.57,141.08,-1.83,43685.29,403.33,-0.60,869.59,95.90,-1.80,35466.61
