@RELATION gaze_labels

%@METADATA width_px 1920
%@METADATA height_px 1080
%@METADATA width_mm 540.00
%@METADATA height_mm 254.00
%@METADATA distance_mm 620.00


@ATTRIBUTE time INTEGER
@ATTRIBUTE x NUMERIC
@ATTRIBUTE y NUMERIC
@ATTRIBUTE confidence NUMERIC
@ATTRIBUTE handlabeller1 INTEGER
@ATTRIBUTE handlabeller2 INTEGER
@ATTRIBUTE handlabeller_final INTEGER
@ATTRIBUTE speed_1 numeric
@ATTRIBUTE direction_1 numeric
@ATTRIBUTE acceleration_1 numeric
@ATTRIBUTE speed_2 numeric
@ATTRIBUTE direction_2 numeric
@ATTRIBUTE acceleration_2 numeric
@ATTRIBUTE speed_4 numeric
@ATTRIBUTE direction_4 numeric
@ATTRIBUTE acceleration_4 numeric
@ATTRIBUTE speed_8 numeric
@ATTRIBUTE direction_8 numeric
@ATTRIBUTE acceleration_8 numeric
@ATTRIBUTE speed_16 numeric
@ATTRIBUTE direction_16 numeric
@ATTRIBUTE acceleration_16 numeric

%The number after speed, direction denotes the step size that was used for the calculation.
%Acceleration was calculated between two adjacent samples of the already low pass filtered velocity

@DATA
0,1446.03,892.01,1.00,4,4,4,0.00,0.00,0.00,6364.83,-2.56,0.00,8075.62,-2.79,0.00,9533.88,-3.05,0.00,6268.55,3.13,0.00
21000,1334.66,818.10,1.00,0,0,0,6364.83,-2.56,303086.92,8075.62,-2.79,113053.47,11629.06,-3.09,219638.74,8900.28,3.03,92390.37,5288.38,3.05,51981.71
35700,1175.79,791.58,1.00,0,0,0,10957.33,-2.98,392226.32,11629.06,-3.09,313769.63,9533.88,-3.05,144862.18,7590.16,2.90,116338.03,3972.23,3.00,90942.71
49700,1001.34,801.03,1.00,0,0,0,12478.40,3.09,212772.21,12045.42,3.00,163214.04,8900.28,3.03,138585.56,5463.48,2.84,153967.83,2510.54,2.99,104419.90
64000,838.19,838.80,1.00,0,0,0,11711.33,2.91,155902.31,7016.58,2.81,372001.57,7590.16,2.90,119592.24,6268.55,3.13,132362.96,1321.47,-3.13,85592.86
85800,761.54,882.61,1.00,1,1,1,4049.68,2.62,363260.73,4254.91,2.66,132760.16,5463.48,2.84,98878.43,5288.38,3.05,50074.13,975.95,-2.65,29346.35
99900,703.16,910.22,1.00,1,1,1,4580.20,2.70,44471.93,3480.35,2.91,88937.47,3209.47,2.86,159917.20,3972.23,3.00,94812.61,825.16,-2.33,22830.07
113900,666.31,904.86,1.00,1,1,1,2659.75,-3.00,198883.83,2275.06,-2.95,120792.18,1656.55,-3.11,122330.99,2510.54,2.99,104419.90,603.12,-2.33,15860.43
128800,638.66,897.46,1.00,1,1,1,1921.06,-2.88,52662.30,764.66,-1.98,130366.10,886.83,-2.18,89469.39,1321.47,-3.13,82146.16,3125.65,-3.07,182027.25
150000,655.23,879.58,1.00,1,1,1,1150.34,-0.82,125493.25,1313.91,-0.82,58123.49,894.09,-1.31,35526.63,975.95,-2.65,30176.90,2797.13,3.13,19161.06
164200,670.45,863.51,1.00,1,1,1,1558.17,-0.81,28738.35,1405.23,-0.86,7819.39,1045.49,-1.12,16519.54,825.16,-2.33,22669.29,2183.61,3.09,43629.60
178600,681.31,848.99,1.00,1,1,1,1259.04,-0.93,23618.86,926.55,-1.67,70621.00,873.47,-1.65,36340.51,603.12,-2.33,15419.86,1529.19,3.11,45472.37
193000,667.73,836.96,1.00,1,1,1,1260.04,-2.42,118500.29,1110.62,-2.45,54667.31,785.50,-2.50,48282.26,522.23,-2.15,8917.21,657.58,-3.02,61481.70
214100,651.03,823.75,1.00,2,2,2,1009.35,-2.47,12242.33,1067.31,-3.05,30514.25,951.11,-3.05,23420.96,679.57,-2.59,14362.78,252.53,-1.90,28080.45
228900,629.59,833.29,1.00,3,3,3,1585.76,2.72,96702.06,1108.41,2.75,35655.43,888.74,-3.11,5765.04,799.33,-2.81,13351.55,609.52,-0.71,38325.72
257500,606.58,842.15,1.00,1,1,1,861.95,2.77,25394.90,744.84,3.09,16638.90,995.23,3.08,4737.91,776.67,-2.88,2140.99,871.94,-0.52,10440.97
272100,597.45,834.99,1.00,1,1,1,794.18,-2.48,56125.97,1027.29,-2.77,31888.51,849.06,-3.00,16320.09,182.43,-2.37,42738.05,977.52,-0.42,9601.57
293700,571.95,828.58,1.00,1,1,1,1217.30,-2.90,27226.77,960.09,-2.87,5458.46,637.91,-2.62,16079.07,501.14,-0.15,29075.83,919.98,-0.37,3313.00
322000,551.36,821.95,1.00,2,2,2,764.66,-2.83,16148.20,343.86,-2.24,25087.93,609.58,-0.37,39752.65,1260.16,-0.20,26855.35,836.67,-0.34,3123.35
336700,562.76,817.00,1.00,2,2,2,845.43,-0.41,102512.73,2640.31,-0.06,193921.51,1777.38,-0.11,81620.29,1871.31,-0.23,41687.61,768.81,-0.32,4677.85
358000,646.21,815.91,1.00,3,3,3,3918.52,-0.01,148142.34,3466.11,-0.04,38969.22,3702.86,-0.11,90398.25,1953.32,-0.18,5489.67,797.13,-0.28,1963.89
386900,736.64,810.77,1.00,1,1,1,3134.11,-0.06,27654.40,4595.67,-0.13,41165.62,4229.06,-0.13,18365.37,2188.66,-0.14,8654.17,802.92,-0.22,1662.53
401000,842.18,790.40,1.00,1,1,1,7622.58,-0.19,321689.93,5595.01,-0.22,78225.86,3424.65,-0.15,57388.16,2498.89,-0.12,22452.89,841.03,-0.22,2705.20
416000,895.48,774.99,1.00,1,1,1,3699.13,-0.28,263527.53,2037.37,-0.20,237224.35,2785.24,-0.18,43027.22,2377.21,-0.12,8163.62,1081.42,-0.22,16027.56
437200,914.46,775.74,1.00,1,1,1,895.79,0.04,135045.22,527.54,0.22,74076.97,1036.54,-0.16,82504.69,1828.54,-0.18,26567.31,1483.18,-0.14,19489.22
451500,913.76,779.07,1.00,1,1,1,238.28,1.78,67447.50,247.39,2.50,49931.29,87.79,0.06,66507.71,1210.97,-0.27,44018.22,2241.50,-0.09,53503.97
466000,908.74,779.99,1.00,1,1,1,351.67,2.96,23593.42,461.40,-2.86,25509.43,208.68,-2.54,19831.09,283.77,-0.36,64062.84,3003.70,-0.06,52812.29
480100,901.10,775.36,1.00,1,1,1,634.23,-2.60,31119.73,368.97,-1.99,25451.92,440.71,-2.81,17470.77,106.40,-0.01,13279.18,3289.55,-0.04,20597.58
501100,903.49,768.16,1.00,1,1,1,361.20,-1.25,31250.57,424.76,-2.77,14614.07,510.28,-3.06,6600.39,888.49,-0.02,37242.74,2967.87,-0.04,15319.55
515600,887.04,769.89,1.00,2,2,2,1140.39,3.04,91782.42,1003.70,2.81,50512.95,125.51,-0.07,43771.42,2315.85,-0.02,98439.43,2630.54,-0.05,23355.57
529700,876.33,777.48,1.00,2,2,2,930.55,2.53,39827.60,793.11,0.22,122729.02,1934.82,0.04,128376.23,3579.21,-0.01,89615.40,2168.66,-0.04,32863.74
544100,909.11,774.79,1.00,2,2,2,2283.57,-0.08,216704.42,4212.80,-0.03,239547.02,5043.40,0.01,215967.16,4320.63,0.01,51771.96,2061.42,-0.01,8930.76
565900,1028.77,772.94,1.00,1,1,1,5489.76,-0.02,147467.46,8451.36,-0.01,194531.92,7616.05,-0.01,118097.46,4263.97,0.02,4090.42,2101.00,0.01,2080.65
579800,1210.81,772.77,1.00,1,1,1,13096.72,-0.00,547335.17,11971.36,0.00,253340.09,8477.17,0.01,62554.51,4088.27,0.01,13423.79,2392.18,0.02,21034.85
594200,1367.56,774.05,1.00,1,1,1,10885.31,0.01,153754.84,8511.58,0.03,240791.61,6626.22,0.02,128652.26,4063.33,-0.02,7155.01,2552.91,0.03,11408.90
608700,1456.72,779.18,1.00,1,1,1,6158.98,0.06,327138.65,2382.58,0.08,423007.55,3133.14,0.01,240932.66,4005.83,-0.00,5136.31,2657.25,0.04,7357.02
629800,1452.11,780.73,1.00,1,1,1,230.22,2.82,302040.74,1276.29,-3.03,173381.13,521.67,-0.16,124165.34,3195.01,0.01,38547.43,2802.54,0.05,7004.35
644000,1411.96,774.03,1.00,1,1,1,2867.05,-2.98,187767.54,1815.86,-2.91,39950.96,504.86,-2.93,71034.29,2463.56,0.05,52020.77,2933.54,0.05,9254.62
658800,1400.84,768.74,1.00,1,1,1,831.92,-2.70,140519.15,457.25,-0.13,151957.96,413.69,-0.06,61492.98,1728.76,0.10,50239.87,2999.79,0.03,5464.79
672900,1425.05,772.25,1.00,2,2,2,1735.32,0.14,180287.02,1695.38,0.12,89234.05,1922.98,0.11,107549.36,1363.95,0.12,25929.27,2743.05,0.03,18208.76
708600,1484.66,778.86,1.00,3,3,3,1679.88,0.11,2230.90,2782.07,0.13,30446.10,2575.95,0.14,18410.04,1615.99,0.11,7083.78,2359.03,0.03,10761.39
722700,1562.42,790.28,1.00,1,1,1,5574.25,0.15,276304.20,3577.80,0.15,56651.85,2557.68,0.13,2053.15,2000.34,0.11,27260.52,1736.87,0.05,44157.98
752400,1639.54,802.69,1.00,1,1,1,2630.12,0.16,99144.38,2336.85,0.13,41819.13,2818.56,0.13,8785.84,2135.75,0.10,4575.48,1184.66,0.08,18664.10
773300,1679.59,806.18,1.00,1,1,1,1923.43,0.09,34701.25,1882.80,0.08,22450.54,2077.32,0.11,35543.46,1760.12,0.09,18009.32,709.15,0.08,22752.02
787800,1705.99,807.91,1.00,1,1,1,1824.50,0.07,7368.86,1621.00,0.05,18437.89,1497.50,0.01,41891.40,1527.57,0.08,16107.87,305.45,0.06,27849.31
801800,1725.74,808.37,1.00,1,1,1,1410.95,0.02,29931.30,1033.35,-0.15,45940.53,542.18,-0.22,69775.52,1011.77,0.04,37026.31,110.95,3.14,29732.55
816000,1734.78,803.41,1.00,1,1,1,726.24,-0.50,60760.89,437.05,-2.47,96246.10,195.98,-1.85,41313.74,514.67,-0.03,35149.10,560.12,-3.13,31633.95
837500,1713.57,798.61,1.00,1,1,1,1011.77,-2.92,75744.16,926.20,-2.91,26237.90,351.45,-2.54,10983.27,152.67,-2.54,29966.57,900.15,-3.11,15820.24
851700,1702.59,795.85,1.00,1,1,1,796.77,-2.90,15210.88,248.29,-2.69,48297.84,460.81,-3.06,16553.72,1317.40,-3.01,83341.68,1341.34,-3.10,31093.90
865900,1707.21,795.55,1.00,2,2,2,325.90,-0.07,78276.86,203.55,1.09,30230.86,787.43,-3.07,23006.47,2714.37,-3.04,98484.95,1656.01,-3.06,22526.80
880200,1705.30,800.99,1.00,2,2,2,402.74,1.91,42621.36,1237.42,-3.13,94145.82,2565.33,-3.08,124330.76,3852.30,-3.07,79753.80,1958.68,-3.03,21414.63
901200,1663.53,795.07,1.00,3,3,3,2008.69,-3.00,93787.43,4724.18,-3.05,166300.48,5135.57,-3.08,122393.19,4284.54,-3.08,20768.23,2051.69,-3.04,4456.59
915500,1539.25,785.59,1.00,1,1,1,8716.54,-3.07,469459.71,9966.40,-3.07,366699.88,7233.26,-3.07,146745.52,4520.73,-3.09,16571.34,2512.48,-3.08,32947.19
929700,1380.26,774.16,1.00,1,1,1,11225.12,-3.07,176687.00,10278.33,-3.08,22875.89,7680.41,-3.08,32436.38,4618.86,-3.07,8356.04,3458.90,-3.14,67703.09
944600,1240.77,766.24,1.00,1,1,1,9376.60,-3.08,124494.59,5926.00,-3.10,292346.96,6431.29,-3.09,83879.18,4412.61,-3.05,15300.92,3852.30,-3.07,31870.30
966800,1160.60,764.94,1.00,1,1,1,3611.95,-3.13,259886.09,3340.44,-3.11,116503.62,4112.66,-3.06,104590.80,3952.41,-3.06,20786.06,4284.54,-3.08,19645.62
980800,1119.89,762.94,1.00,1,1,1,2910.96,-3.09,50652.61,1738.28,-2.90,120210.93,1589.63,-2.97,181071.43,3702.14,-3.11,22624.12,4520.73,-3.09,16926.44
994800,1113.34,753.30,1.00,1,1,1,832.46,-2.17,178525.43,890.74,-0.62,172665.63,220.73,-1.97,105759.04,4141.73,3.09,39864.62,4618.86,-3.07,8475.41
1008800,1140.26,748.55,1.00,2,2,2,1952.98,-0.17,172622.92,1176.66,-0.03,46868.78,906.99,3.03,62160.72,1589.63,-2.97,187019.25,4412.61,-3.05,16284.55
1030300,1155.09,752.06,1.00,2,2,2,708.69,0.23,61957.39,2264.08,2.88,159046.11,4220.12,2.98,154157.23,220.73,-1.97,68866.35,3952.41,-3.06,21462.82
1044300,1062.68,769.55,1.00,2,2,2,6717.99,2.95,526494.93,8709.91,2.99,461924.82,2264.08,2.88,141550.16,906.99,3.03,62160.72,3702.14,-3.11,22624.12
1072900,788.03,806.28,1.00,1,1,1,9688.57,3.01,104981.46,9688.57,3.01,34500.95,8709.91,2.99,226117.05,4220.12,2.98,115887.43,4141.73,3.09,19514.15
