@RELATION gaze_labels

%@METADATA width_px 1920
%@METADATA height_px 1080
%@METADATA width_mm 540.00
%@METADATA height_mm 254.00
%@METADATA distance_mm 620.00


@ATTRIBUTE time INTEGER
@ATTRIBUTE x NUMERIC
@ATTRIBUTE y NUMERIC
@ATTRIBUTE confidence NUMERIC
@ATTRIBUTE handlabeller1 INTEGER
@ATTRIBUTE handlabeller2 INTEGER
@ATTRIBUTE handlabeller_final INTEGER
@ATTRIBUTE speed_1 numeric
@ATTRIBUTE direction_1 numeric
@ATTRIBUTE acceleration_1 numeric
@ATTRIBUTE speed_2 numeric
@ATTRIBUTE direction_2 numeric
@ATTRIBUTE acceleration_2 numeric
@ATTRIBUTE speed_4 numeric
@ATTRIBUTE direction_4 numeric
@ATTRIBUTE acceleration_4 numeric
@ATTRIBUTE speed_8 numeric
@ATTRIBUTE direction_8 numeric
@ATTRIBUTE acceleration_8 numeric
@ATTRIBUTE speed_16 numeric
@ATTRIBUTE direction_16 numeric
@ATTRIBUTE acceleration_16 numeric

%The number after speed, direction denotes the step size that was used for the calculation.
%Acceleration was calculated between two adjacent samples of the already low pass filtered velocity

@DATA
0,404.75,710.44,1.00,1,1,1,0.00,0.00,0.00,2104.61,3.11,0.00,1073.49,2.98,0.00,348.44,2.52,0.00,91.64,1.74,0.00
13900,375.51,711.32,1.00,1,1,1,2104.61,3.11,151410.48,1073.49,2.98,75435.45,314.17,1.74,73152.49,260.56,0.68,35051.57,233.58,0.53,15732.88
34900,367.74,716.30,1.00,1,1,1,439.05,2.57,82980.71,314.17,1.74,48419.98,348.44,2.52,12109.89,377.88,0.08,10519.99,366.16,0.45,6403.36
50300,373.56,722.59,1.00,1,1,1,556.72,0.82,49812.25,395.30,0.62,24956.97,260.56,0.68,31637.46,338.58,0.04,2675.04,356.46,0.43,753.46
79600,382.15,726.53,1.00,1,1,1,322.41,0.43,9808.58,417.83,0.10,7082.31,377.88,0.08,7539.93,91.64,1.74,12330.18,423.54,0.45,2304.78
93800,391.64,724.48,1.00,1,1,1,683.49,-0.21,32879.08,452.00,-0.34,13715.11,338.58,0.04,2901.09,233.58,0.53,15400.50,395.73,0.78,9733.47
128900,403.15,719.08,1.00,1,1,1,362.37,-0.44,9694.31,270.51,-0.04,5979.85,261.48,-0.09,2479.34,366.16,0.45,3831.07,416.33,1.02,2783.42
143300,405.02,723.98,1.00,1,1,1,363.71,1.21,36957.26,198.39,1.71,25159.33,214.80,0.35,7850.40,356.46,0.43,805.78,404.12,0.87,4386.91
157300,402.38,724.66,1.00,2,2,2,194.65,2.89,30773.45,216.64,1.05,9633.77,435.37,0.93,20121.74,423.54,0.45,4823.57,222.72,0.85,12964.62
179000,408.85,730.69,1.00,1,1,1,407.63,0.75,24779.81,677.39,0.76,21830.78,457.41,0.85,1932.27,395.73,0.78,6369.36,291.85,0.66,3895.36
193200,419.95,741.48,1.00,1,1,1,1089.72,0.77,48045.31,763.42,0.78,6090.53,680.92,0.69,16899.40,416.33,1.02,6880.14,339.09,0.53,4332.57
207800,424.55,746.09,1.00,1,1,1,446.09,0.79,44090.64,690.09,0.60,9939.68,671.03,0.96,12604.36,404.12,0.87,4326.81,329.88,0.51,792.35
222500,436.60,752.94,1.00,1,1,1,943.36,0.52,35848.32,618.40,1.15,24433.39,401.24,1.12,19162.78,431.49,0.65,6541.19,295.61,0.41,3231.58
243800,433.67,766.40,1.00,1,1,1,646.32,1.79,45621.16,368.59,1.99,21825.25,351.56,0.90,4577.53,375.49,0.77,3473.67,255.67,0.41,1875.18
257800,431.25,764.80,1.00,1,1,1,207.00,-2.56,53288.14,196.67,-0.44,38119.28,182.08,0.48,14195.67,309.79,0.65,5477.25,286.81,0.40,2230.03
272900,438.85,763.96,1.00,1,1,1,506.38,-0.11,44947.01,584.09,-0.39,25684.94,157.76,-0.43,10065.98,300.81,0.63,786.78,365.66,0.37,5263.11
286900,446.99,758.39,1.00,1,1,1,704.52,-0.60,25042.72,117.89,-0.42,33307.55,317.60,0.05,13755.68,155.78,0.27,11739.53,536.80,0.32,12302.30
301300,441.90,762.58,1.00,1,1,1,457.82,2.45,80642.20,247.94,0.99,17865.11,278.93,0.28,5398.18,214.41,-0.58,11237.72,580.04,0.29,3262.09
322900,451.90,765.84,1.00,1,1,1,486.96,0.32,38345.12,433.89,0.42,12131.86,139.27,-0.02,6994.38,336.98,-0.40,6120.15,591.47,0.17,3391.45
336900,456.02,768.84,1.00,1,1,1,364.08,0.63,12870.51,302.51,-1.08,36443.06,267.39,-0.66,12661.66,424.12,-0.11,9989.13,541.00,0.11,4382.87
351400,455.97,758.24,1.00,1,1,1,731.13,-1.58,68361.84,585.46,-1.60,24630.14,412.74,-0.74,10197.46,679.02,0.12,19508.05,477.21,0.10,4409.56
365700,455.48,751.99,1.00,2,2,2,438.50,-1.65,20671.11,519.63,-0.59,37648.30,595.79,-0.28,20373.42,793.41,0.11,8006.45,484.25,0.03,2427.71
387300,471.46,747.84,1.00,2,2,2,764.19,-0.25,37584.12,1052.62,0.16,35161.70,1219.38,0.14,33198.89,890.14,0.02,5775.59,506.49,0.08,1558.24
402100,493.32,758.00,1.00,1,1,1,1629.05,0.43,77517.10,2299.97,0.32,86086.57,1254.62,0.23,7912.22,805.52,-0.06,7405.63,497.23,0.09,754.24
416000,534.02,768.89,1.00,1,1,1,3030.94,0.26,104592.93,1406.90,0.26,64729.64,1398.92,0.19,10963.79,732.36,0.07,8979.12,463.35,0.08,2468.99
451300,560.15,776.04,1.00,1,1,1,767.42,0.27,64122.82,904.97,-0.01,16724.10,999.82,0.05,12264.06,720.59,0.15,1785.82,517.89,0.02,1776.92
465300,578.63,768.33,1.00,1,1,1,1430.73,-0.40,67950.24,631.34,-0.93,51793.20,419.99,-0.06,41694.94,690.83,0.26,5962.75,544.02,-0.03,2550.27
479700,570.82,761.64,1.00,1,1,1,714.07,-2.43,129487.84,71.38,-2.61,44626.26,167.39,-0.48,19153.73,569.40,0.21,8731.03,624.64,-0.04,5612.84
515100,575.57,766.51,1.00,1,1,1,192.35,0.80,25587.63,172.27,1.47,6277.38,107.91,1.98,7353.45,293.33,0.00,8168.00,491.23,0.11,4474.64
528900,571.68,770.07,1.00,1,1,1,381.85,2.40,31378.75,340.34,1.60,12403.64,224.86,1.04,13307.28,244.51,-0.33,7288.12,312.31,0.32,14168.45
543000,575.27,776.01,1.00,1,1,1,491.82,1.03,39751.79,365.30,0.69,22065.80,104.05,0.39,11051.97,204.88,-0.25,3073.66,145.63,1.62,21858.11
557200,579.64,776.67,1.00,1,1,1,311.49,0.15,26633.09,267.81,-0.83,31145.15,341.51,-0.24,18602.00,443.68,-0.00,17625.83,215.11,2.67,13406.88
578500,581.69,768.99,1.00,1,1,1,372.93,-1.31,21543.47,496.46,-0.72,10884.90,538.28,-0.44,10078.35,189.18,0.34,12788.53,323.52,3.08,7197.22
593000,592.95,764.89,1.00,1,1,1,826.83,-0.35,47261.69,895.20,-0.30,33571.25,869.79,-0.27,24210.72,244.74,2.81,28307.76,271.53,-3.08,4294.39
608100,606.99,761.11,1.00,2,2,2,962.45,-0.26,10300.07,1418.45,-0.08,38418.24,272.51,0.32,43754.64,830.69,3.02,39287.29,344.26,3.00,6234.34
622000,633.96,761.63,1.00,2,2,2,1940.97,0.02,75662.07,450.13,2.14,124218.67,830.15,2.85,76613.15,1097.08,3.08,19600.10,353.09,2.86,3780.63
643400,598.48,774.53,1.00,1,1,1,1763.97,2.79,170209.42,2673.02,2.94,111395.30,2215.74,2.94,65003.83,1104.37,3.10,1422.10,480.07,2.96,6277.95
657100,542.00,780.22,1.00,1,1,1,4143.97,3.04,180470.37,4625.33,3.03,144226.69,3084.49,3.02,65157.14,824.81,3.08,20494.02,571.97,3.08,8095.43
671500,469.34,789.17,1.00,1,1,1,5083.83,3.02,65647.41,3607.98,3.09,72678.73,2498.26,-3.14,47249.89,954.83,2.98,10915.72,482.09,3.08,6241.43
685700,438.95,785.67,1.00,1,1,1,2154.08,-3.03,213577.69,930.25,-2.67,200103.80,860.92,-2.99,116351.20,1225.41,2.97,19065.71,281.83,2.96,14461.14
706800,440.09,774.24,1.00,1,1,1,544.31,-1.47,104913.41,1372.21,-0.28,101715.77,288.88,-0.45,52670.24,1127.56,3.05,6271.78,89.80,2.02,11376.86
722000,486.77,771.73,1.00,1,1,1,3075.46,-0.05,200020.39,1580.46,0.15,43618.07,625.40,0.07,26389.84,908.75,-3.13,16065.43,187.65,0.47,13557.24
736300,486.21,781.07,1.00,1,1,1,654.68,1.63,224901.64,654.78,1.99,130663.29,308.69,0.79,30895.41,145.11,-2.83,53924.67,166.38,0.41,1650.88
750200,479.19,788.56,1.00,1,1,1,738.84,2.32,34557.43,921.29,2.91,53158.27,974.02,3.02,85594.33,427.80,0.08,41022.68,92.68,2.41,15936.25
771900,454.27,788.49,1.00,1,1,1,1148.46,-3.14,38756.78,1542.60,-2.97,36102.74,544.70,3.07,19843.86,923.27,0.13,22867.39,47.68,0.71,5043.30
785900,424.96,778.97,1.00,2,2,2,2200.96,-2.83,82994.87,200.29,-2.07,101841.03,277.77,0.10,58547.00,990.86,0.11,4921.02,204.93,0.09,12033.27
800100,451.55,783.53,1.00,2,2,2,1900.06,0.17,288060.09,1597.80,0.15,121631.01,1498.87,0.02,86074.89,1045.52,-0.01,9324.59,452.32,-0.05,17689.77
835100,502.64,791.01,1.00,1,1,1,1475.32,0.15,12192.45,2406.26,0.06,23661.64,2337.04,0.05,23988.25,811.67,-0.06,6861.91,684.96,-0.05,6647.19
849900,571.15,790.97,1.00,1,1,1,4628.95,-0.00,214629.70,3195.07,-0.01,55128.70,2132.28,-0.02,16894.23,973.85,-0.03,11132.93,879.67,-0.03,13235.03
878300,640.66,789.19,1.00,1,1,1,2448.21,-0.03,76843.99,1840.11,-0.14,48837.34,1375.60,-0.10,27115.56,1108.52,0.04,5397.08,995.44,-0.00,4147.30
893400,650.46,780.16,1.00,1,1,1,882.83,-0.74,124244.75,754.58,-2.81,167953.82,475.41,-0.20,59831.85,930.84,-0.01,12135.76,1371.07,-0.07,25361.70
916200,613.64,779.81,1.00,1,1,1,1615.08,-3.13,102551.27,1119.70,3.06,23054.31,606.80,-3.05,46999.16,956.17,-0.12,4716.70,1676.79,-0.10,13560.39
930700,608.83,783.50,1.00,1,1,1,418.15,2.49,90447.34,504.27,2.72,46018.24,791.58,3.09,14298.34,858.59,-0.19,8100.51,1852.49,-0.10,12130.79
944500,600.64,785.70,1.00,2,2,2,614.53,2.88,20221.87,355.26,-3.06,18871.06,424.18,-0.18,87916.30,1018.08,-0.14,12066.89,1936.27,-0.10,6141.82
958500,598.99,782.67,1.00,2,2,2,246.39,-2.07,43292.04,1156.66,-0.27,106798.04,1343.12,-0.19,65638.66,1769.45,-0.11,53733.03,1689.12,-0.11,17782.78
980000,640.25,774.87,1.00,3,3,3,1952.86,-0.19,94969.64,2642.04,-0.16,69648.76,2671.15,-0.09,62395.59,2864.44,-0.11,50929.86,1574.35,-0.11,5339.65
994600,693.18,767.64,1.00,3,3,3,3659.01,-0.14,117231.77,4548.89,-0.03,134107.76,4349.06,-0.10,114967.27,2949.25,-0.13,7132.67,1260.24,-0.13,21579.68
1009100,772.56,770.91,1.00,1,1,1,5479.38,0.04,136895.30,6520.13,-0.07,136729.51,5587.68,-0.10,85433.78,2974.79,-0.16,5548.97,1219.51,-0.11,3004.06
1023100,878.56,754.87,1.00,1,1,1,7657.73,-0.15,178970.15,6685.05,-0.15,42319.21,4560.59,-0.11,73464.32,2538.95,-0.15,31132.56,1612.90,-0.05,28803.71
1037200,958.16,741.92,1.00,1,1,1,5719.47,-0.16,137564.36,2993.36,-0.19,262106.90,3293.38,-0.21,93955.34,2201.22,-0.11,25242.23,2063.20,-0.04,31967.69
1058400,982.26,734.55,1.00,1,1,1,1188.51,-0.30,214369.69,716.68,-0.66,111967.05,1066.08,-0.34,105678.27,1670.03,-0.10,25078.35,2365.19,-0.04,14257.10
1073100,978.55,726.22,1.00,1,1,1,620.64,-1.99,95670.84,617.10,-2.85,80735.38,60.67,-3.02,76227.06,1404.80,-0.10,18048.60,2467.54,-0.04,6962.96
1101200,956.98,726.89,1.00,1,1,1,767.78,3.11,27891.38,595.26,2.61,17343.17,670.21,2.94,21815.01,1476.49,0.01,6275.81,2267.14,-0.04,7141.80
1122900,953.00,741.26,1.00,2,2,2,687.22,1.84,39873.92,889.98,2.54,13753.95,326.90,1.84,27619.13,1482.43,0.06,3121.77,2070.71,-0.04,9059.31
1137300,930.41,744.95,1.00,2,2,2,1589.71,2.98,100269.94,735.53,0.48,97135.10,2100.23,0.23,148529.87,1913.01,0.09,30071.80,1831.62,-0.03,16612.38
1151600,971.75,750.96,1.00,3,3,3,2921.40,0.14,312093.99,5575.88,0.08,343114.26,3182.07,0.06,81474.31,2102.97,0.10,13448.83,1495.20,-0.06,23725.44
1165900,1089.39,757.43,1.00,3,3,3,8239.02,0.05,373128.96,4652.49,0.02,67656.25,4519.78,0.04,93645.24,2059.50,0.08,3808.64,1147.85,-0.02,24496.31
1200700,1200.13,755.90,1.00,1,1,1,3182.58,-0.01,145650.30,3905.85,0.01,21479.13,4125.49,0.03,11497.91,1960.77,0.04,3927.03,940.82,0.02,6111.54
1214800,1280.37,759.98,1.00,1,1,1,5697.80,0.05,179444.32,3388.59,0.04,37221.07,2056.07,-0.01,146983.17,1984.94,0.02,3361.81,1003.13,0.05,4706.08
1235800,1318.99,760.39,1.00,1,1,1,1839.11,0.01,183851.04,242.23,-0.42,151088.95,734.12,-0.06,63010.65,1576.43,-0.03,19786.70,1095.50,0.08,4646.03
1264100,1291.28,755.13,1.00,1,1,1,996.47,-2.95,99839.93,1490.87,-3.02,60173.06,532.41,-2.90,44270.38,860.28,-0.08,25396.71,1244.84,0.07,5286.41
1277900,1256.71,752.58,1.00,1,1,1,2512.08,-3.07,110601.25,1777.03,-3.04,20978.43,1189.41,-2.97,47752.87,320.77,-0.16,39231.36,1276.49,0.02,4823.37
1293200,1239.82,750.08,1.00,1,1,1,1116.06,-2.99,91595.26,843.61,-2.86,62702.24,996.08,-3.00,12927.22,90.68,-0.99,17486.03,1088.54,0.03,12293.49
1313900,1227.52,744.22,1.00,1,1,1,658.42,-2.70,25290.84,347.13,-2.84,23993.05,195.82,-2.81,38885.02,85.84,-2.33,5318.24,446.93,0.13,31195.99
1327900,1228.33,746.47,1.00,1,1,1,171.37,1.23,56382.13,635.18,0.24,70133.46,684.46,-0.03,62173.58,209.10,-0.13,19223.44,647.09,3.06,77700.01
1342000,1244.85,748.48,1.00,1,1,1,1180.33,0.12,79007.75,1680.75,0.04,75628.83,1319.94,0.09,45752.60,448.24,-0.06,17028.09,1697.93,3.10,74588.85
1363300,1287.78,748.73,1.00,1,1,1,2015.72,0.01,40090.58,1875.61,0.05,9184.52,1404.11,0.06,4388.78,50.66,0.60,19211.72,2324.58,3.12,29497.77
1377100,1310.61,751.62,1.00,1,1,1,1667.15,0.13,29859.16,1060.66,0.10,59300.12,1084.19,0.01,23554.34,1017.79,2.96,76397.80,2641.54,3.13,23071.32
1391700,1317.75,751.76,1.00,2,2,2,489.54,0.02,80927.96,140.33,-0.61,65635.56,672.12,3.02,120041.90,2565.34,3.06,106620.31,2704.19,3.12,4861.96
1405700,1313.90,749.34,1.00,2,2,2,324.76,-2.58,56123.31,2061.80,3.11,155770.01,3289.34,3.06,186999.38,3931.01,3.09,97745.39,2512.53,3.10,14280.48
1426800,1245.41,753.89,1.00,2,2,2,3253.15,3.08,142014.65,6029.58,3.05,188299.32,6542.60,3.09,154297.07,5077.57,3.10,54456.25,2370.17,3.09,6889.49
1441300,1100.08,768.16,1.00,3,3,3,10071.35,3.04,470385.57,12081.23,3.09,417775.00,8928.40,3.10,164561.08,5481.96,3.12,28538.12,2231.24,3.09,9583.21
1455200,902.85,773.10,1.00,3,3,3,14193.90,3.12,303139.56,12585.51,3.12,47697.39,9403.78,3.11,35535.23,5609.53,3.12,9306.33,2295.87,3.10,5307.44
1469600,743.99,775.68,1.00,1,1,1,11033.20,3.13,219624.50,7315.52,-3.14,366243.54,7678.96,-3.14,121588.11,5461.73,3.10,12608.22,2223.55,3.12,5825.77
1491500,637.29,773.09,1.00,1,1,1,4873.41,-3.12,281597.43,3832.90,-3.07,159877.41,4694.96,-3.13,136274.01,4866.65,3.09,27191.74,2474.68,3.12,11475.40
1505600,606.33,766.27,1.00,1,1,1,2248.87,-2.92,191529.62,1315.29,-3.04,178618.70,2022.12,3.11,189817.27,3323.56,3.12,109723.67,2519.48,3.10,4232.32
1519600,600.51,769.45,1.00,1,1,1,473.56,2.64,136982.63,549.88,1.07,120568.89,340.51,2.62,123531.05,2060.64,-3.14,90342.53,2525.31,3.09,2243.52
1534000,613.83,779.96,1.00,1,1,1,1178.27,0.67,99401.47,636.59,0.69,16761.94,286.03,0.54,37528.58,914.25,-3.05,79997.43,2455.16,3.09,4890.47
1555800,618.34,784.05,1.00,1,1,1,279.28,0.74,41278.48,238.12,-0.18,23633.57,92.57,0.26,9109.96,361.10,-3.03,25382.04,2267.90,3.10,8700.65
1584100,625.57,777.83,1.00,1,1,1,337.11,-0.71,14507.89,389.96,-2.27,19412.25,267.93,-2.43,12500.09,142.29,2.41,10152.68,1722.78,-3.14,19514.34
1598500,607.56,771.36,1.00,1,1,1,1328.98,-2.80,105808.60,702.53,-2.69,26456.64,443.93,-2.71,13882.65,135.56,1.80,5750.74,2060.64,-3.14,23468.73
1635100,593.27,762.33,1.00,1,1,1,461.93,-2.58,24147.24,538.00,-2.97,6427.59,454.70,3.05,6431.57,136.19,2.70,3209.02,914.25,-3.05,31474.40
1649100,580.75,766.67,1.00,1,1,1,946.97,2.81,53675.80,680.51,1.76,61478.42,282.42,2.14,25637.91,147.52,-3.05,5411.01,361.10,-3.03,39523.47
1663500,589.64,781.31,1.00,1,1,1,1189.30,1.02,115893.41,962.75,1.01,45477.64,423.30,1.56,16700.58,152.43,-2.64,4231.15,142.29,2.41,19952.83
1678100,595.53,790.35,1.00,1,1,1,739.53,0.99,30873.92,253.64,1.14,48760.35,323.99,0.81,19773.78,282.42,2.14,21375.65,135.56,1.80,5671.96
1699600,593.46,789.63,1.00,1,1,1,102.20,-2.81,38270.33,236.52,-1.62,22382.37,338.09,-0.70,21125.61,423.30,1.56,11185.51,136.19,2.70,5462.80
1713800,595.13,781.92,1.00,1,1,1,555.56,-1.36,38905.96,909.77,-1.05,50860.58,236.52,-1.62,19098.74,323.99,0.81,20330.79,147.52,-3.05,5334.80
1727900,606.33,767.33,1.00,1,1,1,1304.39,-0.92,59322.17,1304.39,-0.92,29765.89,909.77,-1.05,51221.29,338.09,-0.70,32212.81,152.43,-2.64,4321.17
