@RELATION gaze_labels

%@METADATA width_px 1920
%@METADATA height_px 1080
%@METADATA width_mm 540.00
%@METADATA height_mm 254.00
%@METADATA distance_mm 620.00


@ATTRIBUTE time INTEGER
@ATTRIBUTE x NUMERIC
@ATTRIBUTE y NUMERIC
@ATTRIBUTE confidence NUMERIC
@ATTRIBUTE handlabeller1 INTEGER
@ATTRIBUTE handlabeller2 INTEGER
@ATTRIBUTE handlabeller_final INTEGER
@ATTRIBUTE speed_1 numeric
@ATTRIBUTE direction_1 numeric
@ATTRIBUTE acceleration_1 numeric
@ATTRIBUTE speed_2 numeric
@ATTRIBUTE direction_2 numeric
@ATTRIBUTE acceleration_2 numeric
@ATTRIBUTE speed_4 numeric
@ATTRIBUTE direction_4 numeric
@ATTRIBUTE acceleration_4 numeric
@ATTRIBUTE speed_8 numeric
@ATTRIBUTE direction_8 numeric
@ATTRIBUTE acceleration_8 numeric
@ATTRIBUTE speed_16 numeric
@ATTRIBUTE direction_16 numeric
@ATTRIBUTE acceleration_16 numeric

%The number after speed, direction denotes the step size that was used for the calculation.
%Acceleration was calculated between two adjacent samples of the already low pass filtered velocity

@DATA
0,439.31,855.09,1.00,1,1,1,0.00,0.00,0.00,345.90,0.65,0.00,195.51,0.42,0.00,107.02,0.22,0.00,205.21,1.86,0.00
14600,443.33,858.15,1.00,1,1,1,345.90,0.65,23691.72,195.51,0.42,11102.44,124.10,-0.09,7229.83,40.85,0.29,4542.35,330.46,2.29,11508.97
42900,446.98,858.49,1.00,1,1,1,129.49,0.09,8682.72,124.10,-0.09,3729.87,107.02,0.22,1402.66,48.69,1.55,1872.40,275.28,2.37,2118.23
64400,449.48,857.61,1.00,1,1,1,123.61,-0.34,2527.54,46.79,-0.53,3920.24,40.85,0.29,3084.57,234.25,1.49,8634.89,133.76,2.09,7036.95
92800,448.99,857.31,1.00,1,1,1,20.45,-2.59,4839.69,70.66,2.57,4134.53,48.69,1.55,1865.80,205.21,1.86,2969.61,289.24,0.34,11965.12
107100,446.95,859.24,1.00,1,1,1,196.74,2.38,13457.03,158.91,1.92,7801.21,234.25,1.49,12982.53,330.46,2.29,11750.42,911.47,-0.03,45492.57
128600,447.07,862.66,1.00,1,1,1,159.24,1.54,7000.81,481.53,1.34,16694.10,533.18,2.15,17477.49,275.28,2.37,2788.18,1440.05,-0.07,24666.26
142600,450.88,875.88,1.00,1,1,1,982.33,1.29,59196.65,1008.21,2.20,55941.36,831.16,2.36,23402.67,133.76,2.09,10806.74,1760.43,-0.16,24891.49
157200,430.18,886.03,1.00,2,2,2,1579.31,2.69,116998.59,1621.05,2.67,58787.89,597.78,2.45,16595.05,289.24,0.34,23274.62,1081.75,-0.15,46496.15
171500,409.12,897.11,1.00,2,2,2,1664.00,2.66,6736.33,357.90,3.04,90426.02,169.52,-2.99,35054.74,911.47,-0.03,45492.57,1207.79,-0.20,9737.85
193300,417.33,887.39,1.00,2,2,2,583.74,-0.87,101643.64,1067.49,-0.64,63660.76,872.73,-0.29,47175.83,1440.05,-0.07,24326.82,1281.94,-0.18,3507.79
207500,440.00,874.24,1.00,2,2,2,1845.73,-0.53,92327.53,2419.55,-0.26,104314.52,2485.58,-0.26,113625.41,1760.43,-0.16,24540.91,1365.04,-0.17,5918.79
221900,484.22,869.68,1.00,2,2,2,3087.35,-0.10,110802.14,4377.90,-0.15,138140.72,3636.02,-0.18,81751.15,2525.51,-0.24,54398.38,1439.62,-0.15,5851.13
236300,564.64,855.21,1.00,3,3,3,5674.11,-0.18,180963.31,4859.41,-0.14,33604.08,3712.88,-0.14,10681.45,3009.13,-0.28,34551.96,1467.27,-0.14,2002.72
250600,622.30,850.06,1.00,3,3,3,4048.41,-0.09,117536.96,3167.44,-0.14,118330.22,4213.87,-0.23,41722.73,3151.69,-0.24,12677.32,1495.98,-0.15,2278.67
271400,674.80,840.22,1.00,1,1,1,2567.98,-0.19,72722.64,3709.98,-0.32,39765.76,3539.83,-0.29,34662.34,2980.01,-0.21,9430.00,1376.24,-0.20,6704.56
285300,744.60,809.86,1.00,1,1,1,5475.95,-0.41,217796.37,4083.82,-0.44,43506.96,2736.30,-0.32,58114.55,2633.15,-0.20,25135.48,1486.96,-0.22,8147.69
300300,781.59,789.97,1.00,1,1,1,2800.00,-0.49,179707.04,1606.31,-0.32,166394.05,2279.97,-0.32,30432.15,2036.28,-0.19,39815.16,1705.27,-0.21,14589.75
315200,790.17,794.68,1.00,1,1,1,656.39,0.50,168058.77,931.65,0.10,56749.72,1098.99,-0.09,82946.57,1557.36,-0.22,32371.88,1918.25,-0.18,14783.97
336200,814.88,793.25,1.00,1,1,1,1178.73,-0.06,33974.90,767.96,0.32,11937.32,659.74,0.40,28743.66,1031.52,-0.27,25197.56,2043.38,-0.15,6614.55
350300,815.73,803.24,1.00,1,1,1,710.86,1.49,96450.25,507.55,1.17,40731.11,459.92,0.41,14179.68,553.74,-0.13,34622.31,1961.06,-0.13,6132.06
364200,820.45,806.33,1.00,1,1,1,405.94,0.58,40356.23,117.01,1.19,28099.73,107.75,1.43,29755.21,700.61,0.04,13137.98,1746.38,-0.12,15515.45
378700,816.95,806.33,1.00,1,1,1,241.61,3.14,42915.35,132.78,-2.31,16949.01,103.12,-0.52,12040.91,1007.94,-0.02,21465.05,1514.88,-0.13,15986.03
413400,816.06,801.49,1.00,2,2,2,141.92,-1.75,7419.89,185.73,-0.89,6072.40,768.96,-0.16,19414.38,1284.53,-0.02,7970.94,1408.67,-0.11,3119.00
427500,822.63,799.27,1.00,2,2,2,491.35,-0.33,34840.46,1607.66,-0.09,105324.93,1393.63,-0.11,44447.42,1440.63,-0.04,11254.04,1120.64,-0.03,21646.83
463000,895.49,794.47,1.00,1,1,1,2057.07,-0.07,44714.24,2636.30,-0.06,29025.27,2538.46,-0.06,32346.66,1526.18,-0.05,2465.03,944.35,0.01,5145.37
477200,953.42,791.56,1.00,1,1,1,4084.65,-0.05,142822.85,4143.28,-0.04,106199.07,2662.14,-0.02,11009.03,1490.85,-0.05,2494.52,945.67,-0.04,3175.55
491800,1014.72,789.48,1.00,1,1,1,4200.57,-0.03,9183.36,2703.62,0.02,99769.97,2700.76,-0.01,4092.99,1801.56,-0.03,21472.01,977.49,-0.05,2298.80
512800,1049.64,793.92,1.00,1,1,1,1676.53,0.13,121880.69,1533.89,0.07,55883.97,1646.65,0.02,50246.30,1686.06,-0.00,5923.57,1139.84,-0.07,7815.49
527200,1068.88,793.34,1.00,1,1,1,1336.43,-0.03,28658.25,341.44,-0.07,83102.39,915.44,0.08,51060.73,1252.09,-0.01,30141.74,1421.51,-0.05,19613.31
541600,1059.45,793.25,1.00,1,1,1,654.55,-3.13,138239.18,168.92,0.16,12589.57,269.88,0.32,45565.97,868.55,-0.06,26903.73,1648.42,-0.03,15996.81
556500,1073.76,794.15,1.00,1,1,1,962.13,0.06,108464.86,256.65,0.82,10805.71,180.96,-3.13,29912.44,612.10,-0.12,17439.87,1927.28,-0.01,18858.00
571000,1064.58,798.79,1.00,3,3,3,709.90,2.67,111370.21,467.71,-3.09,46609.41,164.78,-0.90,21462.33,747.05,-0.15,9399.15,1979.50,-0.01,3603.57
592100,1057.14,793.26,1.00,3,3,3,439.46,-2.50,30651.32,388.17,-1.45,29689.45,373.46,-0.61,10439.24,1283.14,-0.06,25749.01,1785.52,0.00,9222.60
607300,1066.22,784.80,1.00,3,3,3,816.66,-0.75,65444.70,1309.00,-0.34,78192.89,1202.23,-0.23,56960.14,1847.33,-0.00,37526.13,1666.95,0.01,7874.58
621800,1093.74,780.16,1.00,3,3,3,1924.79,-0.17,91164.67,2580.40,-0.06,94860.47,2909.84,-0.05,120117.37,2067.55,0.01,15277.64,1625.63,0.03,3364.75
636300,1140.93,780.54,1.00,1,1,1,3254.46,0.01,96520.59,4640.44,0.03,143689.90,3634.73,0.04,53616.50,2306.72,-0.01,16851.14,1590.71,0.03,2500.32
650500,1226.85,784.59,1.00,1,1,1,6057.35,0.05,197764.99,4516.65,0.08,17084.13,3882.34,0.07,19569.34,2319.02,0.01,2930.92,1645.86,0.04,3904.01
671500,1299.42,793.06,1.00,1,1,1,3479.33,0.12,123686.62,3265.96,0.11,59840.62,3485.82,0.07,18883.95,2480.15,0.04,8396.02,1781.42,0.03,6503.63
685500,1340.46,797.21,1.00,1,1,1,2946.12,0.10,38246.52,2200.45,0.04,77374.41,1839.93,0.08,117586.00,2664.52,0.06,13898.22,1466.22,0.01,22600.63
699700,1361.43,795.40,1.00,1,1,1,1482.40,-0.09,106674.36,454.09,-0.14,123600.20,1321.97,0.04,36791.78,2300.92,0.08,25844.61,1188.75,-0.03,19898.12
721200,1356.52,794.98,1.00,1,1,1,229.41,-3.06,79485.09,629.99,0.03,9203.12,1454.89,0.04,6182.53,1952.20,0.09,16228.02,839.91,-0.08,16353.02
735500,1383.97,796.12,1.00,2,2,2,1921.70,0.04,150413.86,2723.25,0.07,146427.27,1426.96,0.10,7047.44,1722.59,0.05,16600.24,326.57,-0.08,35898.91
749600,1433.66,800.52,1.00,1,1,1,3537.56,0.09,114928.41,1997.84,0.12,52032.24,2053.23,0.09,44445.12,972.14,0.00,53402.24,189.18,3.05,36576.82
785600,1483.36,807.97,1.00,1,1,1,1396.06,0.15,59603.15,1674.65,0.11,9000.89,2049.01,0.06,1633.61,317.02,-0.15,18343.80,518.08,3.03,9137.42
799800,1517.25,809.41,1.00,1,1,1,2389.00,0.04,71249.82,2154.38,-0.03,38573.55,640.27,-0.04,99562.78,397.27,-2.82,48951.28,976.21,3.03,32263.17
814100,1544.73,805.93,1.00,2,2,2,1936.56,-0.13,40533.11,626.55,-2.70,190654.28,929.09,-2.86,108373.13,1431.05,-3.06,73370.86,1373.58,3.09,28105.08
842500,1493.08,797.94,1.00,2,2,2,1840.03,-2.99,131681.95,2647.35,-3.01,72490.25,2822.98,-2.99,67061.82,2496.83,-3.10,37649.08,1613.19,3.13,8699.84
864300,1413.06,787.85,1.00,2,2,2,3699.66,-3.02,85369.78,5448.42,-3.03,128539.93,4893.17,-3.07,95934.93,3437.52,-3.12,43215.12,1719.84,3.13,4924.19
878700,1297.17,775.15,1.00,1,1,1,8096.30,-3.03,305385.34,8821.24,-3.10,236892.44,6984.68,-3.11,146467.60,4014.71,3.13,40915.39,1812.18,3.11,7040.91
893100,1159.24,777.15,1.00,1,1,1,9579.69,3.13,127746.76,8969.19,3.10,51326.53,6527.58,3.12,39679.42,4459.13,3.13,30884.73,1431.05,-3.06,29505.00
907400,1039.95,785.27,1.00,1,1,1,8360.81,3.07,91567.21,4729.75,3.02,298721.54,5558.20,3.03,77800.07,4771.72,3.13,21892.50,2496.83,-3.10,74771.60
929100,990.19,797.50,1.00,1,1,1,2361.66,2.90,278715.48,2863.96,2.84,91396.17,3982.38,2.99,73057.91,4325.51,3.12,20683.23,3437.52,-3.12,43414.27
942800,943.18,815.50,1.00,1,1,1,3673.97,2.78,99464.19,3023.23,2.93,22627.40,2534.05,3.02,105947.35,3583.51,3.06,56689.13,4014.71,3.13,43005.95
956900,908.03,815.21,1.00,1,1,1,2493.15,-3.13,115647.47,2275.21,-2.97,88473.12,2085.44,3.12,35965.89,3982.38,2.99,34027.92,4459.13,3.13,31541.85
971000,879.95,804.60,1.00,1,1,1,2128.74,-2.78,62965.79,1475.12,-2.85,59007.16,1625.85,-3.11,33318.57,2534.05,3.02,102941.75,4771.72,3.13,22203.04
992800,857.36,799.80,1.00,1,1,1,1059.27,-2.93,50160.45,1158.56,2.97,31396.54,1475.12,-2.85,19656.42,2085.44,3.12,23262.34,4325.51,3.12,20588.35
1007000,838.87,811.79,1.00,1,1,1,1552.18,2.57,77264.06,1552.18,2.57,46787.68,1158.56,2.97,48200.32,1625.85,-3.11,33083.93,3583.51,3.06,54693.04
