@RELATION gaze_labels

%@METADATA width_px 1920
%@METADATA height_px 1080
%@METADATA width_mm 540.00
%@METADATA height_mm 254.00
%@METADATA distance_mm 620.00


@ATTRIBUTE time INTEGER
@ATTRIBUTE x NUMERIC
@ATTRIBUTE y NUMERIC
@ATTRIBUTE confidence NUMERIC
@ATTRIBUTE handlabeller1 INTEGER
@ATTRIBUTE handlabeller2 INTEGER
@ATTRIBUTE handlabeller_final INTEGER
@ATTRIBUTE speed_1 numeric
@ATTRIBUTE direction_1 numeric
@ATTRIBUTE acceleration_1 numeric
@ATTRIBUTE speed_2 numeric
@ATTRIBUTE direction_2 numeric
@ATTRIBUTE acceleration_2 numeric
@ATTRIBUTE speed_4 numeric
@ATTRIBUTE direction_4 numeric
@ATTRIBUTE acceleration_4 numeric
@ATTRIBUTE speed_8 numeric
@ATTRIBUTE direction_8 numeric
@ATTRIBUTE acceleration_8 numeric
@ATTRIBUTE speed_16 numeric
@ATTRIBUTE direction_16 numeric
@ATTRIBUTE acceleration_16 numeric

%The number after speed, direction denotes the step size that was used for the calculation.
%Acceleration was calculated between two adjacent samples of the already low pass filtered velocity

@DATA
0,54.93,549.19,1.00,1,1,1,0.00,0.00,0.00,1723.42,0.18,0.00,1864.74,0.16,0.00,1415.33,0.14,0.00,1315.93,0.10,0.00
22600,93.22,556.35,1.00,1,1,1,1723.42,0.18,76257.34,1864.74,0.16,6459.17,1725.00,0.12,6943.40,1090.01,0.19,14759.41,1853.95,0.05,24006.98
37000,123.00,560.48,1.00,1,1,1,2087.84,0.14,26047.27,1725.00,0.12,10897.29,1415.33,0.14,21538.50,487.91,0.39,42946.51,2182.87,0.01,23562.67
52100,143.71,562.67,1.00,1,1,1,1379.41,0.11,47059.75,855.26,0.06,57855.18,1090.01,0.19,22090.24,155.36,0.66,22563.60,2185.01,0.01,455.20
66500,148.19,561.91,1.00,1,1,1,315.18,-0.17,74941.56,469.10,0.46,32066.94,487.91,0.39,42946.51,1315.93,0.10,82454.95,2043.04,-0.01,10080.51
81300,155.99,568.74,1.00,1,1,1,700.50,0.72,37658.07,325.33,1.42,26335.49,155.36,0.66,23020.97,1853.95,0.05,36659.31,1721.40,-0.06,22829.94
95900,149.59,571.37,1.00,1,1,1,474.03,2.75,68872.72,110.99,3.08,24170.68,1235.82,0.06,76089.45,2182.87,0.01,23239.89,1983.36,-0.06,17945.00
118500,151.87,568.98,1.00,2,2,2,146.16,-0.81,27010.40,1913.00,-0.03,89555.77,2417.53,0.01,52456.54,2185.01,0.01,304.14,1903.82,-0.05,3617.41
147300,247.86,567.94,1.00,3,3,3,3333.20,-0.01,112255.66,4559.96,0.00,91995.96,3446.06,-0.03,35865.93,2043.04,-0.01,5040.26,1227.70,0.01,23684.52
162400,352.05,569.82,1.00,1,1,1,6901.14,0.02,236465.72,6126.46,-0.02,104192.09,3901.09,-0.01,30354.53,1721.40,-0.06,22376.37,1013.96,-0.01,14247.82
176700,427.93,563.72,1.00,1,1,1,5323.31,-0.08,117944.07,3097.55,-0.04,211890.61,3034.87,-0.04,60937.85,1983.36,-0.06,18321.46,1083.15,-0.01,4848.65
198300,463.15,565.10,1.00,1,1,1,1631.99,0.04,171671.01,564.83,-0.18,117579.50,885.81,-0.29,101314.21,1903.82,-0.05,3784.89,1336.28,0.02,11796.45
213400,448.30,559.91,1.00,1,1,1,1041.84,-2.80,175216.38,1947.63,-2.93,164131.39,235.05,-0.67,44589.93,1157.47,-0.08,49519.21,1822.59,0.04,32284.62
227600,407.35,553.16,1.00,1,1,1,2922.92,-2.98,134173.00,346.89,-2.53,115106.25,263.05,-2.56,28443.55,316.59,-0.34,60257.36,2165.28,0.04,24136.93
242600,440.03,554.06,1.00,1,1,1,2179.81,0.03,339414.01,855.35,0.03,77344.15,140.87,-2.59,8152.85,150.93,-0.25,11134.53,2328.15,0.04,10857.83
273500,446.59,554.28,1.00,1,1,1,212.42,0.03,63669.88,53.93,-2.77,29328.77,66.70,-3.03,2758.11,616.78,0.04,15335.88,2302.51,0.04,846.24
310900,436.61,552.71,1.00,2,2,2,270.33,-2.99,12883.99,872.44,-3.10,21970.27,126.90,0.30,5157.27,1637.62,0.08,27321.69,2101.59,0.05,5397.31
326000,400.83,552.41,1.00,2,2,2,2369.48,-3.13,139237.44,541.07,0.31,92780.90,1272.92,0.12,76037.69,2554.68,0.10,60763.33,1749.41,0.06,23354.35
340700,451.94,557.70,1.00,2,2,2,3495.37,0.10,398537.24,3790.17,0.10,222010.63,3952.53,0.11,182303.34,2622.46,0.10,4632.49,1488.79,0.08,17887.72
370700,569.40,569.37,1.00,1,1,1,3934.64,0.10,14651.12,6245.40,0.09,81847.68,6054.59,0.10,70076.35,2692.34,0.10,2338.90,1338.55,0.09,5011.76
385200,728.64,583.73,1.00,1,1,1,11026.49,0.09,489110.52,9544.91,0.10,227568.11,5621.94,0.10,29861.29,3205.68,0.11,35404.92,1357.83,0.09,1414.93
399700,844.85,596.70,1.00,1,1,1,8064.36,0.11,204744.52,4876.21,0.10,321980.33,4761.24,0.10,59359.58,3448.05,0.10,16731.42,1438.11,0.10,5568.19
422400,909.12,601.93,1.00,1,1,1,2840.53,0.08,230210.66,1081.59,0.08,167171.69,2386.02,0.11,104643.65,3053.65,0.10,17376.43,1336.79,0.09,4468.51
437400,885.48,600.13,1.00,1,1,1,1580.32,-3.07,294722.88,651.96,-3.09,115557.55,581.32,0.14,120344.29,2221.51,0.10,55476.67,1559.38,0.12,15043.02
452900,889.26,600.84,1.00,1,1,1,248.25,0.19,117888.83,98.76,2.37,38050.58,480.01,-3.11,68366.47,1034.49,0.10,76582.04,1991.72,0.13,27918.52
466700,883.41,602.16,1.00,1,1,1,434.41,2.92,48525.38,299.30,3.11,17125.56,59.58,2.86,30695.63,145.88,0.07,64398.67,2449.51,0.14,33189.27
481800,880.62,601.11,1.00,1,1,1,197.83,-2.78,19204.47,51.85,-2.79,16685.01,96.59,-3.00,3227.33,303.58,-2.97,29730.21,2569.10,0.14,7999.89
511800,881.22,601.35,1.00,1,1,1,21.64,0.39,7315.48,31.71,-0.99,2224.55,212.64,-2.91,3889.28,238.70,0.33,18022.27,2392.78,0.15,5887.60
533800,881.53,599.73,1.00,1,1,1,74.90,-1.38,3723.81,411.35,-2.93,19275.77,186.08,-2.69,2377.73,884.10,0.21,29441.74,1723.44,0.15,30424.60
548400,866.48,598.25,1.00,1,1,1,1035.23,-3.04,71551.10,523.19,-2.79,8865.97,566.15,0.26,51347.67,1591.52,0.20,48461.60,1340.50,0.16,26255.34
563400,866.97,594.45,1.00,2,2,2,255.37,-1.44,71552.21,1799.27,0.25,154691.69,1953.10,0.21,92542.49,2154.53,0.20,37538.23,1138.39,0.17,13496.26
577400,917.08,611.00,1.00,2,2,2,3769.63,0.32,273329.57,3593.46,0.22,128239.36,3408.95,0.20,103994.79,2561.36,0.19,29111.03,1254.70,0.16,8330.88
608000,1023.32,629.66,1.00,3,3,3,3525.06,0.17,19034.50,4306.15,0.19,23593.93,4500.73,0.21,35683.38,2386.19,0.17,5918.17,1001.73,0.16,8271.15
629500,1137.30,653.84,1.00,1,1,1,5419.47,0.21,88403.02,5607.15,0.20,60516.06,4172.76,0.18,16358.95,2484.93,0.17,4599.37,655.43,0.13,16130.34
644600,1224.64,669.49,1.00,1,1,1,5876.08,0.18,32497.64,3937.20,0.15,111534.04,2787.33,0.14,92117.91,2276.15,0.17,13849.79,202.31,0.05,30075.44
658700,1251.00,670.89,1.00,1,1,1,1871.89,0.05,285475.94,515.00,-0.37,248224.63,1484.11,0.07,92973.27,2052.67,0.15,16243.52,169.06,-2.82,26096.19
688600,1245.75,661.24,1.00,1,1,1,367.33,-2.07,69830.48,221.74,-1.97,18917.26,447.50,-0.14,35147.90,1115.81,0.11,31381.67,307.54,-2.96,4751.65
703700,1247.14,661.69,1.00,1,1,1,96.92,0.31,29297.23,414.75,0.09,36752.51,307.10,-0.21,9428.86,338.59,-2.67,95189.50,157.59,-2.91,9952.85
742100,1267.84,663.35,1.00,1,1,1,540.65,0.08,11634.98,633.91,0.09,5707.49,517.98,-2.88,20940.92,1840.51,-2.91,39437.61,154.99,-3.10,740.97
756300,1280.34,664.79,1.00,2,2,2,886.45,0.11,24411.28,2219.90,-2.94,200754.19,1960.43,-2.94,101672.94,2721.20,-2.94,62168.61,222.09,-2.96,5069.91
771300,1204.38,650.13,1.00,2,2,2,5157.70,-2.95,402798.48,6660.45,-2.96,296093.25,5609.77,-2.96,243331.08,3102.32,-2.97,26148.02,532.35,-2.96,20684.48
785300,1090.41,629.68,1.00,2,2,2,8270.82,-2.96,222450.19,8988.88,-2.97,166369.90,7658.37,-2.97,146348.68,2650.29,-2.97,32291.18,905.19,-2.95,26636.28
800600,945.04,604.23,1.00,3,3,3,9645.97,-2.97,89912.31,8610.60,-2.97,24844.09,6319.26,-2.98,87796.01,3229.37,-2.98,37965.96,1180.93,-2.96,18025.46
815700,832.46,585.15,1.00,1,1,1,7561.57,-2.97,138074.22,4218.53,-3.00,291187.79,3329.81,-2.99,197983.43,3103.88,-2.99,8339.31,1139.67,-2.95,2783.16
837800,789.57,582.86,1.00,1,1,1,1943.61,-3.09,254978.98,288.82,3.03,178253.30,1549.75,-3.05,80791.71,2434.41,-3.00,30314.77,1253.48,-2.99,5524.70
868300,817.37,586.88,1.00,1,1,1,920.96,0.14,93836.71,645.89,0.32,30025.48,237.75,0.71,57355.69,1512.03,-3.02,30268.07,1674.67,-3.00,13828.45
883300,817.44,592.18,1.00,1,1,1,352.90,1.56,62211.70,1088.81,0.35,29570.84,1018.26,0.24,54257.08,501.40,-3.13,67677.47,2394.50,-3.01,48010.91
897500,847.22,597.81,1.00,1,1,1,2134.64,0.19,147397.71,1600.65,0.18,39321.58,755.73,0.30,18861.49,525.20,0.25,71803.76,2758.88,-3.02,25685.91
912700,863.72,600.68,1.00,1,1,1,1101.86,0.17,67962.91,500.46,0.20,72392.67,807.04,0.21,5753.78,496.31,0.25,1902.02,2772.43,-3.03,1602.33
935100,865.65,601.63,1.00,1,1,1,95.78,0.46,45102.09,184.36,0.37,14289.49,913.31,0.11,6077.33,553.80,3.10,46395.23,2229.88,-3.04,24244.97
950000,870.14,603.17,1.00,1,1,1,318.31,0.33,15006.97,1438.53,0.06,84830.38,26.36,0.59,59738.50,1568.20,-3.07,68449.32,1697.94,-3.06,35844.38
964900,908.43,604.36,1.00,2,2,2,2571.43,0.03,152300.55,104.63,-2.87,103431.05,1695.15,-3.05,115320.50,2466.83,-3.05,60357.28,1343.12,-3.09,24026.18
995600,865.54,601.91,1.00,2,2,2,1399.55,-3.08,129337.72,3756.36,-3.06,119009.07,3666.94,-3.04,64230.46,3063.42,-3.05,19441.03,1162.71,-3.09,5876.77
1010200,738.86,590.23,1.00,3,3,3,8713.46,-3.05,501021.46,9138.74,-3.05,368681.97,4793.83,-3.05,77203.66,2849.29,-3.04,14670.02,1321.37,-3.08,10892.03
1025300,595.32,576.39,1.00,1,1,1,9549.97,-3.05,55455.48,5687.48,-3.05,228561.37,6176.29,-3.04,91579.25,2729.38,-3.05,8003.15,1209.44,-3.05,7819.76
1062800,441.06,561.65,1.00,1,1,1,4132.18,-3.05,144474.48,4500.44,-3.04,31661.36,3728.40,-3.04,65277.57,2948.73,-3.06,5915.64,1148.49,-3.03,1796.76
1077800,360.24,552.66,1.00,1,1,1,5421.52,-3.03,86095.42,1488.44,-3.03,200813.61,2010.58,-3.06,114558.47,2819.19,-3.06,8692.64,893.99,-3.00,17046.65
1108800,373.04,553.86,1.00,1,1,1,414.74,0.09,188264.84,853.81,0.19,75506.24,542.32,3.09,47588.48,1986.14,-3.06,26872.84,597.91,-2.97,9590.22
1123500,398.56,560.01,1.00,1,1,1,1785.70,0.24,93633.95,1011.24,0.35,14688.50,858.87,0.18,94685.36,901.04,-3.03,73874.64,394.58,-2.89,14050.00
1137700,400.50,563.85,1.00,1,1,1,303.17,1.10,113088.41,866.83,0.17,15468.73,622.07,0.22,16806.56,387.38,-0.07,90410.52,574.46,-2.97,12933.90
1152900,423.67,564.37,1.00,1,1,1,1524.35,0.02,92566.16,339.79,-0.07,35740.84,737.29,-0.02,13052.58,1632.18,0.04,82108.23,512.76,-2.95,4122.07
1174800,413.08,562.95,1.00,2,2,2,487.90,-3.01,91780.25,659.62,-0.21,14908.97,1418.96,-0.06,31202.22,2203.92,0.05,26109.75,159.68,-2.68,16503.55
1190200,447.73,559.23,1.00,2,2,2,2263.07,-0.11,177885.71,2735.99,-0.06,135455.62,2512.93,-0.01,71348.71,2511.65,0.04,20088.00,339.44,-0.09,31355.56
1205200,496.10,557.88,1.00,3,3,3,3225.74,-0.03,65732.31,4868.15,0.03,143719.65,3626.30,0.02,74486.15,2215.23,0.03,19800.98,979.40,0.03,42896.78
1219800,591.78,563.02,1.00,1,1,1,6562.89,0.05,230013.55,4258.24,0.06,43122.43,4125.10,0.04,34634.56,1956.16,0.03,17744.62,1322.26,0.06,23608.54
1248700,680.99,569.09,1.00,1,1,1,3094.12,0.07,120047.49,3623.97,0.06,21947.11,2894.00,0.07,42673.00,2005.63,0.02,1786.17,1324.20,0.06,214.11
1263600,750.21,572.67,1.00,1,1,1,4652.02,0.05,104639.34,1268.41,0.09,158129.63,1497.12,0.08,93761.82,1798.87,0.03,13973.27,1280.18,0.06,2993.96
1285200,727.12,573.02,1.00,1,1,1,1069.24,3.13,264782.84,1035.89,-3.13,106611.27,213.13,-0.04,59523.40,1586.06,0.05,9980.92,1223.13,0.04,2877.45
1300400,712.10,572.19,1.00,1,1,1,989.99,-3.09,7068.61,1063.49,-3.00,9029.78,793.66,-3.04,66123.30,1022.11,0.08,37189.64,1151.28,0.02,4861.24
1315500,695.22,568.50,1.00,1,1,1,1144.29,-2.93,15203.79,505.97,-2.81,38078.14,178.97,-2.81,41099.31,395.73,0.15,41583.36,1166.24,0.02,1122.83
1329500,698.18,567.38,1.00,1,1,1,226.34,-0.36,95695.17,748.39,0.05,88734.72,440.51,0.11,44039.72,66.19,2.04,30060.43,934.77,0.04,16594.41
1344700,717.04,569.58,1.00,1,1,1,1249.36,0.12,69310.21,1184.63,0.19,29943.06,587.53,0.22,10345.93,180.61,0.18,13751.48,1586.06,0.05,42867.33
1366200,740.89,575.49,1.00,1,1,1,1142.84,0.24,8584.25,478.73,0.44,34026.94,754.37,0.27,7868.44,303.94,0.01,6042.89,1022.11,0.08,26292.21
1381000,732.74,577.04,1.00,1,1,1,560.85,2.95,112767.70,250.09,0.75,16981.06,445.05,0.23,20960.72,362.84,0.01,3979.80,395.73,0.15,42426.27
1395600,746.29,580.48,1.00,1,1,1,957.72,0.25,101713.83,435.12,0.03,20302.91,189.84,-0.21,19512.73,194.62,0.07,11579.08,66.19,2.04,28825.07
1425300,752.01,577.59,1.00,1,1,1,215.51,-0.47,27191.31,257.85,-0.76,10531.56,218.38,-0.48,2038.19,445.05,0.23,8570.97,180.61,0.18,7037.79
1440500,754.68,572.49,1.00,1,1,1,378.75,-1.09,15727.47,252.20,-1.95,18768.43,205.25,-2.56,24059.03,189.84,-0.21,18742.49,303.94,0.01,8547.51
1462500,748.55,568.87,1.00,1,1,1,323.43,-2.61,22052.16,486.40,-3.03,19501.12,252.20,-1.95,6583.03,218.38,-0.48,2751.56,362.84,0.01,2677.32
1492100,729.75,569.59,1.00,1,1,1,635.77,3.10,13642.65,635.77,3.10,5816.63,486.40,-3.03,14494.08,205.25,-2.56,12354.63,194.62,0.07,5711.30
