@RELATION gaze_labels

%@METADATA width_px 1920
%@METADATA height_px 1080
%@METADATA width_mm 540.00
%@METADATA height_mm 254.00
%@METADATA distance_mm 620.00


@ATTRIBUTE time INTEGER
@ATTRIBUTE x NUMERIC
@ATTRIBUTE y NUMERIC
@ATTRIBUTE confidence NUMERIC
@ATTRIBUTE handlabeller1 INTEGER
@ATTRIBUTE handlabeller2 INTEGER
@ATTRIBUTE handlabeller_final INTEGER
@ATTRIBUTE speed_1 numeric
@ATTRIBUTE direction_1 numeric
@ATTRIBUTE acceleration_1 numeric
@ATTRIBUTE speed_2 numeric
@ATTRIBUTE direction_2 numeric
@ATTRIBUTE acceleration_2 numeric
@ATTRIBUTE speed_4 numeric
@ATTRIBUTE direction_4 numeric
@ATTRIBUTE acceleration_4 numeric
@ATTRIBUTE speed_8 numeric
@ATTRIBUTE direction_8 numeric
@ATTRIBUTE acceleration_8 numeric
@ATTRIBUTE speed_16 numeric
@ATTRIBUTE direction_16 numeric
@ATTRIBUTE acceleration_16 numeric

%The number after speed, direction denotes the step size that was used for the calculation.
%Acceleration was calculated between two adjacent samples of the already low pass filtered velocity

@DATA
0,316.34,537.81,1.00,1,1,1,0.00,0.00,0.00,708.00,3.02,0.00,395.33,2.98,0.00,89.08,1.38,0.00,240.07,0.30,0.00
14500,306.16,539.08,1.00,1,1,1,708.00,3.02,48827.38,395.33,2.98,21601.41,192.72,2.77,14545.55,266.36,0.31,16373.97,248.49,0.26,862.46
44200,299.09,540.58,1.00,1,1,1,243.20,2.93,15694.93,192.72,2.77,7101.36,89.08,1.38,6627.76,542.75,0.16,9504.73,200.07,0.39,1918.04
59200,298.13,542.21,1.00,1,1,1,126.12,2.10,12222.20,620.50,0.20,52628.26,266.36,0.31,15828.17,750.13,0.10,14031.21,172.43,2.64,22397.87
74600,317.58,544.34,1.00,1,1,1,1270.22,0.11,86170.24,778.84,0.12,10902.13,542.75,0.16,18330.54,240.07,0.30,33555.07,789.63,3.04,41196.70
96500,326.97,545.69,1.00,1,1,1,433.48,0.14,38224.83,480.72,0.11,13615.49,750.13,0.10,9610.42,248.49,0.26,571.04,1027.06,3.02,10862.69
112100,335.49,546.33,1.00,1,1,1,547.73,0.07,7635.32,716.01,0.07,15145.11,463.53,0.11,18375.51,200.07,0.39,3651.65,1238.23,3.03,13541.00
127500,349.11,547.34,1.00,1,1,1,886.49,0.07,21997.51,442.94,0.11,17779.62,225.96,0.18,15497.42,172.43,2.64,21816.11,1103.07,3.01,8838.00
143400,349.27,547.84,1.00,1,1,1,33.54,1.25,54984.22,270.92,3.04,44656.70,217.56,2.83,27040.95,789.63,3.04,39901.20,348.51,2.83,47988.67
158500,340.76,548.21,1.00,2,2,2,564.73,3.10,38062.05,895.37,3.04,41354.79,1164.51,3.06,63202.90,1027.06,3.02,15754.49,178.81,2.59,11894.26
173000,322.90,550.44,1.00,2,2,2,1241.03,3.02,46880.65,2097.31,3.07,82918.87,1936.29,3.09,53281.17,1238.23,3.03,14568.25,86.11,1.02,13697.12
188200,278.65,552.94,1.00,3,3,3,2916.12,3.09,110532.27,2620.11,3.10,34695.68,1966.36,3.05,5195.06,1103.07,3.01,8954.29,338.72,0.21,18845.59
218100,204.86,555.93,1.00,1,1,1,2469.74,3.10,14996.61,1892.43,3.04,24714.25,1993.34,3.04,955.14,916.23,2.98,6329.49,510.99,0.11,5912.62
240600,180.02,563.26,1.00,1,1,1,1151.03,2.85,61432.61,1256.26,2.91,29508.32,1059.16,2.97,41761.25,569.59,2.92,15528.26,719.56,0.08,9316.11
255700,158.84,566.59,1.00,1,1,1,1419.70,2.99,20956.85,485.13,0.29,112205.31,321.07,0.61,86558.27,104.17,2.39,31954.62,738.49,0.08,1255.29
269700,193.53,567.35,1.00,2,2,2,2478.50,0.02,277426.28,2245.40,0.02,127325.25,1421.84,0.03,83409.99,753.59,0.08,59128.27,612.20,0.09,9056.23
283900,222.15,568.08,1.00,2,2,2,2015.60,0.03,32605.05,2379.06,-0.03,12424.92,2322.37,-0.04,63948.15,1758.57,0.02,70929.22,773.84,0.09,11389.83
298800,262.74,565.52,1.00,2,2,2,2729.87,-0.06,49922.59,2385.34,-0.08,8521.03,2946.54,-0.03,41914.19,2487.63,-0.00,49047.39,943.33,0.04,11680.83
321500,311.55,560.95,1.00,1,1,1,2159.64,-0.09,25331.28,3385.74,-0.03,44499.68,2950.73,-0.03,201.14,2733.44,-0.01,10852.74,1740.61,0.08,35195.56
336400,389.99,561.67,1.00,1,1,1,5264.32,0.01,209652.97,3427.29,0.00,7791.87,3233.81,-0.01,19241.71,2158.43,-0.01,38592.71,2764.08,0.21,71179.42
366500,465.78,561.19,1.00,1,1,1,2518.08,-0.01,91256.29,3109.28,0.00,10565.14,3092.41,0.01,5178.48,2207.52,0.00,1740.98,3118.69,0.27,13361.96
382000,531.77,561.87,1.00,1,1,1,4257.66,0.01,112286.40,2600.19,0.02,32986.57,1573.51,0.02,98011.70,2217.93,-0.02,2392.64,2462.79,0.35,44493.84
397100,545.33,562.63,1.00,1,1,1,899.57,0.06,222468.10,62.57,1.82,173175.31,1456.13,0.06,8665.26,3455.54,0.06,83105.72,1611.83,0.38,56547.79
426100,531.10,564.55,1.00,4,4,4,495.16,3.01,47895.72,769.54,0.14,26844.44,1183.43,-0.02,10096.29,4675.96,0.23,48047.34,791.65,0.31,28414.71
447800,583.96,568.12,1.00,4,4,4,2441.40,0.07,134940.51,2591.79,-0.05,84888.88,3800.00,0.10,121155.81,4628.07,0.37,31026.18,1019.15,0.04,15454.55
463700,628.43,559.68,1.00,4,4,4,2846.89,-0.19,49281.83,8822.40,0.09,394178.02,8903.52,0.28,327416.43,2731.06,0.67,136610.76,1808.21,0.14,50413.80
478400,852.78,592.93,1.00,4,4,4,15428.67,0.15,868979.14,17267.43,0.34,610058.27,9041.89,0.44,99793.07,1262.47,1.37,132225.86,2118.69,0.17,21504.75
492800,1102.63,725.88,1.00,4,4,4,19654.17,0.49,505341.83,10296.95,0.75,612573.62,5350.05,0.87,328366.86,1037.92,2.58,92078.66,1872.35,0.19,17332.52
507800,1075.24,798.25,1.00,4,4,4,5158.62,1.93,1311772.00,9317.90,2.87,1143034.46,5154.29,2.65,546008.11,361.97,2.91,46951.46,1510.38,0.20,24153.11
522800,833.25,800.56,1.00,4,4,4,16133.38,3.13,1003330.45,16439.39,-3.02,574046.92,10258.93,-3.02,448941.85,1420.56,0.43,114628.02,1198.49,0.19,20802.41
538100,580.90,737.04,1.00,4,4,4,17007.81,-2.90,282366.34,11926.98,-2.77,370068.11,7100.97,-2.76,251093.59,786.75,0.76,47080.88,942.38,0.14,17185.55
560600,412.60,638.35,1.00,4,4,4,8671.24,-2.61,400733.92,3158.51,-1.86,457787.24,1944.90,-1.72,281678.52,1242.46,-2.81,88250.52,1013.16,0.10,3488.52
590000,533.88,580.01,1.00,4,4,4,4577.47,-0.45,403091.21,9084.75,0.01,356297.75,4417.17,-0.19,161722.27,1560.60,-2.45,20099.83,779.06,0.08,7992.54
604300,809.57,643.83,1.00,1,1,1,19789.00,0.23,1151660.41,13962.83,0.22,377704.34,7154.44,0.06,214568.08,1171.39,-1.34,103351.04,507.51,0.16,19287.62
619300,933.12,669.31,1.00,1,1,1,8410.24,0.20,758867.70,4365.62,0.19,639996.95,5485.25,0.19,124107.38,1818.30,-0.52,88203.67,8.85,2.24,34128.77
634000,936.88,668.40,1.00,1,1,1,262.95,-0.24,556004.07,1115.25,-2.65,370061.38,960.16,-0.22,314312.75,2809.14,-0.11,92254.01,434.89,-2.22,29735.64
657200,895.93,649.23,1.00,1,1,1,1948.91,-2.70,93118.30,1898.90,-2.59,33985.67,1966.45,-2.61,118356.11,2035.71,0.02,35991.53,691.58,-0.76,33508.46
673000,873.93,629.38,1.00,1,1,1,1875.10,-2.41,36029.38,3015.38,-2.59,70665.17,2132.29,-2.61,10497.76,507.51,-2.13,148969.08,1875.82,-0.21,84397.48
688000,816.83,600.56,1.00,1,1,1,4264.34,-2.67,166977.01,2436.94,-2.63,39291.70,2005.32,-2.58,9189.30,771.18,-2.40,20851.88,2903.71,-0.05,73145.62
703000,810.13,593.70,1.00,1,1,1,639.51,-2.34,244334.97,951.06,-2.56,99321.03,1520.45,-2.71,35731.63,588.79,-0.52,73650.34,3494.18,0.06,45643.48
717500,793.38,585.16,1.00,1,1,1,1296.45,-2.67,49657.11,919.48,-2.86,19444.57,465.81,-0.16,132751.04,2118.56,0.01,112968.67,3151.51,0.13,28555.40
747600,770.72,582.35,1.00,2,2,2,758.63,-3.02,21207.61,1294.62,0.17,73443.26,2200.74,0.12,58430.76,3351.37,0.10,41652.64,2194.88,0.09,31997.55
762800,851.21,594.90,1.00,2,2,2,5359.57,0.15,402491.02,4858.51,0.15,234486.67,4543.31,0.15,154244.63,4219.67,0.14,58336.63,1827.98,0.06,24477.12
799800,1021.55,619.81,1.00,1,1,1,4652.74,0.15,19145.65,7384.47,0.15,68270.43,7742.50,0.15,86464.83,4181.72,0.17,2826.86,1678.04,0.05,4062.46
814600,1229.38,652.44,1.00,1,1,1,14214.13,0.16,646065.23,12863.29,0.16,370216.56,7707.29,0.16,3948.87,4038.47,0.17,9938.48,1822.12,0.08,10252.14
829200,1395.04,679.18,1.00,1,1,1,11494.00,0.16,186348.41,8281.32,0.17,314046.92,7436.93,0.19,23354.58,4636.31,0.17,40951.42,1810.24,0.10,3304.28
843800,1467.54,694.30,1.00,1,1,1,5072.29,0.21,440489.39,2087.66,0.37,427874.23,3298.09,0.22,283668.85,4214.63,0.17,28897.98,1957.06,0.14,11220.53
858800,1452.65,701.54,1.00,1,1,1,1103.37,2.69,398897.92,730.72,2.95,182325.33,834.42,0.39,165329.99,3094.09,0.17,74707.71,2055.01,0.15,6630.32
880400,1441.27,699.31,1.00,1,1,1,537.07,-2.95,34616.35,178.88,-2.93,26398.70,95.96,2.09,39449.59,1506.13,0.19,73529.36,2206.97,0.16,7140.35
895500,1446.23,700.16,1.00,1,1,1,333.66,0.17,57660.27,770.42,0.02,62697.94,85.18,-1.86,11043.46,113.12,0.41,92448.42,2191.44,0.16,1392.96
910400,1464.37,699.86,1.00,1,1,1,1217.60,-0.02,59853.29,153.63,-0.87,45976.33,104.77,-1.95,1445.01,408.81,-3.00,34822.98,1095.34,0.17,73582.50
940600,1450.69,694.85,1.00,1,1,1,482.51,-2.79,55526.72,599.24,-2.85,22338.72,523.71,-2.76,15156.16,181.54,-2.63,8223.06,488.46,-3.05,52404.06
955800,1438.33,691.98,1.00,1,1,1,834.47,-2.91,23706.29,1400.28,-2.92,52867.45,714.54,-2.90,13699.30,124.63,-0.23,18809.77,1935.78,-3.02,95242.51
970600,1409.73,685.52,1.00,1,1,1,1981.39,-2.92,77496.84,857.64,-2.94,36696.98,336.30,-2.85,25613.12,353.11,-2.78,31183.96,2860.53,-3.01,62492.74
992800,1407.25,685.57,1.00,1,1,1,111.49,3.12,84385.66,527.49,0.14,62364.07,304.90,0.16,28815.23,1844.72,-2.98,67580.76,2923.39,-3.01,2867.41
1007700,1429.10,688.26,1.00,1,1,1,1477.59,0.12,106578.33,1728.81,0.19,80677.98,163.36,-2.83,31348.81,3889.59,-2.99,137258.38,2784.37,-2.99,9809.37
1023000,1458.56,695.23,1.00,2,2,2,1978.45,0.23,34948.94,1006.02,-2.94,178742.36,3102.97,-3.00,192279.87,4917.21,-3.00,67266.62,2764.31,-3.00,1487.61
1038000,1399.23,682.19,1.00,2,2,2,4049.67,-2.93,401863.71,6418.50,-2.99,360924.46,6832.48,-2.99,248634.38,5444.35,-3.01,35185.71,2755.38,-2.99,740.56
1067000,1179.42,652.37,1.00,2,2,2,7649.21,-3.01,125101.30,10308.62,-3.00,134164.31,8584.11,-3.00,60426.40,5122.20,-3.01,11116.09,2832.02,-3.00,2681.01
1088800,880.95,607.23,1.00,1,1,1,13847.05,-2.99,284395.55,10427.79,-3.01,7214.38,9188.87,-3.01,27918.65,5069.53,-3.00,2727.11,3065.40,-3.00,10730.13
1118700,645.12,580.48,1.00,1,1,1,7937.89,-3.03,198059.49,7906.68,-3.03,84496.48,6679.90,-3.01,83920.39,5075.73,-3.00,207.41,3261.70,-3.01,6572.52
1133100,533.02,566.80,1.00,1,1,1,7842.06,-3.02,8116.05,2326.90,-3.04,387522.63,3469.18,-3.02,222977.08,4683.46,-3.01,27265.42,3383.84,-3.01,8614.25
1163200,542.06,570.40,1.00,1,1,1,323.24,0.38,270931.86,900.35,0.07,107209.37,981.52,-3.03,82647.85,3778.30,-3.01,30072.98,3559.32,-3.02,5848.62
1178100,573.44,569.64,1.00,1,1,1,2106.43,-0.02,121714.19,616.25,0.04,19122.09,472.99,0.09,97612.41,2285.04,-3.03,100292.56,3488.04,-3.02,4788.31
1200700,565.15,571.35,1.00,1,1,1,374.41,2.94,109545.75,38.36,2.63,28723.27,371.54,0.02,4675.77,1356.22,-3.03,41098.30,3536.69,-3.01,2267.36
1216200,572.17,570.36,1.00,2,2,2,457.06,-0.14,53616.38,65.81,-0.23,6657.72,708.15,-3.09,69647.51,1030.15,-3.05,21123.52,3192.00,-3.02,22249.38
1230500,567.06,570.91,1.00,3,3,3,359.02,3.04,57060.61,1599.37,-3.07,116246.53,1872.61,-3.03,81561.74,1463.75,-3.06,30322.96,2688.14,-3.02,35235.21
1245100,526.07,567.03,1.00,1,1,1,2820.48,-3.05,169153.91,3813.81,-3.04,151785.09,3143.70,-3.05,87151.39,1497.02,-3.08,3360.05,1867.34,-3.03,56250.65
1260200,454.43,558.87,1.00,1,1,1,4774.57,-3.03,129495.39,4621.83,-3.05,53627.31,3531.92,-3.07,25840.83,1385.52,-3.07,7527.85,849.84,-3.02,67390.34
1275300,387.10,553.96,1.00,1,1,1,4471.01,-3.07,23658.22,3256.48,-3.10,91395.16,2273.16,-3.08,83411.10,1307.41,-3.06,5180.42,27.00,-0.40,57833.98
1290200,356.82,554.77,1.00,1,1,1,2032.59,3.11,164882.54,420.97,2.91,191465.71,959.24,-3.13,88321.27,1422.00,-3.04,7876.59,537.80,0.07,34489.72
1313200,371.55,557.55,1.00,1,1,1,651.73,0.19,116221.96,880.96,0.10,55936.90,29.85,0.95,42485.00,1405.31,-3.03,1028.48,879.80,0.09,14881.14
1327700,389.69,558.14,1.00,1,1,1,1251.30,0.03,42451.12,388.15,-0.09,34894.13,142.72,-0.28,9365.59,364.29,-2.99,71829.22,1048.04,0.08,11605.11
1357100,388.52,555.95,1.00,1,1,1,84.42,-2.06,44066.68,522.75,-2.85,30413.25,608.65,-2.87,24954.92,1047.82,0.06,47993.53,896.50,0.09,5156.87
1371200,367.93,551.55,1.00,1,1,1,1493.48,-2.93,102157.71,2073.69,-2.97,110357.77,173.25,-0.57,52121.34,2269.31,0.08,86642.61,899.07,0.08,710.49
1386400,328.67,545.48,1.00,2,2,2,2613.41,-2.99,74055.74,915.69,-0.03,195829.56,2350.93,0.05,145569.60,3174.78,0.07,59571.50,1006.89,0.07,7131.33
1407700,401.34,550.63,1.00,3,3,3,3420.19,0.07,283030.30,6014.36,0.09,239700.45,4898.78,0.09,119773.16,3035.56,0.08,6590.70,1300.01,0.07,13764.28
1421700,540.19,563.74,1.00,3,3,3,9962.13,0.09,467383.17,9869.36,0.10,275516.18,7314.84,0.09,172581.10,3095.69,0.08,4370.68,1532.30,0.07,16592.97
1437000,688.97,580.39,1.00,1,1,1,9785.18,0.11,16091.16,8777.12,0.10,71451.18,6107.30,0.10,78967.10,3089.23,0.09,563.27,1534.78,0.07,364.94
1453100,814.46,590.75,1.00,0,0,0,7820.94,0.08,123021.33,3721.55,0.09,314018.72,3725.44,0.10,147944.37,3093.45,0.08,669.77,1413.55,0.06,7538.96
1483200,860.18,596.15,1.00,1,1,1,1529.55,0.12,209055.60,217.29,0.21,116470.13,1659.91,0.08,68650.35,2869.58,0.08,7439.55,1208.44,0.04,6912.10
1498300,824.08,592.76,1.00,1,1,1,2401.73,-3.05,260331.49,909.21,-2.99,74583.50,185.92,-0.19,98116.29,1983.22,0.07,58717.38,1116.69,-0.05,8724.33
1520300,826.82,591.18,1.00,1,1,1,143.96,-0.52,114570.98,188.37,-0.60,47981.14,184.76,-2.48,15350.54,880.09,0.04,50177.53,3089.23,0.09,90352.27
1549700,832.09,587.33,1.00,1,1,1,222.03,-0.63,2735.62,502.23,-0.19,11475.44,347.58,-0.24,16498.35,104.81,-2.74,33292.90,3093.45,0.08,366.78
1564000,848.37,587.02,1.00,2,2,2,1138.63,-0.02,67510.60,658.16,-0.06,12096.15,103.92,-0.62,17760.82,731.65,-2.91,43955.23,2869.58,0.08,15659.47
1579000,851.34,586.17,1.00,2,2,2,206.01,-0.28,62742.21,390.31,-3.09,69799.14,505.24,-3.04,39181.41,854.32,-2.72,12886.97,1983.22,0.07,59108.83
1601600,833.72,586.29,1.00,1,1,1,779.98,3.13,43359.66,1422.41,-3.10,45669.44,1418.93,-2.97,40519.78,103.92,-0.62,40322.03,880.09,0.04,48845.38
1616000,798.76,584.06,1.00,1,1,1,2432.71,-3.08,114972.50,2761.54,-2.95,95317.14,2247.37,-2.83,60017.66,505.24,-3.04,40813.97,104.81,-2.74,67973.01
1630500,755.37,571.05,1.00,1,1,1,3123.35,-2.85,64288.53,3394.80,-2.69,69622.14,2761.54,-2.95,40665.92,1418.93,-2.97,63154.96,731.65,-2.91,43348.95
1645100,709.78,541.13,1.00,1,1,1,3735.30,-2.56,79453.96,3735.30,-2.56,39590.46,3394.80,-2.69,69145.28,2247.37,-2.83,59195.50,854.32,-2.72,13240.03
