@RELATION gaze_labels

%@METADATA width_px 1920
%@METADATA height_px 1080
%@METADATA width_mm 540.00
%@METADATA height_mm 254.00
%@METADATA distance_mm 620.00


@ATTRIBUTE time INTEGER
@ATTRIBUTE x NUMERIC
@ATTRIBUTE y NUMERIC
@ATTRIBUTE confidence NUMERIC
@ATTRIBUTE handlabeller1 INTEGER
@ATTRIBUTE handlabeller2 INTEGER
@ATTRIBUTE handlabeller_final INTEGER
@ATTRIBUTE speed_1 numeric
@ATTRIBUTE direction_1 numeric
@ATTRIBUTE acceleration_1 numeric
@ATTRIBUTE speed_2 numeric
@ATTRIBUTE direction_2 numeric
@ATTRIBUTE acceleration_2 numeric
@ATTRIBUTE speed_4 numeric
@ATTRIBUTE direction_4 numeric
@ATTRIBUTE acceleration_4 numeric
@ATTRIBUTE speed_8 numeric
@ATTRIBUTE direction_8 numeric
@ATTRIBUTE acceleration_8 numeric
@ATTRIBUTE speed_16 numeric
@ATTRIBUTE direction_16 numeric
@ATTRIBUTE acceleration_16 numeric

%The number after speed, direction denotes the step size that was used for the calculation.
%Acceleration was calculated between two adjacent samples of the already low pass filtered velocity

@DATA
0,347.38,644.78,1.00,1,1,1,0.00,0.00,0.00,1637.52,2.60,0.00,1009.81,2.73,0.00,460.03,-3.02,0.00,595.08,-2.99,0.00
14200,327.42,656.71,1.00,1,1,1,1637.52,2.60,115318.19,1009.81,2.73,45623.41,367.59,-2.42,64738.82,421.06,-2.14,26430.12,462.53,-2.92,9680.75
28600,320.94,656.39,1.00,1,1,1,450.65,-3.09,89354.64,367.59,-2.42,63839.66,460.03,-3.02,18150.14,494.32,-2.16,5105.32,462.50,-3.10,5574.18
42800,319.56,649.72,1.00,1,1,1,479.66,-1.77,40175.41,430.64,-1.77,18211.47,421.06,-2.14,26430.12,549.94,-2.54,14592.07,420.37,2.90,9437.22
64800,317.79,641.13,1.00,1,1,1,399.00,-1.77,3666.00,480.21,-1.98,4813.31,494.32,-2.16,3341.66,595.08,-2.99,11788.99,390.05,2.46,8142.39
79100,312.62,633.73,1.00,1,1,1,630.88,-2.18,21551.29,644.65,-2.47,22191.61,549.94,-2.54,14490.03,462.53,-2.92,9613.05,322.89,1.64,20334.53
93800,303.13,629.53,1.00,1,1,1,706.44,-2.73,24960.51,799.72,-2.96,25724.00,747.86,-2.97,23025.60,462.50,-3.10,5460.42,524.01,0.86,25204.65
107800,290.06,629.54,1.00,1,1,1,933.37,3.14,28947.43,985.84,2.98,25306.73,643.28,2.97,18141.49,420.37,2.90,9572.04,873.17,0.47,31194.11
122200,275.47,633.93,1.00,2,2,2,1057.59,2.85,21833.61,602.58,2.71,30280.20,685.42,2.69,13417.13,390.05,2.46,12439.77,519.60,0.32,25530.97
158400,262.32,642.20,1.00,3,3,3,429.28,2.58,18061.48,564.98,2.41,5052.70,536.85,2.35,7022.43,322.89,1.64,8032.70,785.17,0.13,8099.27
173400,254.04,653.35,1.00,1,1,1,925.93,2.21,36551.70,562.90,1.90,18781.63,470.54,1.66,23002.00,524.01,0.86,24700.56,994.26,0.07,14287.58
203100,254.17,666.00,1.00,1,1,1,426.17,1.56,21571.27,689.84,0.97,19230.55,784.19,0.75,20928.45,873.17,0.47,14704.29,1135.02,0.05,4826.12
218200,271.40,678.91,1.00,1,1,1,1425.80,0.64,80446.02,1593.25,0.34,73835.83,1375.44,0.37,46911.38,1362.19,0.27,35650.65,1309.38,0.04,11582.60
239700,309.14,685.47,1.00,2,2,2,1781.53,0.17,38342.68,2428.17,0.17,41975.35,2489.87,0.17,54596.78,2017.68,0.15,31793.48,1426.59,0.03,5467.03
254300,357.85,693.40,1.00,2,2,2,3380.49,0.16,109532.73,3667.20,0.07,86887.35,3330.41,0.06,61586.80,2449.87,0.07,31974.90,1493.07,0.02,4602.46
268700,415.19,693.42,1.00,2,2,2,3981.73,0.00,58485.61,4495.34,-0.02,62927.76,3784.99,0.00,34546.29,3038.96,-0.00,42971.73,1579.68,0.01,6114.78
283000,486.85,691.35,1.00,3,3,3,5013.48,-0.03,72723.65,3895.72,-0.06,43558.70,3919.00,-0.06,19400.38,3227.86,-0.06,18146.59,1657.88,0.00,5606.47
304200,553.27,685.66,1.00,1,1,1,3144.39,-0.09,88803.47,3458.54,-0.11,22735.61,3662.51,-0.12,15663.21,3340.66,-0.10,8000.82,1857.81,-0.01,9474.60
318300,608.18,677.77,1.00,1,1,1,3934.36,-0.14,57800.52,3395.45,-0.21,23433.58,3170.20,-0.18,37920.24,2956.83,-0.14,28971.99,1876.28,-0.02,2190.04
332800,648.32,665.78,1.00,1,1,1,2889.37,-0.29,79831.41,2843.23,-0.28,41214.44,2894.16,-0.24,22551.93,2616.12,-0.17,24204.21,2033.47,-0.04,11252.56
347300,687.43,655.01,1.00,1,1,1,2797.41,-0.27,7641.13,2408.63,-0.28,29971.88,2040.83,-0.29,59490.45,2128.42,-0.20,34073.99,2090.82,-0.06,4737.00
362100,716.15,646.29,1.00,1,1,1,2028.13,-0.29,52148.30,1391.11,-0.30,68820.01,1602.12,-0.29,29642.21,1737.82,-0.22,26503.31,2111.27,-0.07,1684.66
383100,734.94,640.08,1.00,1,1,1,942.33,-0.32,51730.30,942.35,-0.31,21371.94,1104.78,-0.28,23700.49,1273.18,-0.21,22133.65,1835.78,-0.08,13167.02
397900,748.28,635.99,1.00,1,1,1,942.50,-0.30,1380.60,758.49,-0.21,13687.74,715.26,-0.17,27038.38,1044.24,-0.17,15887.62,1673.59,-0.09,10976.36
412500,756.75,635.44,1.00,2,2,2,581.72,-0.06,27372.17,478.08,0.16,24543.89,540.67,0.07,15698.40,963.53,-0.08,8367.45,1324.20,-0.10,23951.12
427500,762.24,638.29,1.00,2,2,2,412.19,0.48,20853.98,422.12,0.48,10140.19,536.17,0.20,4840.78,957.93,0.02,6281.68,1128.42,-0.10,13052.65
448600,770.28,642.46,1.00,3,3,3,429.18,0.48,805.35,584.84,0.23,9701.26,871.54,0.18,15914.63,855.88,0.10,6006.60,893.09,-0.08,11166.73
463200,782.58,643.02,1.00,1,1,1,843.43,0.04,33478.73,1465.19,0.07,61127.71,1225.46,0.14,24420.82,857.07,0.15,2633.98,698.83,-0.06,13384.88
477500,812.52,645.43,1.00,1,1,1,2100.37,0.08,87959.43,2023.82,0.10,39257.13,1117.65,0.12,7653.31,723.14,0.16,9380.02,511.93,-0.03,13134.90
492000,840.56,648.96,1.00,1,1,1,1949.36,0.13,12169.41,919.16,0.16,76410.71,1125.89,0.13,901.62,698.57,0.14,1882.73,436.56,0.03,5574.82
527600,857.94,652.98,1.00,1,1,1,501.15,0.23,40777.85,603.61,0.18,8869.38,626.09,0.14,14043.22,602.32,0.14,2703.69,469.20,0.09,1141.09
541400,869.90,654.29,1.00,1,1,1,871.53,0.11,27424.46,327.97,0.08,20240.86,354.66,0.16,19675.84,427.52,0.17,12694.73,487.42,0.09,1321.28
576700,874.00,654.23,1.00,1,1,1,116.13,-0.01,21428.34,106.71,0.03,6272.82,85.79,0.47,7766.06,143.76,0.25,8061.50,456.90,0.07,889.78
590800,875.17,654.46,1.00,1,1,1,84.45,0.19,2652.62,352.35,2.97,32437.29,269.85,-3.13,24744.11,25.80,0.44,8406.94,387.78,0.02,5171.18
605700,863.93,655.99,1.00,1,1,1,761.11,3.01,56485.48,906.88,-3.13,37871.52,689.22,-3.06,28220.96,78.17,-0.09,3859.43,293.81,-0.02,6377.16
620000,848.69,654.12,1.00,1,1,1,1073.85,-3.02,27230.35,1044.62,-2.98,14124.60,475.54,-3.02,15024.63,128.54,-0.32,3877.72,130.55,-0.11,11483.08
634400,834.35,651.07,1.00,1,1,1,1017.59,-2.93,7454.45,151.39,-2.48,63486.44,100.95,-0.67,38299.62,132.54,-0.60,2493.00,133.83,-3.09,18296.50
656000,844.38,650.78,1.00,1,1,1,464.33,-0.03,68188.19,974.31,0.03,50925.20,607.17,-0.15,24170.95,108.78,-1.53,5138.67,411.76,-3.12,12871.60
670000,869.03,651.97,1.00,1,1,1,1762.65,0.05,92871.68,1519.42,-0.05,39547.85,823.04,-0.11,15510.56,141.14,-2.13,5668.67,710.81,-3.13,21361.92
684300,887.32,648.47,1.00,1,1,1,1302.19,-0.19,40828.93,670.53,-0.36,63078.16,514.54,-0.32,23553.83,255.31,-2.66,10585.55,960.46,3.13,17504.62
699300,887.43,645.10,1.00,1,1,1,224.48,-1.54,84750.10,395.36,-2.54,63542.86,288.12,-2.48,47734.03,470.57,-3.01,16536.22,1260.58,3.12,20048.14
720100,875.69,640.40,1.00,1,1,1,608.37,-2.76,27533.69,944.56,-3.00,29726.26,1061.97,-3.00,39630.91,969.58,-3.11,24172.26,1432.00,3.12,8242.12
734700,854.31,640.53,1.00,1,1,1,1464.02,3.14,63648.28,1961.46,-3.11,70386.29,1777.89,-3.13,50461.86,1586.03,-3.13,42284.49,1461.35,3.11,2162.93
748700,819.61,638.81,1.00,2,2,2,2481.66,-3.09,73076.66,2836.52,3.11,63437.67,2432.62,3.10,47423.56,2162.09,3.11,41431.22,1390.38,3.09,5356.53
762900,774.37,643.41,1.00,2,2,2,3202.11,3.04,58879.07,2819.81,3.07,7914.45,2971.80,3.09,38046.16,2572.51,3.09,29167.76,1367.12,3.07,2509.78
784000,720.35,646.31,1.00,3,3,3,2563.87,3.09,30934.79,3079.98,3.08,12481.90,3282.22,3.06,15423.89,2956.35,3.08,18246.70,1436.53,3.07,3319.53
798300,665.55,650.11,1.00,1,1,1,3841.75,3.07,89428.24,3843.30,3.05,53756.88,3359.42,3.06,5457.47,2853.45,3.07,7594.81,1384.19,3.07,3668.18
813100,608.95,656.13,1.00,1,1,1,3846.07,3.04,9535.70,3699.19,3.03,11192.41,3531.73,3.06,11709.36,2435.58,3.05,28496.47,1395.98,3.06,1050.70
827600,557.81,661.96,1.00,1,1,1,3549.33,3.03,20557.55,3221.49,3.07,34217.30,2740.13,3.04,54734.35,2172.70,3.04,18190.93,1343.10,3.06,3705.28
842300,515.11,662.78,1.00,1,1,1,2905.19,3.12,48435.35,1964.34,3.06,85538.99,1755.50,3.03,67033.53,1877.42,3.01,20316.95,1247.07,3.05,6587.63
863800,486.94,667.74,1.00,1,1,1,1330.66,2.97,74593.99,920.20,2.93,49196.15,1214.61,2.99,25254.88,1230.19,2.99,30173.92,1133.12,3.05,5309.08
893200,469.28,672.41,1.00,1,1,1,621.36,2.88,24265.19,608.53,2.81,11046.47,682.59,2.84,18740.23,785.64,2.95,15174.41,1002.76,3.05,4434.21
907600,461.72,676.36,1.00,1,1,1,592.35,2.66,9588.90,315.79,2.30,25470.03,210.42,2.43,34444.89,363.98,2.85,29482.46,878.52,3.08,8797.01
922100,463.18,679.20,1.00,1,1,1,220.19,1.10,43494.13,221.92,0.39,30503.47,230.86,0.45,25489.77,73.84,1.38,25126.35,1877.42,3.01,69127.62
957600,471.97,680.60,1.00,1,1,1,250.78,0.16,6039.67,447.66,0.05,7037.66,506.85,0.05,8653.23,260.01,0.05,7112.23,1230.19,2.99,18274.35
972800,485.84,680.36,1.00,1,1,1,913.00,-0.02,43917.69,1015.93,-0.07,37790.80,628.56,-0.08,9362.47,431.31,-0.13,11959.13,785.64,2.95,29350.50
987300,502.06,678.41,1.00,1,1,1,1126.56,-0.12,16388.65,893.34,-0.17,10706.26,871.28,-0.19,17581.66,430.09,-0.28,4538.07,363.98,2.85,29279.14
1008700,517.43,674.85,1.00,1,1,1,737.49,-0.23,18747.93,763.62,-0.31,8000.48,739.35,-0.34,8382.97,628.56,-0.08,10464.89,73.84,1.38,17024.87
1023500,528.40,670.02,1.00,1,1,1,809.47,-0.41,10902.98,591.45,-0.65,19282.85,421.60,-0.78,27232.32,871.28,-0.19,17225.28,260.01,0.05,17059.74
1037600,531.06,664.52,1.00,1,1,1,433.07,-1.12,39436.39,460.27,-2.16,51533.97,591.45,-0.65,12975.05,739.35,-0.34,12723.08,431.31,-0.13,12892.11
1051600,521.24,659.25,1.00,1,1,1,796.00,-2.65,63558.87,796.00,-2.65,31892.53,460.27,-2.16,51902.07,421.60,-0.78,28788.46,430.09,-0.28,4700.15
