@RELATION gaze_labels

%@METADATA width_px 1920
%@METADATA height_px 1080
%@METADATA width_mm 540.00
%@METADATA height_mm 254.00
%@METADATA distance_mm 620.00


@ATTRIBUTE time INTEGER
@ATTRIBUTE x NUMERIC
@ATTRIBUTE y NUMERIC
@ATTRIBUTE confidence NUMERIC
@ATTRIBUTE handlabeller1 INTEGER
@ATTRIBUTE handlabeller2 INTEGER
@ATTRIBUTE handlabeller_final INTEGER
@ATTRIBUTE speed_1 numeric
@ATTRIBUTE direction_1 numeric
@ATTRIBUTE acceleration_1 numeric
@ATTRIBUTE speed_2 numeric
@ATTRIBUTE direction_2 numeric
@ATTRIBUTE acceleration_2 numeric
@ATTRIBUTE speed_4 numeric
@ATTRIBUTE direction_4 numeric
@ATTRIBUTE acceleration_4 numeric
@ATTRIBUTE speed_8 numeric
@ATTRIBUTE direction_8 numeric
@ATTRIBUTE acceleration_8 numeric
@ATTRIBUTE speed_16 numeric
@ATTRIBUTE direction_16 numeric
@ATTRIBUTE acceleration_16 numeric

%The number after speed, direction denotes the step size that was used for the calculation.
%Acceleration was calculated between two adjacent samples of the already low pass filtered velocity

@DATA
0,93.17,724.17,1.00,1,1,1,0.00,0.00,0.00,2272.39,-0.67,0.00,1460.80,-0.77,0.00,510.10,-1.10,0.00,131.53,-0.36,0.00
14700,119.34,703.42,1.00,1,1,1,2272.39,-0.67,154584.56,1460.80,-0.77,56447.99,341.64,-1.82,90163.52,332.80,3.11,49709.91,115.48,1.22,11993.70
29100,123.83,694.73,1.00,1,1,1,679.28,-1.09,116448.47,341.64,-1.82,92041.92,510.10,-1.10,23497.31,517.14,2.66,18271.62,222.57,0.78,8874.52
43100,116.97,694.01,1.00,1,1,1,492.65,-3.04,69536.08,618.83,2.96,49157.96,332.80,3.11,52195.41,443.89,2.30,13067.79,357.84,0.35,13037.93
57600,106.50,697.98,1.00,1,1,1,772.47,2.78,27545.39,595.72,2.66,12518.59,517.14,2.66,18145.61,131.53,-0.36,38900.12,579.47,0.12,16797.80
79400,97.82,704.06,1.00,1,1,1,485.87,2.53,14882.63,481.01,2.35,9215.37,443.89,2.30,8392.16,115.48,1.22,8087.49,741.68,-0.03,8717.04
93600,94.34,710.32,1.00,1,1,1,504.09,2.08,15661.01,397.60,1.58,23862.95,315.97,1.49,22826.69,222.57,0.78,8999.51,764.30,-0.14,6237.42
107900,97.73,715.40,1.00,1,1,1,426.78,0.98,34234.26,555.31,0.53,34731.09,390.77,0.50,23741.55,357.84,0.35,12764.41,721.69,-0.26,6877.78
122600,108.24,718.45,1.00,1,1,1,744.76,0.28,34044.93,539.98,0.13,14661.36,667.14,0.13,22770.81,579.47,0.12,16569.25,441.89,-0.33,19227.34
158900,125.02,719.07,1.00,1,1,1,462.54,0.04,8723.30,767.87,-0.03,6929.70,777.32,-0.03,4420.97,741.68,-0.03,5235.03,385.87,-0.20,2150.95
172300,146.39,717.24,1.00,1,1,1,1600.28,-0.09,85270.87,1078.18,-0.13,24081.15,937.83,-0.09,12634.50,764.30,-0.14,6609.80,446.28,-0.09,5672.13
201100,170.14,713.22,1.00,2,2,2,836.59,-0.17,26720.85,1110.59,-0.14,1153.71,1177.41,-0.20,9206.01,721.69,-0.26,3415.01,597.78,-0.04,5337.03
221900,200.97,709.79,1.00,3,3,3,1491.02,-0.11,31609.94,1304.57,-0.27,12273.72,904.98,-0.34,14832.49,674.10,-0.33,3187.14,793.70,-0.03,9422.20
235900,213.85,700.96,1.00,3,3,3,1116.14,-0.60,52122.73,708.78,-0.93,61339.09,718.24,-0.63,21070.75,768.84,-0.35,6880.34,999.10,-0.03,14671.98
250600,213.15,693.51,1.00,1,1,1,509.06,-1.66,66402.27,544.42,-1.97,43599.48,453.40,-1.15,27035.68,768.32,-0.31,2038.82,1213.29,-0.04,14576.63
265400,207.58,686.17,1.00,1,1,1,622.47,-2.22,22261.08,291.45,-1.59,19855.74,365.30,-0.95,8072.25,936.50,-0.21,12680.58,1408.62,-0.05,13260.44
286500,212.90,683.05,1.00,1,1,1,292.80,-0.53,34065.10,578.18,-0.23,28113.71,605.10,-0.26,18970.84,1094.83,-0.14,8305.07,1594.20,-0.05,8798.39
301000,227.64,681.58,1.00,1,1,1,1021.31,-0.10,52776.02,1315.99,0.01,52840.72,1243.58,0.02,46963.32,1305.01,-0.03,16972.60,1857.04,-0.06,18133.64
315600,251.19,683.52,1.00,1,1,1,1618.88,0.08,43924.58,2068.06,0.10,52403.14,2078.74,0.07,57457.64,1757.39,0.02,31430.09,1867.78,-0.06,736.06
330700,288.77,687.56,1.00,2,2,2,2502.68,0.11,58624.94,2831.34,0.09,50559.85,2381.52,0.09,20308.21,2257.56,0.03,33154.78,1974.07,-0.05,7069.15
345200,334.66,691.10,1.00,2,2,2,3174.24,0.08,46679.86,2633.95,0.08,13713.36,2912.26,0.07,36683.38,2845.30,0.03,40533.59,1961.25,-0.05,1354.29
367600,385.64,695.50,1.00,2,2,2,2284.24,0.09,39746.76,2977.87,0.06,15550.63,3257.91,0.03,16369.01,3144.57,0.02,13397.17,1931.74,-0.02,2293.72
382000,444.03,697.90,1.00,3,3,3,4058.76,0.04,123596.84,4050.41,-0.00,76159.84,3527.82,0.01,19501.62,3099.80,0.01,4185.50,1804.43,-0.01,9144.80
396900,504.31,695.05,1.00,3,3,3,4050.13,-0.05,24070.99,4227.43,-0.03,14313.30,4028.87,-0.02,34634.62,3016.09,-0.00,6270.53,1832.10,0.01,2802.64
411300,567.83,693.87,1.00,1,1,1,4411.78,-0.02,26501.39,4008.17,-0.04,15318.65,3302.78,-0.05,50880.62,2780.45,-0.01,16422.55,1775.17,0.03,4474.78
425700,619.66,690.61,1.00,1,1,1,3606.51,-0.06,57251.18,2546.95,-0.07,101691.60,2774.40,-0.05,36694.46,2601.24,-0.02,12547.75,1864.63,0.05,6962.84
447100,658.80,687.64,1.00,1,1,1,1834.07,-0.08,82839.29,1787.90,-0.07,35469.48,2026.38,-0.05,34954.16,1848.24,-0.03,35195.60,1938.95,0.05,3473.38
461700,683.87,686.19,1.00,1,1,1,1720.41,-0.06,8091.46,1396.40,-0.01,27614.13,1329.11,-0.01,47928.28,1443.30,-0.01,27771.12,1884.58,0.01,6791.88
476600,699.99,687.31,1.00,1,1,1,1084.26,0.07,44261.99,776.37,0.14,42930.40,651.30,0.06,45737.07,966.27,0.02,32159.29,1778.17,-0.06,11038.83
490900,706.31,689.42,1.00,1,1,1,466.10,0.32,45009.77,216.43,0.34,39541.06,359.22,0.21,21039.48,902.47,0.13,8412.09,1647.35,-0.13,12680.01
526000,710.09,690.83,1.00,1,1,1,114.76,0.36,10012.14,118.88,0.48,2853.55,293.08,0.36,2356.00,982.62,0.17,2439.83,1519.49,-0.17,3975.56
540500,711.55,692.13,1.00,2,2,2,135.04,0.73,3450.54,368.35,0.38,17259.69,646.31,0.33,24380.93,945.43,0.04,8462.65,1403.72,-0.09,11293.60
576400,727.32,697.75,1.00,2,2,2,466.16,0.34,9602.38,1166.72,0.32,22270.16,1317.42,0.22,18926.79,949.33,-0.18,5855.97,1356.03,0.10,7364.95
590900,767.42,710.46,1.00,1,1,1,2901.73,0.31,167993.89,2983.18,0.18,126488.19,1537.07,0.01,25631.66,968.35,-0.36,12264.68,1394.75,0.35,23348.07
605300,812.12,713.26,1.00,1,1,1,3110.18,0.06,52909.69,2377.20,-0.26,91840.50,2181.71,-0.30,59099.73,1234.78,-0.38,18555.39,1612.26,0.55,25787.06
619400,832.82,692.77,1.00,1,1,1,2065.53,-0.78,164646.96,2211.18,-0.99,115496.84,1823.69,-0.73,64940.43,1372.08,-0.17,22015.44,1746.22,0.69,19153.15
633700,846.77,660.89,1.00,1,1,1,2433.89,-1.16,64346.15,1792.15,-1.22,43557.18,1691.41,-0.96,30184.32,1892.54,0.15,51154.37,1871.69,0.77,13833.17
654900,854.78,633.06,1.00,1,1,1,1365.75,-1.29,51642.56,1273.61,-0.92,32271.99,1239.53,-0.43,41393.57,2067.02,0.46,30007.10,1925.46,0.83,5713.30
668900,873.86,625.17,1.00,1,1,1,1474.88,-0.39,88352.15,2001.33,0.49,156990.89,2019.41,0.59,123893.97,2515.52,0.73,53360.52,2000.36,0.88,9113.35
683000,904.35,659.63,1.00,1,1,1,3263.25,0.85,220739.06,4652.01,0.93,210076.15,3825.13,0.92,143282.44,2905.91,0.90,43720.16,1800.50,0.95,16894.38
697800,954.37,732.84,1.00,1,1,1,5991.05,0.97,188044.28,5399.25,1.03,61877.40,5431.87,1.04,114503.03,3355.06,1.01,38409.22,1569.93,1.06,19771.07
719600,1005.34,829.49,1.00,4,4,4,5012.11,1.09,53288.01,6093.82,1.10,36281.54,5099.01,1.09,20888.74,3855.41,1.10,26743.40,1051.91,1.34,28874.24
733700,1053.53,927.84,1.00,4,4,4,7767.94,1.12,195887.83,4857.78,1.15,89815.59,4533.33,1.15,44875.72,3790.76,1.19,26077.74,727.22,1.95,44128.85
762300,1089.86,1018.91,1.00,4,4,4,3428.27,1.19,152354.33,3420.15,1.22,51246.20,3972.37,1.24,23573.95,3212.87,1.34,26643.96,831.15,2.62,18084.87
783400,1111.78,1087.53,1.00,4,4,4,3414.03,1.26,11457.73,2993.59,1.42,35671.06,2605.51,1.46,73008.63,2276.62,1.64,58718.43,1068.29,2.94,18221.06
798400,1106.62,1125.67,1.00,4,4,4,2565.79,1.71,103593.61,1963.34,2.22,144628.24,1845.18,2.25,123482.41,1625.62,2.39,103806.69,1262.67,3.07,16585.86
813400,1075.96,1134.29,1.00,4,4,4,2123.38,2.87,173399.42,3163.51,-3.01,184642.55,3066.80,-3.00,176616.93,2023.12,-3.07,99826.31,1404.69,3.12,10499.70
828200,1013.17,1113.27,1.00,4,4,4,4473.97,-2.82,200567.16,5542.30,-2.67,186967.89,4662.74,-2.68,134845.49,3520.58,-2.72,119319.68,1474.46,-3.11,6801.36
842400,932.74,1061.33,1.00,4,4,4,6742.06,-2.57,186664.20,6127.22,-2.54,68654.95,5240.80,-2.55,59497.03,4691.66,-2.58,92424.97,1617.86,-3.03,13178.30
863700,834.28,989.53,1.00,4,4,4,5721.34,-2.51,50678.38,5100.02,-2.48,50562.18,6265.14,-2.48,51930.04,4966.47,-2.51,20581.11,1837.19,-2.92,13493.82
891700,734.59,906.57,1.00,4,4,4,4631.97,-2.45,40648.59,6394.16,-2.44,47033.19,6056.64,-2.43,12675.99,5104.06,-2.47,8681.48,2065.70,-2.81,11369.44
906400,626.47,812.44,1.00,4,4,4,9751.85,-2.43,348440.31,7369.31,-2.39,69455.27,5258.92,-2.40,55926.08,4482.75,-2.45,42652.57,2441.47,-2.71,29509.39
928000,538.82,724.26,1.00,1,1,1,5755.87,-2.35,186681.68,4299.94,-2.35,142489.69,5008.69,-2.38,12858.93,3727.56,-2.46,35049.04,2738.82,-2.64,16073.84
956500,474.87,659.37,1.00,1,1,1,3196.51,-2.35,89804.35,2995.14,-2.34,45804.23,2857.63,-2.38,75484.25,2950.14,-2.49,27522.95,2921.90,-2.61,7082.37
970500,450.28,632.81,1.00,1,1,1,2586.13,-2.32,44068.35,831.93,-2.62,157776.83,1185.06,-2.62,123313.62,2267.58,-2.55,49833.37,2940.92,-2.60,2661.79
991700,449.42,644.89,1.00,1,1,1,571.24,1.64,141790.91,1299.66,1.38,91777.28,801.30,1.76,77220.40,1356.89,-2.69,44496.02,2816.45,-2.61,5882.71
1005900,458.94,677.99,1.00,1,1,1,2425.69,1.29,133751.58,2315.56,1.33,71825.93,1452.28,1.41,52781.29,833.29,-3.04,45121.30,2465.58,-2.63,25085.99
1020600,465.44,709.86,1.00,1,1,1,2212.69,1.37,19068.42,1639.82,1.44,48127.85,1423.26,1.54,13327.00,790.28,2.68,31057.71,2111.98,-2.66,24689.08
1034900,465.29,725.12,1.00,2,2,2,1067.00,1.58,83240.13,767.78,2.24,86420.87,791.42,2.42,76665.86,923.00,2.51,13689.77,1789.34,-2.74,24663.92
1049700,451.60,727.41,1.00,2,2,2,937.81,2.98,87306.18,1303.99,-2.86,83973.42,1270.46,-3.08,61364.29,1147.34,2.72,20856.36,1337.14,-2.88,34010.14
1070600,420.63,711.98,1.00,3,3,3,1655.53,-2.68,50349.08,2038.19,-2.82,35268.56,1757.00,-2.95,25125.45,1219.03,2.95,13673.20,985.95,-3.13,21489.30
1084500,384.42,704.66,1.00,3,3,3,2657.93,-2.94,82258.45,2333.59,-3.01,36905.71,2063.22,-2.95,22059.80,1299.04,3.13,16954.91,818.03,2.84,23668.82
1099200,354.49,703.07,1.00,1,1,1,2038.92,-3.09,48041.83,2142.95,-3.11,20351.23,1808.96,-3.11,26537.26,1386.19,-3.09,8683.18,724.57,2.65,11910.50
1113600,322.09,702.74,1.00,1,1,1,2250.15,-3.13,16013.87,1406.74,3.04,53424.53,1334.83,3.05,35586.30,1373.82,-3.09,1019.89,663.07,2.65,4271.37
1134600,304.93,707.93,1.00,1,1,1,853.70,2.85,69433.08,723.55,2.76,35304.89,1063.41,2.96,13948.93,1161.30,3.09,11818.91,525.17,2.79,7705.55
1149500,298.01,712.48,1.00,1,1,1,555.78,2.56,23982.64,666.58,2.74,3920.28,764.41,2.81,22093.53,865.45,2.99,20939.26,441.54,2.99,8559.87
1163600,287.15,715.51,1.00,1,1,1,799.80,2.87,22613.19,818.35,2.86,12505.95,551.57,2.80,15098.59,551.40,2.88,22874.21,283.18,3.05,11328.61
1177900,275.68,718.93,1.00,1,1,1,836.71,2.85,2769.92,460.51,2.87,25026.39,402.34,2.78,10453.92,222.67,2.32,26675.48,102.56,2.87,12822.91
1199400,271.27,719.96,1.00,1,1,1,210.58,2.91,29146.66,91.48,2.18,18345.39,93.05,1.85,16482.16,188.89,0.78,13428.76,180.27,0.54,12171.96
1213800,273.81,721.63,1.00,1,1,1,211.27,0.58,26918.13,486.47,0.10,37294.57,412.92,0.18,30015.30,356.67,0.30,14393.25,407.22,0.29,16423.89
1228700,285.46,721.33,1.00,1,1,1,781.96,-0.03,41644.36,962.72,0.08,31974.59,676.11,0.13,17757.37,627.19,0.17,18621.77,624.73,0.20,14921.46
1243500,302.32,723.85,1.00,1,1,1,1151.82,0.15,27374.80,787.70,0.14,12451.40,929.37,0.08,17311.64,898.32,0.11,18559.82,805.13,0.15,12417.22
1278600,324.36,726.97,1.00,2,2,2,634.17,0.14,14749.06,909.16,0.09,3737.97,1077.82,0.11,4307.67,1237.71,0.09,9685.24,903.03,0.10,2992.85
1292500,346.71,727.65,1.00,2,2,2,1608.41,0.03,70543.36,1418.48,0.09,36643.41,1220.45,0.10,10325.62,1421.36,0.07,13367.76,937.32,0.08,2922.57
1321200,384.54,732.38,1.00,3,3,3,1328.66,0.12,10856.12,1525.00,0.10,3783.57,1808.61,0.08,20511.83,1564.21,0.07,4981.81,937.78,0.05,1052.64
1342600,422.69,735.58,1.00,1,1,1,1789.07,0.08,21712.62,2278.21,0.07,35298.55,1917.19,0.07,5178.24,1553.99,0.05,1161.81,917.04,0.03,1342.60
1356600,464.98,738.28,1.00,1,1,1,3026.19,0.06,88428.50,2622.46,0.03,25653.39,2269.53,0.04,25518.63,1672.52,0.03,8833.49,918.99,0.00,1434.31
1370600,496.09,737.89,1.00,1,1,1,2222.47,-0.01,59130.24,2262.27,-0.00,26346.80,2073.74,0.02,14493.23,1532.48,0.03,10013.18,895.69,-0.02,2343.38
1385200,529.68,738.20,1.00,1,1,1,2300.69,0.01,6357.67,1647.54,-0.00,42106.41,1513.07,-0.04,38924.58,1329.80,-0.02,14795.59,915.14,-0.01,1568.04
1406600,555.40,737.64,1.00,1,1,1,1202.25,-0.02,51385.63,912.96,-0.11,34838.34,1068.94,-0.06,20794.47,950.64,-0.08,17949.26,931.83,-0.02,1082.42
1420700,561.90,734.70,1.00,1,1,1,505.79,-0.42,54122.40,347.97,-0.40,41697.17,419.15,-0.38,48481.16,552.85,-0.24,29441.09,1000.25,-0.03,4879.95
1434600,564.38,733.87,1.00,1,1,1,188.56,-0.32,22929.72,341.73,-2.43,42121.98,252.71,-2.34,40763.60,311.29,-0.57,19850.75,1013.04,-0.02,1111.84
1449100,554.58,728.33,1.00,1,1,1,776.53,-2.63,62994.71,602.33,-2.77,20980.66,477.70,-2.69,17574.66,196.12,-0.84,9210.78,1019.71,-0.03,616.55
1470700,544.10,726.04,1.00,1,1,1,496.69,-2.93,15518.22,597.40,-2.81,940.69,588.90,-2.67,5173.47,217.03,-0.82,980.13,1003.19,-0.02,847.86
1485400,534.10,721.19,1.00,1,1,1,755.68,-2.69,20159.46,581.64,-2.53,10916.11,185.23,-2.30,28647.43,293.26,-0.45,8227.39,897.37,-0.01,7219.68
1500000,530.10,716.31,1.00,1,1,1,432.13,-2.26,27820.45,439.46,-0.14,65164.59,487.12,-0.29,40485.22,457.68,-0.22,12690.56,794.59,0.01,7171.80
1514000,546.54,719.39,1.00,1,1,1,1194.57,0.19,110748.92,1245.11,0.02,58173.75,954.78,-0.05,35348.56,716.77,-0.04,19848.24,704.57,0.03,6522.72
1535600,574.42,717.10,1.00,2,2,2,1295.17,-0.08,16045.16,1360.50,-0.02,5923.76,1426.16,0.05,22485.44,1060.89,0.03,16187.88,608.60,0.04,4451.97
1550500,596.18,718.17,1.00,3,3,3,1462.27,0.05,16495.94,1647.05,0.08,22041.97,1544.21,0.05,7923.24,1260.31,0.09,14046.51,603.91,0.05,546.38
1565000,622.68,721.10,1.00,1,1,1,1838.46,0.11,26845.13,1780.84,0.12,10339.57,1735.01,0.13,15828.43,1286.15,0.13,4248.36,584.64,0.06,1414.27
1580000,648.33,724.57,1.00,1,1,1,1725.39,0.13,8080.30,1827.91,0.17,6670.72,1582.69,0.17,11028.49,1230.96,0.14,3787.70,603.24,0.09,1600.22
1593900,674.74,730.09,1.00,1,1,1,1940.96,0.21,18142.00,1418.90,0.22,29881.12,1176.90,0.21,29470.14,1000.79,0.18,16793.46,648.21,0.08,3245.77
1615000,696.83,735.21,1.00,1,1,1,1075.12,0.23,41061.67,796.30,0.26,29588.94,976.62,0.26,9864.73,897.68,0.18,4892.71,704.81,0.09,2688.35
1643100,712.60,740.15,1.00,1,1,1,587.90,0.30,17470.16,615.92,0.35,6789.03,572.41,0.26,14384.78,712.63,0.21,6638.33,718.25,0.09,484.68
1657500,721.44,744.15,1.00,1,1,1,673.74,0.42,7985.41,352.11,0.26,18548.93,421.40,0.22,10591.95,522.21,0.23,13249.96,634.98,0.06,6006.48
1693100,729.62,744.65,1.00,1,1,1,230.26,0.06,13085.18,270.26,-0.04,3469.72,251.90,0.22,4761.28,341.73,0.20,5079.68,521.19,0.05,3201.88
1707700,734.99,743.57,1.00,1,1,1,375.32,-0.20,11213.24,81.73,-0.09,12922.81,115.60,-0.01,9717.06,246.26,0.10,6866.11,414.43,0.01,7410.83
1721800,731.96,744.43,1.00,1,1,1,223.87,2.87,42465.17,102.93,3.02,13095.17,50.25,-1.57,8888.91,158.56,-0.23,7705.14,315.56,-0.05,7179.06
1743300,731.36,744.01,1.00,1,1,1,33.94,-2.54,9486.72,106.06,-2.22,4826.12,71.56,-1.50,1008.97,112.34,-1.11,5696.44,217.13,-0.18,4817.12
1757900,729.63,741.39,1.00,1,1,1,215.22,-2.15,12614.82,223.13,-0.90,15205.33,152.57,-1.29,5750.07,167.53,-1.85,7792.06,118.29,-0.47,7507.95
1772000,735.31,738.98,1.00,1,1,1,437.98,-0.40,36999.46,289.18,-0.90,4684.86,250.99,-1.76,9472.54,248.01,-2.26,8254.75,73.97,-1.15,5407.05
1786000,734.67,735.02,1.00,1,1,1,286.67,-1.73,33065.81,389.16,-2.19,29688.72,287.84,-1.90,3771.67,263.53,-2.17,2038.53,85.12,-1.83,3856.68
1801300,728.68,729.71,1.00,1,1,1,523.31,-2.42,22973.51,431.76,-2.35,4990.88,447.00,-2.37,15209.71,308.03,-2.20,2967.12,89.27,-2.02,1154.67
1822300,723.70,723.83,1.00,1,1,1,366.94,-2.27,8012.86,504.32,-2.49,4730.09,443.54,-2.44,1299.56,281.43,-2.30,1849.96,83.17,-2.00,303.29
1836300,714.62,719.03,1.00,1,1,1,733.12,-2.65,29677.70,463.19,-2.54,3376.53,394.77,-2.45,3526.78,293.28,-2.48,3912.57,66.06,-2.04,1235.07
1850900,712.77,716.33,1.00,1,1,1,223.95,-2.17,37310.95,262.68,-2.36,14364.57,318.43,-2.66,7217.93,255.21,-2.59,3266.48,65.19,-1.80,1049.13
1865000,709.25,713.74,1.00,1,1,1,310.16,-2.51,8716.18,209.72,-2.87,9144.37,150.23,-2.82,12176.03,150.75,-2.75,7736.26,46.47,-1.49,1795.92
1886600,705.56,714.32,1.00,1,1,1,173.09,2.98,10433.71,123.01,2.61,7056.16,97.55,2.90,3953.05,26.11,2.72,6215.44,33.60,-0.70,1538.20
1900500,705.49,715.95,1.00,1,1,1,116.79,1.62,13539.29,130.77,1.24,11536.43,134.24,1.39,11587.44,122.61,0.63,9877.11,12.73,0.65,2391.27
1914600,706.73,717.79,1.00,1,1,1,158.10,0.98,6737.69,282.30,0.88,11849.74,291.14,0.63,15316.16,149.76,0.65,1935.51,19.50,1.34,887.00
1929800,710.78,722.30,1.00,1,1,1,398.52,0.84,15978.82,439.20,0.49,13629.58,389.35,0.52,6889.14,194.37,0.65,2934.74,27.31,1.35,514.32
1950500,720.65,725.21,1.00,1,1,1,497.00,0.29,12664.18,500.00,0.35,4288.44,363.93,0.45,1747.64,264.51,0.60,3440.74,35.85,2.00,1050.15
1965100,727.35,728.38,1.00,1,1,1,507.81,0.44,5389.82,272.74,0.37,15571.28,275.88,0.40,6119.31,287.90,0.66,1937.58,39.70,1.91,354.09
1979700,728.08,728.07,1.00,1,1,1,54.32,-0.40,32424.01,118.12,0.55,10824.06,242.93,0.57,3818.64,225.61,0.66,4267.14,35.74,2.37,1215.55
2014700,732.34,731.44,1.00,1,1,1,155.31,0.67,3934.30,231.10,0.72,3326.31,212.15,0.87,2103.90,152.04,0.66,2101.85,43.91,2.33,239.10
2028800,736.61,735.55,1.00,1,1,1,420.21,0.77,18870.53,390.42,1.04,13142.58,149.06,1.01,4788.78,51.00,1.72,9566.20,40.50,1.98,1051.26
2043400,738.05,741.08,1.00,1,1,1,391.53,1.32,15196.20,100.77,1.69,21680.90,80.81,1.88,7885.49,105.69,3.06,7279.64,19.99,1.77,1465.90
2079000,736.00,740.57,1.00,1,1,1,59.36,-2.90,11885.71,169.69,-2.70,6264.17,220.34,-3.00,6228.26,141.93,-2.95,1384.59,19.68,1.69,44.83
2093100,730.43,737.48,1.00,1,1,1,452.16,-2.64,28024.59,637.15,-2.72,33155.42,377.26,-2.75,12291.48,230.79,-2.89,6353.79,14.66,1.83,396.76
2107500,719.44,733.12,1.00,1,1,1,820.67,-2.76,26166.99,740.92,-2.76,7512.78,544.33,-2.64,12089.20,259.47,-2.85,2070.66,4.82,2.79,868.90
2121500,710.87,729.71,1.00,1,1,1,658.89,-2.76,11556.17,474.31,-2.55,21061.90,515.70,-2.69,2966.45,272.50,-2.62,4570.18,6.50,0.66,709.42
2143500,705.26,723.61,1.00,1,1,1,376.71,-2.31,16305.00,342.31,-2.58,6018.34,312.50,-2.72,9253.28,282.67,-2.62,465.71,24.83,0.56,835.48
2157600,700.44,723.09,1.00,1,1,1,344.08,-3.03,18127.18,157.40,2.85,18986.87,161.06,-2.24,13146.57,181.32,-2.65,7207.35,38.07,0.42,985.45
2172300,700.93,724.93,1.00,1,1,1,129.37,1.31,27799.61,146.99,-0.37,20690.79,14.51,-0.26,11384.40,57.45,-1.58,11006.32,31.83,0.52,482.32
2186300,704.37,721.55,1.00,1,1,1,344.47,-0.78,30263.29,186.40,-0.29,2982.58,150.50,0.35,9921.27,124.95,-0.01,9842.69,32.57,0.64,279.82
2201100,706.07,723.39,1.00,1,1,1,169.47,0.83,26247.67,197.57,0.75,12874.01,285.01,0.04,10053.57,212.95,0.28,6741.11,63.30,0.94,2272.43
2222800,709.66,726.45,1.00,1,1,1,217.27,0.71,2442.99,375.41,0.17,10861.44,324.99,0.32,4269.38,304.86,0.30,4238.81,78.06,1.13,912.33
2237000,719.35,725.69,1.00,1,1,1,684.57,-0.08,38905.12,454.18,0.16,5553.93,347.94,0.30,1683.70,321.83,0.33,1451.26,78.12,1.20,431.21
2265700,728.89,729.58,1.00,1,1,1,359.06,0.39,13870.99,331.98,0.40,5330.37,433.46,0.28,2987.03,336.46,0.55,2489.30,90.59,0.98,781.86
2286700,734.55,732.10,1.00,1,1,1,295.06,0.42,3082.99,417.49,0.44,4130.82,368.24,0.52,5466.10,338.68,0.66,1802.61,127.61,0.68,2342.96
2301200,742.31,735.88,1.00,1,1,1,594.95,0.45,20707.19,439.36,0.67,7039.14,372.90,0.80,7091.07,297.91,0.79,4024.97,187.93,0.43,4934.84
2315800,744.56,740.06,1.00,1,1,1,325.20,1.08,26135.35,394.99,1.28,17278.41,392.44,1.09,7802.60,188.14,1.29,11011.59,225.84,0.26,3528.77
2329600,745.56,746.61,1.00,1,1,1,480.61,1.42,14918.36,412.55,1.46,5432.81,325.70,1.70,16291.61,150.82,1.72,5821.07,292.45,0.21,4907.64
2350900,746.19,754.45,1.00,1,1,1,368.87,1.49,5424.72,324.86,2.11,11688.12,284.12,2.46,10747.03,99.20,1.54,2636.77,367.20,0.14,3683.28
2365600,739.59,756.68,1.00,1,1,1,473.67,2.82,35712.67,440.90,-3.12,27225.47,242.83,2.89,8124.34,91.15,0.85,4390.05,441.15,0.09,5243.50
2393400,727.46,753.97,1.00,1,1,1,447.26,-2.92,8965.85,303.49,-2.80,6417.49,139.69,-2.59,6357.48,144.11,0.12,3516.18,467.78,0.05,1104.54
2414400,725.62,751.77,1.00,1,1,1,136.60,-2.27,16623.94,195.93,-0.69,20871.16,171.02,-0.69,12074.23,286.93,-0.13,7202.60,536.63,0.07,3305.56
2443900,735.10,747.68,1.00,1,1,1,349.86,-0.41,13904.85,612.23,-0.20,15231.84,487.14,-0.27,11478.03,465.03,-0.21,6120.45,587.52,0.08,1728.70
2457900,751.74,746.60,1.00,2,2,2,1191.63,-0.07,62141.20,927.55,-0.15,22669.96,850.63,-0.17,26380.79,660.01,-0.18,13968.63,555.09,0.04,2693.82
2479800,768.03,742.79,1.00,2,2,2,763.89,-0.23,20803.18,1139.17,-0.15,9663.41,1289.23,-0.10,20259.45,930.66,-0.16,12394.21,512.88,-0.00,2182.17
2493900,792.30,740.52,1.00,2,2,2,1728.60,-0.09,69314.75,1745.13,-0.07,43626.57,1395.84,-0.10,7576.22,1113.57,-0.07,14421.87,451.67,-0.08,5152.95
2508400,817.81,739.11,1.00,1,1,1,1761.83,-0.05,5151.38,1723.43,-0.06,2603.54,1606.06,-0.11,14524.14,1297.92,-0.02,13446.82,426.94,-0.17,3242.60
2522400,841.34,737.77,1.00,1,1,1,1683.65,-0.06,5589.16,1469.53,-0.15,20800.19,1446.17,0.00,16284.13,1155.11,-0.03,10238.12,437.87,-0.12,1877.87
2537100,859.54,733.00,1.00,1,1,1,1279.79,-0.26,33934.62,1231.18,0.06,24952.49,1316.17,0.07,10861.58,1013.03,-0.02,9672.50,536.73,0.00,7839.04
2558400,885.58,740.53,1.00,1,1,1,1272.61,0.28,31854.44,1244.42,0.27,12126.21,923.54,0.08,18444.53,662.81,-0.05,16489.47,671.57,0.11,7010.67
2572500,901.98,744.79,1.00,1,1,1,1202.11,0.25,5544.89,537.23,0.13,50811.85,501.98,0.22,30666.20,381.37,-0.12,20076.50,839.22,0.21,13080.56
2587000,900.81,742.52,1.00,1,1,1,175.72,-2.05,91446.85,422.08,-2.74,65551.35,146.82,-2.62,44397.12,202.94,0.12,13106.82,962.14,0.30,9890.30
2601100,890.88,740.05,1.00,1,1,1,725.86,-2.90,44239.57,685.50,-2.86,19289.81,575.60,-2.83,30716.48,224.75,0.70,8752.88,1074.05,0.37,9691.58
2622500,877.41,735.85,1.00,1,1,1,659.35,-2.84,3612.32,699.76,-2.88,798.85,385.42,-3.10,10663.85,318.77,0.80,4577.84,1180.21,0.43,5752.13
2637100,866.57,733.47,1.00,1,1,1,760.55,-2.93,8070.31,204.48,2.49,40951.31,180.44,1.92,25522.27,531.12,0.74,14637.67,1259.19,0.48,6803.95
2666200,870.31,741.28,1.00,1,1,1,297.80,1.12,33426.38,561.18,0.84,21009.71,691.26,0.75,22071.21,905.15,0.67,12965.20,1234.12,0.52,2000.77
2687900,885.52,754.76,1.00,1,1,1,936.48,0.73,30967.80,1600.33,0.60,49072.06,1408.92,0.60,33782.91,1211.24,0.61,14370.92,1291.36,0.55,3208.04
2701800,917.42,773.32,1.00,1,1,1,2655.19,0.53,125668.42,2986.78,0.52,100502.25,2417.59,0.55,72824.87,1681.76,0.58,34035.85,1307.19,0.58,2554.75
2715900,958.14,796.24,1.00,2,2,2,3313.82,0.51,46809.55,3430.64,0.53,31581.17,2512.56,0.54,7463.88,2035.34,0.56,25150.73,1255.86,0.60,4092.75
2730600,1002.67,823.28,1.00,2,2,2,3543.63,0.55,17441.34,2247.96,0.55,80535.04,2691.72,0.53,12193.88,2150.12,0.55,7971.04,1205.48,0.60,3460.95
2766000,1054.21,855.02,1.00,3,3,3,1709.94,0.55,51800.78,2266.13,0.54,896.84,2660.83,0.54,1183.86,2315.71,0.54,4762.34,1238.24,0.60,925.49
2780600,1099.99,881.29,1.00,1,1,1,3615.60,0.52,130630.83,3374.18,0.54,75895.25,1978.22,0.55,46766.22,2214.71,0.55,7052.72,1322.68,0.60,5787.28
2795000,1138.16,905.29,1.00,1,1,1,3130.77,0.56,34952.75,1691.96,0.57,116928.85,2121.85,0.54,10075.00,1921.61,0.56,20444.63,1391.39,0.60,4796.29
2830800,1171.51,927.11,1.00,1,1,1,1113.31,0.58,56361.70,1399.84,0.54,8234.82,1738.33,0.57,10809.49,1470.09,0.57,12615.07,1476.77,0.58,2443.25
2845300,1198.41,941.73,1.00,1,1,1,2111.25,0.50,69362.65,1819.73,0.57,29058.09,1177.90,0.60,38760.29,1269.37,0.59,14035.63,1496.45,0.58,1367.34
2859400,1215.44,955.01,1.00,1,1,1,1532.11,0.66,46117.98,797.06,0.77,74536.40,682.71,0.64,35201.28,928.92,0.64,24478.21,1371.23,0.59,8938.82
2873500,1214.59,957.33,1.00,1,1,1,175.22,1.92,105550.33,241.70,-2.94,71612.73,259.44,1.12,33210.85,688.92,0.70,17284.77,1091.48,0.61,19889.26
2895300,1206.95,953.25,1.00,1,1,1,397.31,-2.65,20897.43,243.75,-3.08,1560.50,165.65,2.51,12927.02,625.87,0.71,2920.27,767.22,0.63,14901.20
2909800,1205.76,956.76,1.00,1,1,1,255.56,1.90,34912.34,280.42,1.59,26177.29,176.42,1.61,10272.18,515.19,0.81,8591.18,395.59,0.69,25756.26
2924300,1206.78,961.38,1.00,1,1,1,326.40,1.35,11777.53,507.30,0.96,22419.61,573.38,0.80,32383.26,363.72,0.91,10894.44,92.43,3.10,32301.71
2938800,1214.15,968.84,1.00,1,1,1,723.28,0.79,33070.27,893.26,0.62,31090.39,785.57,0.71,15169.71,205.81,1.09,11396.53,556.99,-2.65,33052.57
2960100,1232.89,979.85,1.00,1,1,1,1020.19,0.53,17430.54,1029.07,0.61,6378.51,753.38,0.69,1692.64,109.49,2.54,10382.87,1061.63,-2.61,23753.63
2974600,1244.31,990.00,1.00,1,1,1,1053.90,0.73,14134.67,586.80,0.83,32728.19,259.92,0.81,34223.27,492.97,-2.72,30751.43,1417.01,-2.60,24520.28
2988600,1244.13,992.23,1.00,1,1,1,159.91,1.65,69015.28,409.71,-2.76,69418.38,544.04,-2.71,56516.71,1080.16,-2.61,42340.25,1477.36,-2.59,4409.76
3017000,1228.18,983.55,1.00,1,1,1,639.37,-2.64,25324.10,1167.68,-2.60,26972.95,1534.17,-2.60,35064.37,1798.75,-2.57,25350.14,1236.75,-2.59,8472.75
3038700,1193.98,962.11,1.00,2,2,2,1860.19,-2.58,56343.49,2866.08,-2.57,78310.34,2563.15,-2.57,47486.46,2582.78,-2.57,36134.61,109.49,2.54,55121.88
3053000,1141.42,927.71,1.00,3,3,3,4392.81,-2.56,177148.69,4967.03,-2.56,146960.03,4267.03,-2.56,119186.76,3148.73,-2.56,39623.98,492.97,-2.72,31181.52
3067800,1073.47,882.31,1.00,1,1,1,5521.97,-2.55,76360.11,6006.60,-2.55,70291.62,5086.68,-2.55,55424.73,2967.34,-2.55,12307.93,1080.16,-2.61,40051.59
3082000,996.88,830.50,1.00,1,1,1,6511.77,-2.55,69747.31,5186.03,-2.54,57816.75,5106.99,-2.55,2174.89,2645.04,-2.55,22701.92,1798.75,-2.57,50700.28
3102900,922.90,780.01,1.00,1,1,1,4285.31,-2.54,106534.54,4376.30,-2.54,38752.85,3375.16,-2.54,82865.73,5086.68,-2.55,116825.10,2582.78,-2.57,37517.76
3117700,867.98,742.21,1.00,1,1,1,4504.80,-2.54,14876.01,1914.02,-2.54,166372.73,1314.05,-2.54,139265.95,5106.99,-2.55,2086.72,3148.73,-2.56,38285.34
3146400,854.45,732.60,1.00,1,1,1,578.06,-2.52,136822.76,1199.16,0.59,108471.03,1914.02,-2.54,20904.99,3375.16,-2.54,60344.73,2967.34,-2.55,6346.95
3161200,911.27,771.32,1.00,1,1,1,4645.27,0.60,352921.07,4645.27,0.60,232846.77,1199.16,0.59,210345.86,1314.05,-2.54,139265.95,2645.04,-2.55,21781.58
