@RELATION gaze_labels

%@METADATA width_px 1920
%@METADATA height_px 1080
%@METADATA width_mm 540.00
%@METADATA height_mm 254.00
%@METADATA distance_mm 620.00


@ATTRIBUTE time INTEGER
@ATTRIBUTE x NUMERIC
@ATTRIBUTE y NUMERIC
@ATTRIBUTE confidence NUMERIC
@ATTRIBUTE handlabeller1 INTEGER
@ATTRIBUTE handlabeller2 INTEGER
@ATTRIBUTE handlabeller_final INTEGER
@ATTRIBUTE speed_1 numeric
@ATTRIBUTE direction_1 numeric
@ATTRIBUTE acceleration_1 numeric
@ATTRIBUTE speed_2 numeric
@ATTRIBUTE direction_2 numeric
@ATTRIBUTE acceleration_2 numeric
@ATTRIBUTE speed_4 numeric
@ATTRIBUTE direction_4 numeric
@ATTRIBUTE acceleration_4 numeric
@ATTRIBUTE speed_8 numeric
@ATTRIBUTE direction_8 numeric
@ATTRIBUTE acceleration_8 numeric
@ATTRIBUTE speed_16 numeric
@ATTRIBUTE direction_16 numeric
@ATTRIBUTE acceleration_16 numeric

%The number after speed, direction denotes the step size that was used for the calculation.
%Acceleration was calculated between two adjacent samples of the already low pass filtered velocity

@DATA
0,340.78,561.17,1.00,1,1,1,0.00,0.00,0.00,658.19,0.72,0.00,671.87,0.57,0.00,504.05,0.49,0.00,307.95,1.66,0.00
21900,351.59,570.70,1.00,1,1,1,658.19,0.72,30054.25,671.87,0.57,4628.87,573.52,0.28,9345.98,318.49,0.51,8479.82,395.57,2.13,8420.83
35900,361.07,574.22,1.00,1,1,1,721.88,0.36,18567.66,573.52,0.28,14619.78,504.05,0.49,9305.29,170.18,1.59,20148.81,510.67,2.32,10326.40
50700,367.46,575.29,1.00,1,1,1,437.93,0.17,20477.51,308.11,0.26,17946.92,318.49,0.51,12547.85,391.47,2.31,19381.42,666.94,2.38,10839.10
65000,369.74,576.50,1.00,1,1,1,180.30,0.49,19068.08,149.01,1.56,21311.01,170.18,1.59,19726.11,307.95,1.66,16660.70,779.35,2.39,7875.43
79000,367.50,579.51,1.00,1,1,1,268.00,2.21,24642.47,348.86,2.36,19121.18,391.47,2.31,20488.93,395.57,2.13,13172.59,782.31,2.36,1992.56
100700,360.87,585.24,1.00,1,1,1,403.93,2.43,7088.60,616.84,2.44,12458.78,551.77,2.42,7737.70,510.67,2.32,6662.19,798.09,2.35,745.58
115300,350.40,593.97,1.00,2,2,2,933.36,2.45,36271.07,718.91,2.44,6991.36,700.14,2.43,10177.33,666.94,2.38,10987.58,770.67,2.40,3215.58
144200,336.97,605.41,1.00,3,3,3,610.59,2.44,11172.23,760.65,2.43,1491.29,779.74,2.42,2764.84,779.35,2.39,3896.84,515.25,2.24,9538.86
165300,321.70,618.91,1.00,3,3,3,966.25,2.42,16868.26,832.44,2.41,3474.15,856.96,2.41,3713.03,782.31,2.36,1322.08,543.71,2.32,2500.44
194600,305.82,633.52,1.00,1,1,1,736.15,2.40,7874.24,966.51,2.39,4618.36,1004.38,2.38,5105.29,798.09,2.35,552.19,527.43,2.35,824.78
209400,290.64,648.11,1.00,1,1,1,1422.72,2.38,46414.47,1296.46,2.35,22505.77,874.48,2.29,10305.14,770.67,2.40,3172.12,502.86,2.33,1893.54
224400,278.78,661.10,1.00,1,1,1,1173.24,2.31,17557.15,775.54,2.15,37126.54,830.87,2.26,3504.95,791.22,2.45,2948.83,465.89,2.23,3951.36
245600,275.28,671.61,1.00,1,1,1,522.17,1.89,34336.89,453.39,2.05,15472.16,645.60,2.39,9881.30,710.32,2.43,3873.11,411.36,2.06,4409.92
259800,271.44,675.38,1.00,1,1,1,379.19,2.37,17835.52,561.74,2.82,28008.90,534.96,2.62,12330.76,548.64,2.39,11532.82,347.57,1.66,11434.91
274300,259.97,676.65,1.00,1,1,1,795.74,3.03,37903.74,790.11,3.02,18230.55,520.81,2.77,5260.31,305.84,2.18,17788.49,333.48,1.08,13520.68
288300,249.08,678.03,1.00,1,1,1,784.32,3.02,1181.79,481.77,2.70,26245.89,292.76,2.78,16292.64,178.81,1.18,18336.22,426.24,0.60,14341.11
302900,247.53,682.57,1.00,1,1,1,328.22,1.90,48251.62,172.07,0.72,39228.30,140.67,0.44,27598.61,320.48,0.33,16696.02,607.33,0.31,16060.76
324400,253.77,682.11,1.00,1,1,1,290.97,-0.07,24046.73,581.37,-0.10,22316.50,598.70,0.11,21767.12,629.74,0.12,15045.57,872.60,0.14,13559.65
338500,268.12,680.54,1.00,1,1,1,1024.38,-0.11,52033.22,1186.14,0.01,43338.53,1008.87,0.02,29487.52,1054.89,0.01,30742.26,1014.41,0.05,11610.29
352800,287.45,682.36,1.00,1,1,1,1357.52,0.09,28655.94,1552.80,0.08,26606.01,1532.03,0.03,36585.63,1421.58,-0.04,25994.73,1092.87,-0.01,7163.03
366900,312.07,684.17,1.00,2,2,2,1751.02,0.07,27998.88,1807.50,0.04,18783.28,1977.11,-0.02,32030.67,1769.44,-0.06,24864.99,1081.60,-0.05,3143.02
388500,351.93,684.87,1.00,2,2,2,1845.45,0.02,6357.28,2318.94,-0.07,25732.57,2245.12,-0.08,13690.36,2203.60,-0.07,20100.16,1040.68,-0.07,2162.13
403100,395.83,678.51,1.00,3,3,3,3038.23,-0.14,85790.78,2801.98,-0.16,37176.44,2516.81,-0.10,18983.24,2193.85,-0.06,689.53,1085.75,-0.07,3102.10
417900,433.19,671.38,1.00,1,1,1,2570.31,-0.19,32726.13,2763.21,-0.13,6987.86,2945.78,-0.12,29206.42,2110.99,-0.09,6475.02,1083.71,-0.06,395.10
432500,476.38,667.97,1.00,1,1,1,2967.15,-0.08,34220.69,3094.92,-0.08,25208.34,2411.01,-0.10,36732.44,1742.24,-0.10,25376.20,1118.88,-0.05,2444.01
447400,524.23,664.49,1.00,1,1,1,3220.14,-0.07,17023.78,2127.48,-0.07,64929.55,1977.37,-0.10,29108.36,1420.26,-0.14,21972.97,1217.43,-0.04,6686.57
468800,553.40,662.28,1.00,1,1,1,1366.70,-0.08,86609.57,1056.29,-0.16,50380.28,1098.37,-0.12,41095.69,1118.78,-0.13,14103.08,1356.25,-0.03,6548.13
483100,561.49,658.65,1.00,1,1,1,620.09,-0.42,56719.32,237.04,-0.46,58273.24,374.62,-0.28,51117.62,806.87,-0.09,21948.79,1486.64,-0.04,9275.90
511400,562.44,657.79,1.00,1,1,1,45.46,-0.74,20391.04,141.68,-2.71,12155.69,67.74,-1.18,11896.98,606.53,-0.03,7238.30,1538.23,-0.05,1827.57
533000,555.07,655.69,1.00,1,1,1,354.78,-2.86,17625.40,197.29,-3.08,3871.31,19.06,2.74,3816.80,482.87,0.04,5988.88,1595.57,-0.05,2702.41
547000,555.43,657.39,1.00,1,1,1,124.02,1.36,30495.43,141.55,0.65,23172.09,178.39,0.46,13663.33,667.87,0.07,13296.00,1636.30,-0.04,3230.01
575600,559.87,659.34,1.00,1,1,1,169.59,0.41,4896.21,437.95,0.34,10716.66,632.46,0.24,16098.96,975.38,0.03,10817.71,1675.15,-0.05,1420.43
597000,576.10,664.62,1.00,2,2,2,797.51,0.31,29393.15,1221.24,0.18,36982.39,1306.97,0.12,31893.19,1340.08,0.03,17042.11,1635.41,-0.05,1874.89
612100,603.71,667.39,1.00,2,2,2,1837.78,0.10,70988.22,2811.66,0.06,106297.02,2381.59,0.03,72033.45,1782.44,0.02,29319.56,1487.75,-0.06,9791.71
626300,658.31,669.94,1.00,3,3,3,3849.13,0.05,141998.73,3878.26,-0.04,78660.54,3075.03,-0.01,49227.43,2162.17,0.01,26797.81,1414.48,-0.06,5213.67
640900,715.33,663.39,1.00,3,3,3,3931.42,-0.11,43215.07,3355.41,-0.07,36631.53,3220.02,-0.03,11635.66,2735.57,-0.03,39762.28,1307.01,-0.07,7366.75
655200,755.06,663.45,1.00,1,1,1,2778.30,0.00,84952.00,2686.02,-0.03,47341.79,3234.85,-0.05,4219.43,3022.89,-0.06,20705.57,1208.74,-0.08,6976.02
676400,810.63,660.22,1.00,1,1,1,2625.70,-0.06,10451.25,3136.66,-0.04,21278.56,3104.08,-0.08,7205.40,2780.01,-0.08,11797.30,1002.68,-0.10,9755.78
690500,865.70,658.98,1.00,1,1,1,3906.17,-0.02,91174.92,3631.15,-0.12,39756.13,2982.27,-0.10,10396.12,2342.11,-0.11,31675.83,699.86,-0.16,21759.24
704900,913.39,647.97,1.00,1,1,1,3399.45,-0.23,62505.41,2810.10,-0.19,59374.66,2345.70,-0.14,44600.51,1726.66,-0.14,42868.37,355.45,-0.36,24963.48
719000,944.29,643.60,1.00,1,1,1,2213.24,-0.14,85787.20,1318.15,-0.18,105836.52,1464.93,-0.24,64024.39,1083.30,-0.23,46619.91,217.46,-2.36,34598.80
740500,959.59,639.72,1.00,1,1,1,733.95,-0.25,69099.04,404.10,-0.53,44138.47,392.35,-0.62,51565.66,269.80,-1.11,43392.69,711.74,-2.92,25068.49
754500,956.68,636.37,1.00,1,1,1,316.77,-2.28,65774.10,943.93,-2.91,90504.33,862.67,-2.92,82974.48,981.51,-2.89,76561.95,1256.98,-3.02,39543.77
768600,933.80,633.54,1.00,1,1,1,1635.67,-3.02,100446.71,2309.51,-3.06,98243.21,2088.61,-3.06,88067.95,2090.96,-3.06,80571.27,1726.66,-0.14,209867.63
783400,890.14,631.18,1.00,1,1,1,2953.93,-3.09,89666.54,2993.44,-3.10,46710.39,3308.13,-3.10,82675.42,3169.93,-3.10,73178.88,1083.30,-0.23,44414.91
804600,826.12,629.29,1.00,2,2,2,3021.37,-3.11,4657.83,4120.75,-3.12,53245.92,4449.62,-3.12,53929.30,4168.49,-3.12,47199.92,269.80,-1.11,44006.74
819000,743.48,627.82,1.00,2,2,2,5739.47,-3.12,188788.58,6270.63,-3.13,149332.85,5504.73,-3.13,73345.78,4450.29,-3.13,19848.53,981.51,-2.89,74435.23
833400,645.54,626.82,1.00,3,3,3,6801.88,-3.13,73849.30,7233.86,-3.13,66960.54,6255.60,-3.13,52220.91,4449.62,-3.12,3023.87,2090.96,-3.06,78892.70
847500,537.32,626.36,1.00,3,3,3,7675.09,-3.14,62005.04,6243.53,-3.14,70295.24,5389.00,-3.14,61521.63,5504.73,-3.13,74906.33,3169.93,-3.10,76811.87
868600,425.77,626.59,1.00,1,1,1,5286.95,3.14,113198.37,4339.72,3.14,90247.16,6243.53,-3.14,40500.04,6255.60,-3.13,35638.91,4168.49,-3.12,47423.62
897600,319.91,627.77,1.00,1,1,1,3650.61,3.13,56442.25,3650.61,3.13,23771.09,4339.72,3.14,65662.59,5389.00,-3.14,29912.24,4450.29,-3.13,9855.82
