@RELATION gaze_labels

%@METADATA width_px 1920
%@METADATA height_px 1080
%@METADATA width_mm 540.00
%@METADATA height_mm 254.00
%@METADATA distance_mm 620.00


@ATTRIBUTE time INTEGER
@ATTRIBUTE x NUMERIC
@ATTRIBUTE y NUMERIC
@ATTRIBUTE confidence NUMERIC
@ATTRIBUTE handlabeller1 INTEGER
@ATTRIBUTE handlabeller2 INTEGER
@ATTRIBUTE handlabeller_final INTEGER
@ATTRIBUTE speed_1 numeric
@ATTRIBUTE direction_1 numeric
@ATTRIBUTE acceleration_1 numeric
@ATTRIBUTE speed_2 numeric
@ATTRIBUTE direction_2 numeric
@ATTRIBUTE acceleration_2 numeric
@ATTRIBUTE speed_4 numeric
@ATTRIBUTE direction_4 numeric
@ATTRIBUTE acceleration_4 numeric
@ATTRIBUTE speed_8 numeric
@ATTRIBUTE direction_8 numeric
@ATTRIBUTE acceleration_8 numeric
@ATTRIBUTE speed_16 numeric
@ATTRIBUTE direction_16 numeric
@ATTRIBUTE acceleration_16 numeric

%The number after speed, direction denotes the step size that was used for the calculation.
%Acceleration was calculated between two adjacent samples of the already low pass filtered velocity

@DATA
0,330.22,618.26,1.00,1,1,1,0.00,0.00,0.00,6181.09,-2.80,0.00,3592.27,-2.75,0.00,1904.96,-2.68,0.00,640.89,3.13,0.00
15200,241.75,586.63,1.00,1,1,1,6181.09,-2.80,406650.43,3592.27,-2.75,170851.91,1219.34,-2.52,159417.74,224.27,-1.90,115228.10,347.50,1.72,44525.09
36700,208.12,568.51,1.00,1,1,1,1776.42,-2.65,206182.86,1219.34,-2.52,112704.64,1904.96,-2.68,33786.98,672.15,0.38,38907.05,620.12,1.47,13825.68
50700,206.56,561.41,1.00,1,1,1,519.25,-1.79,106475.39,466.96,-0.43,107619.03,224.27,-1.90,125104.79,927.80,0.72,26301.06,780.54,1.61,13559.39
64700,220.01,563.07,1.00,1,1,1,967.76,0.12,88644.76,871.67,0.32,44248.42,672.15,0.38,59750.12,640.89,3.13,104850.53,799.09,1.74,7085.79
86900,236.48,571.44,1.00,1,1,1,832.28,0.47,15252.01,975.36,0.65,14311.74,927.80,0.72,16586.25,347.50,1.72,30485.65,859.73,1.73,2737.53
101300,248.42,584.68,1.00,1,1,1,1238.37,0.84,38193.79,1161.29,1.09,34683.94,948.07,1.13,26673.27,620.12,1.47,20642.51,820.04,1.62,6913.47
115800,252.02,601.18,1.00,2,2,2,1164.72,1.36,42773.50,1194.16,1.62,42902.62,848.35,1.61,30136.23,780.54,1.61,13091.82,749.48,1.38,13746.95
130500,246.59,619.51,1.00,2,2,2,1299.94,1.86,42664.94,826.44,2.02,36742.70,998.81,1.98,25024.41,799.09,1.74,6748.37,334.21,1.66,29817.53
165900,233.88,638.40,1.00,1,1,1,643.34,2.16,20127.71,958.45,2.23,6446.50,1115.70,2.17,6742.05,859.73,1.73,1716.76,625.51,0.75,14070.47
179900,217.45,656.82,1.00,1,1,1,1763.14,2.30,80657.42,1645.17,2.30,49447.13,896.75,2.17,15640.24,820.04,1.62,7111.00,926.42,0.54,24419.53
194900,201.97,673.87,1.00,1,1,1,1535.09,2.31,15231.70,832.16,2.09,56637.92,883.17,1.85,19282.61,749.48,1.38,13288.71,1125.91,0.44,14799.15
223900,199.21,688.57,1.00,1,1,1,515.70,1.76,38913.16,684.45,1.18,23388.02,783.89,1.17,19375.10,764.65,0.90,12427.31,1246.23,0.38,4813.89
245000,214.90,705.63,1.00,1,1,1,1098.68,0.83,42262.09,1401.00,0.54,44893.61,1067.95,0.54,29819.65,1118.64,0.48,25029.95,1282.19,0.33,3370.97
259400,241.85,714.17,1.00,2,2,2,1963.22,0.31,79763.03,2090.82,0.20,62644.53,1941.82,0.21,69405.16,1560.48,0.21,39006.45,1298.08,0.28,4442.46
273900,274.12,717.60,1.00,2,2,2,2238.50,0.11,34625.55,2765.68,-0.00,57106.19,2514.70,0.04,47037.26,2086.88,0.08,39638.70,1307.27,0.22,5542.58
288100,321.22,714.12,1.00,3,3,3,3325.83,-0.07,83971.51,2895.59,-0.06,14290.23,3035.73,-0.05,40646.09,2762.08,0.02,48767.11,1334.98,0.16,5843.33
309300,376.47,711.89,1.00,1,1,1,2608.08,-0.04,34172.84,3258.25,-0.09,17654.75,3535.22,-0.08,24043.80,2871.40,-0.04,9451.64,1463.31,0.11,6950.09
323700,436.79,704.18,1.00,1,1,1,4223.02,-0.13,113923.10,4334.82,-0.10,74918.49,3641.86,-0.08,7448.90,2833.64,-0.07,6520.56,1468.46,0.07,4628.40
337700,498.91,699.08,1.00,1,1,1,4452.06,-0.08,21530.11,4129.79,-0.07,17573.40,3241.01,-0.10,29059.98,2680.22,-0.10,12299.03,1524.83,0.02,6259.72
351700,552.12,695.84,1.00,1,1,1,3807.98,-0.06,46430.62,2378.22,-0.09,125190.02,2633.23,-0.09,43457.16,2363.04,-0.11,22718.56,1616.83,-0.01,7571.92
373700,584.16,691.21,1.00,1,1,1,1471.52,-0.14,106575.29,1486.74,-0.13,40635.94,1843.48,-0.13,36083.48,2009.25,-0.12,16166.07,1691.84,-0.05,4556.50
388200,605.95,688.94,1.00,1,1,1,1510.54,-0.10,4868.86,1187.99,-0.21,21996.40,1121.40,-0.20,50268.87,1407.92,-0.11,41486.09,1614.01,-0.07,5824.75
402800,617.96,683.95,1.00,1,1,1,891.02,-0.39,48227.06,673.52,-0.39,36845.65,643.95,-0.26,32920.69,924.00,-0.14,33192.50,1555.82,-0.09,4560.03
416900,623.84,681.63,1.00,1,1,1,448.35,-0.38,31404.84,110.83,-0.82,40774.29,211.49,-0.41,30929.98,607.82,-0.15,22429.02,1362.23,-0.10,13781.43
431500,620.13,681.62,1.00,1,1,1,254.65,-3.14,47354.31,149.29,2.82,17274.11,19.10,-1.54,13971.48,632.16,-0.11,2310.24,1279.11,-0.12,5842.69
453700,618.63,683.37,1.00,1,1,1,103.76,2.28,9177.66,65.77,2.67,3822.80,190.38,0.10,8678.00,617.94,-0.08,916.24,1138.16,-0.12,6351.19
467800,618.00,682.71,1.00,1,1,1,64.94,-2.33,9084.17,478.73,-0.01,38180.97,632.78,-0.00,31480.90,633.96,-0.08,1190.33,980.78,-0.12,11168.47
495800,638.79,683.16,1.00,2,2,2,742.47,0.02,28198.50,1145.16,-0.02,23802.93,916.04,-0.03,10147.22,639.29,-0.10,514.93,865.37,-0.12,4127.06
516800,674.10,681.50,1.00,2,2,2,1683.56,-0.05,44963.57,1283.64,-0.04,6660.06,1079.52,-0.06,7935.95,777.61,-0.11,6600.98,827.80,-0.12,1810.55
545900,703.05,680.73,1.00,1,1,1,995.15,-0.03,23674.63,1007.71,-0.12,9991.24,999.06,-0.13,3572.02,932.08,-0.13,5344.13,815.09,-0.10,653.13
560000,717.33,676.35,1.00,1,1,1,1059.23,-0.30,20182.21,724.53,-0.29,22579.49,916.58,-0.18,6820.25,1022.48,-0.10,6689.23,759.35,-0.08,4125.63
595200,737.29,670.56,1.00,1,1,1,590.48,-0.28,13320.70,840.19,-0.24,3443.15,962.62,-0.24,2181.90,1091.86,-0.11,1986.71,778.45,-0.06,634.90
609400,757.62,666.39,1.00,1,1,1,1461.57,-0.20,61571.00,1375.39,-0.20,37802.20,963.30,-0.15,6255.58,1006.16,-0.12,6070.01,868.68,-0.05,6414.83
623800,775.81,662.58,1.00,1,1,1,1290.41,-0.21,11892.57,1139.19,-0.06,20526.19,1235.03,-0.09,19384.33,1034.31,-0.11,2142.86,936.85,-0.04,4746.86
645900,799.12,663.81,1.00,1,1,1,1056.32,0.05,17269.62,1136.58,0.01,3843.03,1139.72,-0.05,4805.35,891.65,-0.08,6583.42,1004.68,-0.03,3101.78
659800,816.73,663.10,1.00,2,2,2,1267.32,-0.04,17043.10,1140.53,-0.04,4626.43,1143.40,0.03,6945.96,972.39,-0.03,6633.61,1062.98,-0.03,4195.16
673800,830.91,662.42,1.00,2,2,2,1014.65,-0.05,18057.62,1152.68,0.05,7972.81,803.38,0.04,24297.08,999.58,0.02,4110.01,1024.73,-0.03,2738.62
687800,848.95,664.81,1.00,3,3,3,1299.90,0.13,25132.10,544.78,0.18,44026.01,713.99,0.08,6696.92,952.07,0.06,4461.66,987.75,-0.03,2661.03
709000,849.77,665.89,1.00,1,1,1,63.66,0.92,59231.64,373.75,0.14,8119.03,865.34,0.12,7302.29,990.03,0.06,1790.56,852.09,-0.03,6402.39
723800,862.28,666.67,1.00,1,1,1,846.67,0.06,54480.99,1263.25,0.09,60149.87,799.04,0.10,4638.16,1038.93,0.07,3329.84,662.94,-0.02,12785.16
737500,885.64,669.00,1.00,1,1,1,1713.68,0.10,63366.87,1151.31,0.09,8171.07,1139.34,0.07,24898.91,1054.83,0.07,1162.67,251.61,-0.03,30025.83
767300,912.17,671.05,1.00,1,1,1,892.88,0.08,27559.34,1069.50,0.06,2871.02,1304.57,0.06,5560.77,947.82,0.05,3651.87,330.42,3.14,19529.04
788000,939.54,672.50,1.00,1,1,1,1323.96,0.05,20862.63,1496.96,0.04,20706.10,1208.46,0.04,4860.99,813.61,0.03,6535.91,1185.86,-3.14,41325.64
802100,964.22,673.13,1.00,1,1,1,1751.30,0.03,30455.75,1453.49,0.01,4643.12,1134.91,0.01,5919.45,385.18,0.00,30406.03,1038.93,0.07,157700.00
816800,981.40,672.78,1.00,1,1,1,1168.54,-0.02,39887.66,707.08,-0.08,51130.50,421.72,-0.12,48854.94,416.98,-3.06,54527.38,1054.83,0.07,1083.58
831300,984.80,671.47,1.00,1,1,1,251.84,-0.37,64541.26,422.19,-2.91,77006.21,727.59,-3.01,78678.37,1561.50,-3.11,78969.65,947.82,0.05,7505.22
852700,966.64,669.33,1.00,2,2,2,854.65,-3.02,50642.16,1891.65,-3.07,68988.20,2421.16,-3.09,79297.75,3352.86,-3.12,83726.52,813.61,0.03,6322.12
867000,917.44,666.73,1.00,2,2,2,3445.45,-3.09,181338.43,4957.03,-3.11,214485.92,3581.94,-3.11,81353.43,727.59,-3.01,184025.21,385.18,0.00,29980.77
881100,825.95,664.25,1.00,2,2,2,6490.79,-3.11,216152.99,4797.60,-3.12,13126.80,6484.80,-3.13,205954.60,2421.16,-3.09,120352.61,416.98,-3.06,56847.70
916700,679.03,662.73,1.00,3,3,3,4127.20,-3.13,66437.66,7362.48,-3.14,72086.09,4797.60,-3.12,47399.33,3581.94,-3.11,32678.48,1561.50,-3.11,32164.60
930600,461.51,663.28,1.00,1,1,1,15649.06,3.14,828944.91,15649.06,3.14,596170.48,7362.48,-3.14,184623.36,6484.80,-3.13,208917.97,3352.86,-3.12,128902.70
