@RELATION gaze_labels

%@METADATA width_px 1920
%@METADATA height_px 1080
%@METADATA width_mm 540.00
%@METADATA height_mm 254.00
%@METADATA distance_mm 620.00


@ATTRIBUTE time INTEGER
@ATTRIBUTE x NUMERIC
@ATTRIBUTE y NUMERIC
@ATTRIBUTE confidence NUMERIC
@ATTRIBUTE handlabeller1 INTEGER
@ATTRIBUTE handlabeller2 INTEGER
@ATTRIBUTE handlabeller_final INTEGER
@ATTRIBUTE speed_1 numeric
@ATTRIBUTE direction_1 numeric
@ATTRIBUTE acceleration_1 numeric
@ATTRIBUTE speed_2 numeric
@ATTRIBUTE direction_2 numeric
@ATTRIBUTE acceleration_2 numeric
@ATTRIBUTE speed_4 numeric
@ATTRIBUTE direction_4 numeric
@ATTRIBUTE acceleration_4 numeric
@ATTRIBUTE speed_8 numeric
@ATTRIBUTE direction_8 numeric
@ATTRIBUTE acceleration_8 numeric
@ATTRIBUTE speed_16 numeric
@ATTRIBUTE direction_16 numeric
@ATTRIBUTE acceleration_16 numeric

%The number after speed, direction denotes the step size that was used for the calculation.
%Acceleration was calculated between two adjacent samples of the already low pass filtered velocity

@DATA
0,1359.28,933.74,1.00,1,1,1,0.00,0.00,0.00,1465.85,-2.93,0.00,599.76,-2.94,0.00,333.71,3.11,0.00,765.32,3.00,0.00
16000,1336.37,928.71,1.00,1,1,1,1465.85,-2.93,91615.93,599.76,-2.94,54137.12,72.54,2.61,34260.82,166.49,2.40,14655.71,908.98,2.98,9059.22
46800,1331.78,928.10,1.00,1,1,1,150.28,-3.01,42732.63,72.54,2.61,17797.83,333.71,3.11,8848.57,376.92,2.58,6987.35,1242.82,3.02,10908.57
62700,1333.45,930.44,1.00,1,1,1,180.59,0.95,19112.26,201.11,1.39,11854.47,166.49,2.40,14747.89,739.72,2.84,24368.19,1565.70,3.06,20677.26
79000,1332.92,934.48,1.00,1,1,1,249.93,1.70,10470.35,262.40,2.34,13445.03,376.92,2.58,13203.09,765.32,3.00,7681.85,1722.37,3.10,10545.08
109400,1324.89,939.20,1.00,1,1,1,306.66,2.61,8212.56,601.55,2.80,12617.13,739.72,2.84,12745.20,908.98,2.98,4768.01,2115.67,3.13,13074.09
125200,1306.74,943.80,1.00,1,1,1,1184.71,2.89,56607.86,1503.06,2.96,57896.54,1207.39,2.97,30632.83,1242.82,3.02,21264.81,2092.31,-3.11,5032.17
141000,1278.15,947.64,1.00,2,2,2,1826.11,3.01,41967.26,2117.37,3.04,39936.04,2070.98,3.05,55157.81,1565.70,3.06,20808.13,1704.64,-3.07,25032.97
156600,1240.57,950.30,1.00,2,2,2,2414.45,3.07,38662.70,2667.90,3.09,36129.94,2282.57,3.10,15195.53,1722.37,3.10,11018.26,1037.34,-3.11,42873.11
171500,1196.87,951.47,1.00,4,4,4,2934.53,3.11,35761.68,2426.92,3.13,17475.72,2557.29,3.13,19465.01,2115.67,3.13,26674.65,893.97,-3.09,9651.20
193600,1150.78,951.04,1.00,4,4,4,2085.35,-3.13,38638.39,2468.36,-3.11,4368.38,2335.21,-3.10,11329.36,2092.31,-3.11,3597.66,806.51,-3.06,4179.33
208100,1106.56,949.00,1.00,2,2,2,3053.17,-3.10,67050.31,2231.06,-3.04,20414.70,2169.78,-3.07,12195.03,1704.64,-3.07,27277.31,718.12,-3.03,6236.51
223900,1083.54,944.10,1.00,2,2,2,1489.58,-2.93,101387.99,1828.69,-3.01,25696.68,1897.55,-3.02,18828.78,1350.26,-3.00,23466.93,678.28,-3.01,2674.68
239600,1049.44,941.55,1.00,2,2,2,2178.04,-3.07,46501.82,1577.13,-2.98,16322.40,998.31,-2.90,58104.98,921.00,-2.88,28746.47,699.55,-3.00,1471.29
255300,1034.64,936.29,1.00,1,1,1,1000.63,-2.80,79063.54,470.17,-2.62,73246.90,551.06,-2.62,31438.05,462.89,-2.44,34297.24,568.06,-2.96,8563.65
286800,1030.20,930.48,1.00,1,1,1,231.89,-2.22,25910.25,381.94,-0.87,20871.22,395.98,-0.97,22360.66,275.45,-1.31,13503.58,483.99,-2.90,2834.90
302000,1046.19,922.71,1.00,1,1,1,1169.91,-0.45,81374.07,1277.56,-0.37,63028.68,922.64,-0.39,41515.61,374.00,-0.65,15105.67,331.42,-2.72,11065.99
317700,1066.95,916.07,1.00,1,1,1,1388.17,-0.31,18108.42,1810.24,-0.24,36323.63,1158.80,-0.26,17173.33,526.64,-0.38,12435.67,180.48,-2.19,12678.49
333400,1101.41,909.20,1.00,1,1,1,2237.77,-0.20,55580.07,1090.70,-0.17,46232.70,1083.65,-0.17,8132.76,615.93,-0.23,7835.73,254.41,-0.73,18785.79
364900,1117.68,907.27,1.00,1,1,1,520.07,-0.12,54595.59,608.75,-0.02,15775.29,755.81,-0.08,10686.18,685.60,-0.17,2541.77,456.23,-0.40,7297.55
380500,1130.07,908.54,1.00,1,1,1,798.89,0.10,20065.02,297.01,0.43,23428.06,389.55,0.08,24177.82,657.99,-0.13,2455.27,580.73,-0.31,8519.28
396300,1126.16,911.15,1.00,1,1,1,297.84,2.55,66200.77,185.05,0.44,7088.63,243.63,0.28,9995.19,596.55,-0.11,3985.73,684.75,-0.25,6985.54
427500,1137.94,912.25,1.00,1,1,1,379.31,0.09,20477.27,212.32,0.14,2095.82,239.02,0.05,1791.99,653.82,-0.09,1864.79,795.12,-0.21,3658.51
443400,1136.06,912.54,1.00,2,2,2,119.67,2.99,31209.03,354.99,-0.25,11195.05,451.31,-0.14,13916.37,793.05,-0.11,8800.58,887.90,-0.19,5957.91
459400,1148.91,909.45,1.00,2,2,2,826.20,-0.24,59094.83,755.02,-0.24,25005.80,1017.75,-0.18,35434.90,831.82,-0.15,3300.79,864.96,-0.18,1649.01
482200,1164.53,905.66,1.00,2,2,2,705.07,-0.24,5313.05,1564.97,-0.16,35693.86,1434.25,-0.18,18268.59,841.56,-0.18,1071.02,870.24,-0.16,609.11
498100,1208.66,899.55,1.00,2,2,2,2801.77,-0.14,132166.19,2283.70,-0.16,45208.20,1510.30,-0.19,4835.67,1002.47,-0.20,10214.52,810.89,-0.15,3757.50
513300,1234.66,894.44,1.00,2,2,2,1743.51,-0.19,70103.41,1443.27,-0.22,55827.71,1269.10,-0.19,15876.53,1101.27,-0.21,6503.07,822.28,-0.15,789.24
529000,1252.15,889.67,1.00,3,3,3,1154.39,-0.27,38085.80,606.83,-0.28,53402.09,989.31,-0.23,17981.03,1085.67,-0.21,994.69,860.13,-0.15,2411.04
560700,1262.27,886.36,1.00,1,1,1,335.90,-0.32,25838.32,693.41,-0.24,2910.03,806.96,-0.25,5775.87,1190.57,-0.19,3343.70,896.87,-0.15,1159.36
576400,1284.11,882.00,1.00,1,1,1,1418.49,-0.20,69152.89,1110.27,-0.22,26574.22,711.74,-0.24,6070.16,996.85,-0.20,12352.17,927.35,-0.16,2095.15
592100,1296.32,878.89,1.00,1,1,1,802.73,-0.25,39379.93,739.38,-0.25,23708.78,1092.40,-0.19,24399.97,850.94,-0.18,9356.42,900.56,-0.17,1707.23
607900,1306.67,876.22,1.00,1,1,1,676.43,-0.25,7995.37,1075.12,-0.17,21737.82,1007.15,-0.17,5596.17,886.82,-0.15,3085.57,933.95,-0.16,2151.87
623500,1329.60,873.20,1.00,1,1,1,1482.38,-0.13,52247.71,1279.53,-0.12,13536.48,898.01,-0.13,7477.57,961.88,-0.12,5033.93,854.79,-0.16,5078.37
639300,1346.54,871.24,1.00,1,1,1,1079.33,-0.12,25542.01,781.65,-0.09,31590.93,1067.81,-0.08,11107.83,849.72,-0.11,7107.79,760.07,-0.16,5996.12
670800,1366.42,869.91,1.00,2,2,2,632.68,-0.07,14236.25,928.71,-0.04,4828.29,862.53,-0.05,6597.17,711.71,-0.10,4388.44,653.43,-0.15,3386.92
686600,1390.42,869.33,1.00,2,2,2,1519.51,-0.02,56189.82,985.68,-0.00,4452.98,725.14,-0.05,8697.01,792.47,-0.09,5133.20,704.40,-0.14,3311.40
702400,1397.57,869.90,1.00,2,2,2,453.75,0.08,67674.17,409.68,-0.08,36603.83,523.18,-0.06,12791.64,591.16,-0.09,12741.60,680.19,-0.13,1557.34
717100,1402.88,868.31,1.00,1,1,1,376.99,-0.29,11644.44,210.76,-0.27,14060.78,512.78,-0.12,2110.67,574.89,-0.09,1110.57,660.18,-0.12,1494.48
748300,1406.89,867.29,1.00,1,1,1,132.51,-0.25,7842.27,580.12,-0.14,11933.89,378.49,-0.17,4364.23,463.60,-0.10,3567.12,645.00,-0.10,558.06
764000,1429.82,864.54,1.00,1,1,1,1471.50,-0.12,85362.42,522.56,-0.14,3666.70,460.19,-0.15,5246.09,528.04,-0.12,4156.02,753.70,-0.09,6951.66
802200,1434.79,863.43,1.00,1,1,1,133.10,-0.22,35055.67,356.06,-0.16,4365.14,410.05,-0.13,1322.22,456.12,-0.14,1908.48,776.11,-0.08,621.58
818000,1448.81,861.50,1.00,1,1,1,895.94,-0.14,48314.47,217.57,-0.12,8798.99,541.86,-0.11,8362.63,511.28,-0.12,3579.32,783.63,-0.07,501.98
833700,1441.59,862.64,1.00,1,1,1,465.32,2.98,86700.04,861.42,-0.08,41020.11,555.50,-0.11,869.37,581.18,-0.10,4488.88,716.83,-0.06,4326.09
849500,1475.85,859.28,1.00,2,2,2,2178.73,-0.10,167302.36,782.95,-0.11,5252.25,577.79,-0.08,1810.98,716.51,-0.08,8596.52,713.88,-0.04,746.53
880500,1477.99,858.45,1.00,2,2,2,74.11,-0.37,67982.23,386.48,-0.09,12800.13,769.20,-0.08,6175.02,1013.69,-0.07,9594.50,667.53,-0.06,1542.60
896200,1493.84,857.74,1.00,3,3,3,1010.01,-0.04,59879.23,750.42,-0.02,23275.73,910.72,-0.06,9073.85,1051.86,-0.06,2468.24,564.67,-0.12,6909.18
911600,1501.33,857.89,1.00,1,1,1,486.44,0.02,34122.80,1716.30,-0.05,62751.82,1603.98,-0.05,45030.98,983.51,-0.04,4651.68,544.29,-0.28,6180.65
926600,1545.94,855.08,1.00,1,1,1,2980.41,-0.06,166396.97,2495.02,-0.05,51915.21,1659.87,-0.05,3761.42,912.46,0.00,5451.48,408.26,-0.42,10089.53
941400,1575.58,854.01,1.00,1,1,1,2003.50,-0.04,66153.61,1603.82,-0.05,60217.65,1201.06,-0.01,31199.37,941.40,-0.01,2090.19,368.60,-0.36,3161.52
957200,1594.96,852.67,1.00,1,1,1,1229.84,-0.07,49073.84,391.83,0.14,77313.00,917.82,0.07,18687.05,633.31,-0.12,20185.75,247.81,-0.02,9989.33
988700,1593.92,856.65,1.00,1,1,1,130.91,1.83,40558.97,490.44,0.32,3937.13,428.79,0.10,15539.57,527.52,-0.52,8124.43,212.32,0.50,3893.65
1003900,1616.74,859.77,1.00,1,1,1,1515.00,0.14,101063.37,486.61,0.05,8610.03,183.99,-2.78,40031.13,289.06,-1.59,30459.91,258.06,1.72,18014.14
1019600,1608.94,857.36,1.00,1,1,1,519.80,-2.84,129272.88,1180.42,-2.81,105288.94,727.15,-2.25,36707.59,337.17,-2.55,18659.14,465.16,1.99,14439.57
1035500,1581.47,847.61,1.00,1,1,1,1833.08,-2.80,82634.77,1782.95,-2.45,50032.91,1219.72,-2.56,35880.38,436.17,3.04,17512.22,734.52,2.17,18181.42
1051400,1565.28,821.18,1.00,1,1,1,1949.25,-2.12,79650.05,1304.95,-2.37,30997.51,1154.82,-2.75,14681.61,692.34,2.78,18511.83,1005.93,2.26,17692.27
1074200,1545.24,812.42,1.00,1,1,1,959.16,-2.73,56394.93,821.69,2.99,45767.46,688.62,2.93,30992.95,1151.80,2.68,20532.44,1359.54,2.39,16991.26
1089900,1534.03,826.06,1.00,1,1,1,1124.81,2.26,80484.07,1110.94,1.99,60792.90,1154.04,2.32,45268.56,1392.56,2.54,18949.05,1645.44,2.49,20262.04
1121000,1523.88,859.82,1.00,2,2,2,1133.47,1.86,14285.46,1626.39,2.06,16821.92,1897.61,2.15,25229.95,1756.30,2.40,13499.86,1846.46,2.58,8373.18
1136700,1498.20,893.22,1.00,2,2,2,2683.27,2.23,106560.35,3101.20,2.23,97155.94,2094.95,2.18,13279.22,2290.14,2.33,35386.90,1988.33,2.71,17890.35
1152400,1463.88,936.52,1.00,4,4,4,3519.29,2.24,53326.23,2577.54,2.26,33715.38,3038.58,2.28,62007.31,2827.58,2.32,34246.24,1999.01,2.93,28024.21
1184100,1420.33,987.36,1.00,4,4,4,2111.83,2.28,44521.96,3000.71,2.31,14016.62,3523.11,2.33,16125.57,3116.18,2.39,11087.98,1796.81,-3.01,21695.72
1199900,1367.80,1041.80,1.00,4,4,4,4788.02,2.34,169796.39,4975.65,2.38,126234.70,3792.30,2.41,24463.18,3537.46,2.52,37990.87,1756.30,2.40,95141.77
1215300,1307.68,1094.18,1.00,4,4,4,5177.58,2.42,37700.65,5036.58,2.49,35526.39,4758.59,2.52,70642.20,3344.04,2.69,41018.42,2290.14,2.33,36076.25
1231100,1242.72,1136.92,1.00,4,4,4,4921.78,2.56,45980.72,4643.60,2.67,60605.84,4366.93,2.73,63335.78,2939.98,3.03,71613.30,2827.58,2.32,34029.49
1246800,1177.23,1160.34,1.00,4,4,4,4430.06,2.80,77382.65,4010.29,3.02,102866.50,3747.01,3.12,108864.40,2906.45,-2.62,115751.25,3116.18,2.39,22387.83
1262600,1117.35,1152.47,1.00,4,4,4,3822.13,-3.01,128258.66,3876.31,-2.62,159428.87,3920.85,-2.47,165477.04,4366.93,2.73,223804.00,3537.46,2.52,37990.87
1278400,1071.29,1098.85,1.00,2,2,2,4473.97,-2.28,191418.03,5795.05,-1.95,230523.71,5026.68,-1.86,181967.78,3747.01,3.12,108175.38,3344.04,2.69,39979.98
1294200,1049.52,982.37,1.00,2,2,2,7499.65,-1.76,269949.62,6763.07,-1.59,154435.89,5795.05,-1.95,57611.71,3920.85,-2.47,165477.04,2939.98,3.03,71613.30
1325100,1065.06,783.07,1.00,2,2,2,6469.27,-1.49,67783.26,6469.27,-1.49,22933.09,6763.07,-1.59,78967.22,5026.68,-1.86,93045.01,2906.45,-2.62,58812.12
