@RELATION gaze_labels

%@METADATA width_px 1920
%@METADATA height_px 1080
%@METADATA width_mm 540.00
%@METADATA height_mm 254.00
%@METADATA distance_mm 620.00


@ATTRIBUTE time INTEGER
@ATTRIBUTE x NUMERIC
@ATTRIBUTE y NUMERIC
@ATTRIBUTE confidence NUMERIC
@ATTRIBUTE handlabeller1 INTEGER
@ATTRIBUTE handlabeller2 INTEGER
@ATTRIBUTE handlabeller_final INTEGER
@ATTRIBUTE speed_1 numeric
@ATTRIBUTE direction_1 numeric
@ATTRIBUTE acceleration_1 numeric
@ATTRIBUTE speed_2 numeric
@ATTRIBUTE direction_2 numeric
@ATTRIBUTE acceleration_2 numeric
@ATTRIBUTE speed_4 numeric
@ATTRIBUTE direction_4 numeric
@ATTRIBUTE acceleration_4 numeric
@ATTRIBUTE speed_8 numeric
@ATTRIBUTE direction_8 numeric
@ATTRIBUTE acceleration_8 numeric
@ATTRIBUTE speed_16 numeric
@ATTRIBUTE direction_16 numeric
@ATTRIBUTE acceleration_16 numeric

%The number after speed, direction denotes the step size that was used for the calculation.
%Acceleration was calculated between two adjacent samples of the already low pass filtered velocity

@DATA
0,1320.69,914.66,1.00,1,1,1,0.00,0.00,0.00,274.68,-1.55,0.00,314.50,-2.52,0.00,377.51,-3.00,0.00,269.65,-3.04,0.00
15700,1320.76,910.35,1.00,1,1,1,274.68,-1.55,17495.62,314.50,-2.52,17542.92,407.75,-3.09,14213.12,472.24,3.11,7633.84,209.00,-3.12,4027.24
30500,1312.90,909.06,1.00,1,1,1,538.18,-2.98,38351.11,407.75,-3.09,15077.43,377.51,-3.00,3265.17,418.03,3.06,4053.42,117.90,-3.08,6167.10
61500,1302.11,909.42,1.00,1,1,1,348.33,3.11,6707.64,451.66,3.08,2125.90,472.24,3.11,3866.17,349.51,3.04,2220.90,35.40,-2.50,2919.80
77200,1291.85,910.42,1.00,1,1,1,656.37,3.04,19717.57,569.68,3.03,7654.17,418.03,3.06,3821.06,269.65,-3.04,6468.81,91.56,-0.42,7201.56
93000,1284.27,911.37,1.00,1,1,1,483.64,3.02,10976.82,368.45,3.02,12743.69,349.51,3.04,4357.47,209.00,-3.12,4001.75,66.23,-0.56,1749.59
108600,1280.37,911.86,1.00,1,1,1,251.79,3.02,14862.27,128.69,3.06,15383.25,138.27,3.09,13561.82,117.90,-3.08,5850.84,54.70,-2.52,6457.15
124400,1280.24,911.69,1.00,1,1,1,13.70,-2.22,15518.55,97.87,-0.34,14220.50,55.25,-0.45,12053.27,35.40,-2.50,5728.73,110.16,-2.99,4174.13
139600,1283.24,910.85,1.00,1,1,1,204.43,-0.27,13807.97,174.62,-0.27,5084.10,161.19,-0.29,7034.39,91.56,-0.42,7438.45,226.28,-3.07,7689.09
171600,1288.19,909.50,1.00,1,1,1,160.46,-0.27,1374.39,197.09,-0.28,705.51,215.43,-0.30,1695.19,66.23,-0.56,863.86,211.47,-3.10,509.32
194400,1293.61,907.86,1.00,1,1,1,248.54,-0.29,3869.77,265.51,-0.32,3031.41,253.25,-0.28,1675.89,54.70,-2.52,4418.05,169.90,-3.08,1835.75
210200,1297.91,906.25,1.00,1,1,1,290.37,-0.36,2889.39,350.36,-0.27,5463.44,79.33,-0.65,11500.27,110.16,-2.99,4174.13,180.54,-3.10,709.01
226100,1304.32,904.89,1.00,2,2,2,411.94,-0.21,8331.61,170.86,-3.13,32483.18,320.85,-3.11,24252.79,189.34,-3.11,5099.57,149.50,-3.06,1980.67
241300,1292.59,906.16,1.00,2,2,2,775.62,3.03,78039.64,1016.71,3.07,55703.89,463.14,3.07,9771.63,214.14,-3.09,1653.33,150.05,-3.08,158.33
256200,1273.80,907.17,1.00,2,2,2,1263.35,3.09,32927.56,663.94,3.05,23694.36,682.42,3.05,14733.23,224.79,-3.07,742.06,161.81,-3.14,1013.24
286700,1262.58,908.92,1.00,3,3,3,372.31,2.99,29302.44,465.40,3.02,6533.05,464.76,3.10,7192.55,326.02,3.13,3395.88,195.26,3.06,1199.29
302500,1252.41,909.80,1.00,1,1,1,645.92,3.06,17449.21,185.77,-2.95,18637.60,161.56,-3.03,19380.87,372.71,3.11,2992.17,225.01,3.01,1997.50
318400,1256.80,907.79,1.00,1,1,1,303.44,-0.43,58948.45,162.92,-0.59,20263.30,195.80,-3.01,2164.72,346.07,3.10,1689.48,259.62,2.96,2310.74
349700,1258.79,905.50,1.00,1,1,1,97.00,-0.86,6996.52,202.94,-3.05,11016.41,83.26,-2.68,3837.91,273.92,3.03,2388.38,347.45,2.94,2811.98
365500,1247.28,906.91,1.00,1,1,1,733.57,3.02,51147.03,391.11,3.03,12456.35,229.79,3.10,10244.02,297.66,2.96,2007.98,455.13,2.92,6826.01
381200,1246.54,906.88,1.00,1,1,1,47.06,-3.10,43769.02,275.45,2.95,7531.39,449.14,2.92,14461.79,271.25,2.88,2258.22,601.10,2.93,9299.85
397100,1238.73,908.53,1.00,1,1,1,502.28,2.93,28730.01,511.22,2.83,15099.53,443.33,2.79,3617.81,317.10,2.79,3266.15,636.85,2.91,2346.19
412800,1231.15,911.78,1.00,1,1,1,525.27,2.74,6592.14,617.70,2.72,7975.22,534.68,2.75,5957.17,494.32,2.81,11293.15,545.52,2.87,6012.06
428500,1221.06,916.54,1.00,1,1,1,710.32,2.70,11867.55,561.39,2.67,3952.68,447.20,2.60,7243.29,607.49,2.81,7208.69,494.64,2.85,3325.24
444700,1215.18,919.89,1.00,2,2,2,417.84,2.62,18239.78,292.60,2.36,18355.79,533.85,2.73,6698.89,859.10,2.85,15645.73,369.07,2.79,7909.96
460500,1214.44,923.16,1.00,1,1,1,212.02,1.79,20003.69,516.60,2.78,17525.61,737.64,2.81,13282.38,964.56,2.84,6684.52,251.95,2.68,7724.72
492200,1192.24,928.60,1.00,1,1,1,720.98,2.90,20635.05,1061.23,2.90,17396.01,1123.15,2.89,12339.43,835.35,2.82,4129.88,118.23,2.16,5066.20
508000,1165.55,935.44,1.00,1,1,1,1743.92,2.89,64746.46,2046.94,2.93,62457.80,1394.53,2.90,17233.15,683.97,2.81,9599.44,131.76,0.54,11442.43
523600,1129.44,942.28,1.00,1,1,1,2355.91,2.95,40095.60,1902.07,2.91,9510.32,1181.12,2.86,14107.56,463.90,2.74,14286.92,248.85,0.14,8821.07
539200,1107.78,949.00,1.00,1,1,1,1454.09,2.84,59371.56,490.77,2.64,92024.15,622.99,2.80,35962.66,194.93,2.50,17871.21,416.23,0.02,11027.77
562100,1112.89,951.39,1.00,1,1,1,246.43,0.44,71824.08,435.40,0.07,38790.33,320.58,0.20,39846.61,366.37,0.08,23069.84,535.91,-0.05,5416.70
577900,1124.58,950.21,1.00,1,1,1,743.90,-0.10,34623.01,1229.96,-0.12,51069.92,1194.55,-0.10,56532.92,854.71,-0.09,31483.10,643.14,-0.09,6955.34
593700,1151.47,946.70,1.00,1,1,1,1716.23,-0.13,61573.59,2137.13,-0.14,57463.89,2051.57,-0.15,54423.19,1283.89,-0.13,27333.43,761.58,-0.12,7563.57
609400,1191.21,940.56,1.00,2,2,2,2561.00,-0.15,53901.47,2878.96,-0.16,47291.94,2490.53,-0.16,28019.84,1715.76,-0.15,27562.01,784.47,-0.13,1743.05
625100,1240.77,932.62,1.00,2,2,2,3196.93,-0.16,40516.64,2850.04,-0.17,3053.07,2165.03,-0.18,20891.56,1821.62,-0.17,7026.68,952.01,-0.14,10683.19
640400,1278.29,925.63,1.00,2,2,2,2494.54,-0.18,46146.67,1686.83,-0.20,76137.66,2185.06,-0.18,1309.73,1892.54,-0.18,4705.72,1056.11,-0.15,6824.99
671900,1318.16,917.06,1.00,3,3,3,1294.74,-0.21,38120.94,1749.30,-0.18,2176.78,1668.49,-0.19,16414.57,1911.77,-0.18,662.43,1186.72,-0.15,4146.86
687700,1359.67,910.66,1.00,1,1,1,2657.79,-0.15,86542.65,1650.59,-0.18,6276.01,1497.95,-0.19,10812.46,1692.93,-0.19,13882.10,1275.66,-0.15,5629.11
719300,1395.19,903.33,1.00,1,1,1,1147.77,-0.20,47866.59,1246.88,-0.21,12868.05,1660.16,-0.18,5155.12,1456.98,-0.19,7468.74,1271.57,-0.15,136.68
735000,1417.34,898.35,1.00,1,1,1,1446.52,-0.22,19085.38,1674.84,-0.20,27290.47,1203.13,-0.21,29199.79,1227.69,-0.19,14604.89,1336.08,-0.14,4163.93
750600,1446.61,893.12,1.00,1,1,1,1905.45,-0.18,29803.04,1137.02,-0.21,34493.87,1140.28,-0.20,4100.29,1085.50,-0.17,9205.28,1327.77,-0.13,996.02
766300,1452.16,890.98,1.00,1,1,1,379.33,-0.37,97761.90,610.84,-0.21,33514.59,821.95,-0.18,20315.69,814.44,-0.15,17336.99,1262.73,-0.13,4183.97
782200,1465.49,889.12,1.00,1,1,1,846.32,-0.14,30493.19,512.46,-0.11,7043.09,368.62,-0.11,28624.89,660.52,-0.10,9960.00,1142.30,-0.12,7590.68
798000,1468.30,889.13,1.00,1,1,1,178.03,0.01,42447.31,143.13,0.36,24698.10,346.63,0.13,5541.33,721.42,-0.05,4401.57,1048.18,-0.11,5998.35
813600,1469.70,890.68,1.00,1,1,1,133.75,0.84,8455.73,231.92,0.71,6996.54,295.88,0.23,3852.80,688.86,0.01,3385.39,1016.33,-0.09,2353.97
829400,1473.84,893.86,1.00,2,2,2,330.40,0.65,12676.69,399.05,0.20,14269.97,652.07,0.09,22901.37,797.28,0.02,6875.24,846.39,-0.08,10777.96
860500,1488.03,894.46,1.00,2,2,2,456.63,0.04,8550.95,967.00,-0.01,18731.64,949.23,0.05,9604.51,804.74,0.03,279.34,796.36,-0.04,1858.85
876200,1519.10,893.60,1.00,3,3,3,1979.52,-0.03,97092.43,1780.42,-0.00,51810.88,1163.03,-0.00,14091.88,868.68,0.01,4146.79,711.33,-0.01,5622.37
891900,1543.94,894.33,1.00,1,1,1,1582.75,0.03,26078.68,1455.21,-0.00,20715.05,1448.92,-0.02,18283.74,957.59,-0.00,5737.80,559.48,-0.07,9909.06
907600,1564.79,893.40,1.00,1,1,1,1329.64,-0.04,17507.77,1118.61,-0.06,21926.98,1111.98,-0.04,21481.32,880.06,-0.02,5038.90,472.08,-0.21,7291.18
923300,1578.99,892.20,1.00,1,1,1,908.01,-0.08,27004.11,838.47,-0.08,17885.41,969.89,-0.06,9190.52,941.62,-0.01,4009.76,372.47,-0.33,7051.25
946800,1597.55,890.75,1.00,1,1,1,792.02,-0.08,4942.89,850.76,-0.06,910.24,567.13,-0.06,17139.23,701.58,0.02,10268.55,289.79,-0.29,3557.86
962500,1612.28,890.19,1.00,1,1,1,939.11,-0.04,9620.22,230.19,0.06,39665.09,491.82,0.04,5838.65,441.71,-0.18,18102.73,209.62,0.01,6952.23
978200,1604.77,891.17,1.00,1,1,1,482.80,3.01,90484.03,120.24,1.18,13262.85,255.41,0.32,16337.38,253.01,-0.97,20217.75,157.11,1.17,13043.50
994000,1613.73,893.69,1.00,1,1,1,589.65,0.27,66515.40,294.85,0.53,13398.06,110.24,-2.01,21589.07,263.02,-1.86,14073.81,364.57,1.97,17686.47
1009800,1612.80,895.89,1.00,1,1,1,150.82,1.97,39683.19,265.31,-2.00,33798.44,436.21,-2.14,20712.60,330.49,-2.60,14202.75,743.75,2.34,26870.77
1040800,1608.61,882.38,1.00,1,1,1,456.06,-1.87,18688.92,911.85,-2.24,21213.11,767.48,-2.43,11983.94,504.88,3.12,9202.34,1093.68,2.44,11661.68
1056700,1586.24,862.37,1.00,1,1,1,1887.94,-2.41,95288.43,1554.76,-2.54,46226.81,721.32,-2.65,10515.75,776.29,2.75,22588.54,1428.96,2.51,21780.14
1072500,1567.94,854.54,1.00,1,1,1,1259.48,-2.74,50814.83,706.88,3.09,68381.86,974.05,3.02,35783.20,1242.14,2.61,30652.03,1710.21,2.56,18587.67
1103500,1553.20,864.02,1.00,1,1,1,565.44,2.57,33945.63,1100.58,2.32,24928.53,1542.39,2.46,28456.28,1844.70,2.58,19486.95,1971.63,2.61,8928.28
1118400,1533.59,891.58,1.00,2,2,2,2269.99,2.19,117968.51,3063.32,2.26,131948.59,2367.94,2.29,59424.55,2671.79,2.53,56105.44,2049.12,2.67,9099.64
1134700,1492.66,937.98,1.00,4,4,4,3795.82,2.29,95474.83,4227.14,2.29,71672.87,4201.82,2.36,113124.18,3205.26,2.48,33720.38,2023.20,2.72,6055.95
1149700,1446.92,991.55,1.00,4,4,4,4696.12,2.28,60190.54,5382.69,2.41,86994.26,4948.66,2.41,52751.64,3622.01,2.49,27836.76,1909.61,2.79,12548.44
1165400,1369.45,1048.10,1.00,4,4,4,6109.06,2.51,120060.64,5727.28,2.51,39866.49,5294.45,2.49,33537.11,4278.44,2.53,42877.51,1824.35,2.87,11173.82
1181100,1302.16,1098.26,1.00,4,4,4,5345.64,2.50,48760.20,5240.24,2.57,37855.06,5247.35,2.60,36368.56,3936.56,2.60,29247.81,1756.40,2.93,8083.39
1196800,1231.19,1137.32,1.00,4,4,4,5159.61,2.64,47431.39,4821.54,2.71,51719.86,4475.57,2.69,56696.33,3503.19,2.71,37167.18,1475.32,2.97,18205.46
1212600,1164.40,1162.20,1.00,4,4,4,4511.37,2.79,60688.06,3788.67,2.86,77587.83,3218.41,2.87,90263.86,2640.76,2.88,63945.77,1170.91,3.02,19804.30
1227500,1119.41,1169.45,1.00,4,4,4,3058.39,2.98,109121.05,2048.36,-3.10,131189.94,2262.98,-3.11,84779.85,1964.87,-3.12,62254.15,916.37,3.13,18774.04
1250800,1086.21,1158.99,1.00,4,4,4,1493.60,-2.84,79356.39,1517.64,-2.46,52811.68,1390.62,-2.52,58048.00,1483.01,-2.61,42339.69,606.30,-2.90,15507.01
1266600,1073.32,1132.06,1.00,4,4,4,1889.38,-2.02,88295.53,1452.60,-1.84,57281.60,1545.65,-1.89,58026.60,1421.60,-1.88,66000.58,353.56,-2.16,26626.08
1298300,1067.71,1092.52,1.00,2,2,2,1260.00,-1.71,24771.64,1889.95,-1.53,21472.82,2200.28,-1.42,33915.98,1860.23,-1.32,31472.25,455.95,-1.24,11680.35
1314100,1077.33,1042.38,1.00,2,2,2,3231.11,-1.38,131637.80,3622.82,-1.18,123888.31,2764.55,-1.12,58836.90,2374.91,-1.03,50728.33,740.81,-0.78,24614.20
1329900,1111.69,986.82,1.00,3,3,3,4134.60,-1.02,101477.07,4482.84,-0.87,95608.40,4112.04,-0.88,100296.87,2962.11,-0.82,50750.94,1030.08,-0.63,19987.73
1345100,1167.25,936.42,1.00,1,1,1,4934.81,-0.74,98269.13,4901.13,-0.65,72336.11,4565.47,-0.66,67081.85,2907.10,-0.66,32000.62,1299.62,-0.57,18411.45
1360900,1232.67,894.91,1.00,1,1,1,4904.08,-0.57,53290.08,4818.13,-0.48,52547.24,4687.68,-0.48,54896.05,3394.06,-0.49,45006.88,1545.26,-0.57,15547.46
1376800,1302.76,865.96,1.00,1,1,1,4769.11,-0.39,53480.62,4622.35,-0.30,54726.91,3564.31,-0.30,83907.22,3046.60,-0.33,39820.58,1756.09,-0.64,15372.86
1392500,1372.23,851.79,1.00,2,2,2,4516.04,-0.20,58494.93,2832.92,-0.10,122967.11,3298.06,-0.11,45305.26,2867.77,-0.17,31955.01,2962.11,-0.82,81074.08
1424100,1436.10,852.71,1.00,2,2,2,2021.35,0.01,81580.84,2531.68,0.13,21271.87,2426.95,0.10,33340.82,2532.03,-0.03,15625.19,2907.10,-0.66,15392.70
1439400,1490.03,866.70,1.00,2,2,2,3641.31,0.25,114030.19,2151.14,0.37,44220.54,2045.04,0.31,39873.37,2098.03,0.04,30436.88,3394.06,-0.49,46477.70
1471200,1530.70,888.98,1.00,1,1,1,1458.54,0.50,70935.65,1677.16,0.60,20280.49,1881.82,0.50,12312.26,1579.56,-0.08,17642.59,3046.60,-0.33,19910.29
1487100,1556.20,911.66,1.00,1,1,1,2145.87,0.73,49967.72,1563.90,0.77,18586.07,1061.93,0.52,51597.74,2045.04,0.31,52890.45,2867.77,-0.17,31553.06
1502800,1566.33,923.23,1.00,1,1,1,979.74,0.85,75157.62,244.59,-0.47,95577.11,742.19,-1.13,85322.10,1881.82,0.50,24938.22,2532.03,-0.03,31449.43
1518500,1563.05,908.20,1.00,1,1,1,979.60,-1.79,120847.06,2479.81,-1.77,154578.58,244.59,-0.47,36255.75,1061.93,0.52,52255.03,2098.03,0.04,29661.42
1534300,1550.79,846.68,1.00,1,1,1,3970.64,-1.77,189319.65,3970.64,-1.77,94359.32,2479.81,-1.77,153600.24,742.19,-1.13,84782.09,1579.56,-0.08,35508.51
