@RELATION gaze_labels

%@METADATA width_px 1920
%@METADATA height_px 1080
%@METADATA width_mm 540.00
%@METADATA height_mm 254.00
%@METADATA distance_mm 620.00


@ATTRIBUTE time INTEGER
@ATTRIBUTE x NUMERIC
@ATTRIBUTE y NUMERIC
@ATTRIBUTE confidence NUMERIC
@ATTRIBUTE handlabeller1 INTEGER
@ATTRIBUTE handlabeller2 INTEGER
@ATTRIBUTE handlabeller_final INTEGER
@ATTRIBUTE speed_1 numeric
@ATTRIBUTE direction_1 numeric
@ATTRIBUTE acceleration_1 numeric
@ATTRIBUTE speed_2 numeric
@ATTRIBUTE direction_2 numeric
@ATTRIBUTE acceleration_2 numeric
@ATTRIBUTE speed_4 numeric
@ATTRIBUTE direction_4 numeric
@ATTRIBUTE acceleration_4 numeric
@ATTRIBUTE speed_8 numeric
@ATTRIBUTE direction_8 numeric
@ATTRIBUTE acceleration_8 numeric
@ATTRIBUTE speed_16 numeric
@ATTRIBUTE direction_16 numeric
@ATTRIBUTE acceleration_16 numeric

%The number after speed, direction denotes the step size that was used for the calculation.
%Acceleration was calculated between two adjacent samples of the already low pass filtered velocity

@DATA
0,1372.12,951.99,1.00,1,1,1,0.00,0.00,0.00,1413.34,-2.94,0.00,685.58,-2.98,0.00,454.15,-3.13,0.00,307.79,2.93,0.00
15700,1350.37,947.59,1.00,1,1,1,1413.34,-2.94,90021.44,685.58,-2.98,46430.91,291.54,3.07,25952.23,199.12,2.65,18842.94,244.62,2.74,5176.23
47300,1340.09,946.93,1.00,1,1,1,326.01,-3.08,34529.78,291.54,3.07,12893.99,454.15,-3.13,5239.79,194.10,1.97,4151.02,287.18,2.77,1363.84
63000,1336.62,948.63,1.00,1,1,1,246.39,2.68,10619.37,191.05,2.24,13602.10,199.12,2.65,18842.94,208.28,1.96,905.53,354.86,2.92,5261.39
78800,1336.33,951.63,1.00,1,1,1,190.27,1.67,13818.40,202.70,1.58,8114.61,194.10,1.97,8302.04,307.79,2.93,16161.78,448.30,3.06,6868.54
94600,1336.53,955.04,1.00,1,1,1,216.34,1.51,2574.63,210.89,1.72,1839.75,208.28,1.96,899.80,244.62,2.74,5143.47,542.63,-3.12,6925.22
110400,1335.35,958.22,1.00,1,1,1,214.73,1.93,5631.57,240.97,2.29,8196.04,199.30,2.40,5604.46,287.18,2.77,2727.67,624.76,-3.06,5540.47
125700,1331.62,960.70,1.00,1,1,1,292.58,2.55,11300.85,240.45,2.78,7715.31,291.93,2.81,8805.80,354.86,2.92,5398.94,613.23,-3.00,2772.97
157200,1324.82,962.19,1.00,2,2,2,221.10,2.93,3751.17,355.45,3.03,4327.73,424.74,3.04,4924.83,448.30,3.06,3445.17,510.70,-3.08,3597.41
173000,1314.91,962.54,1.00,2,2,2,627.51,3.11,26069.93,715.78,-3.12,23180.70,557.37,-3.12,9238.19,542.63,-3.12,6925.22,476.01,-3.08,2196.11
188700,1302.28,961.73,1.00,2,2,2,806.37,-3.08,12251.41,865.78,-3.04,10326.56,824.92,-3.04,17381.63,624.76,-3.06,5575.76,496.89,-3.07,1446.18
204700,1287.60,959.84,1.00,2,2,2,924.95,-3.01,8176.09,938.66,-2.98,5683.96,886.67,-2.97,5453.91,613.23,-3.00,2651.65,449.70,-3.02,3239.10
220000,1273.27,957.08,1.00,2,2,2,953.92,-2.95,4258.59,912.22,-2.90,5208.41,860.59,-2.96,1770.97,743.08,-2.97,8599.41,482.89,-3.00,2274.02
236100,1259.78,953.03,1.00,2,2,2,874.91,-2.85,7576.39,797.92,-2.94,7432.75,672.41,-2.90,12039.22,757.95,-2.93,1871.24,492.64,-2.97,950.79
258800,1242.92,950.97,1.00,2,2,2,748.25,-3.02,8248.36,531.39,-2.90,11802.70,686.21,-2.90,615.28,734.95,-2.90,1402.47,532.28,-2.96,1771.11
289500,1232.22,946.27,1.00,1,1,1,380.72,-2.73,13004.25,594.42,-2.85,2272.48,662.99,-2.89,769.61,560.81,-2.83,5860.72,573.80,-2.97,1362.37
305300,1216.46,942.97,1.00,1,1,1,1018.93,-2.94,41214.42,888.30,-2.88,18666.26,624.53,-2.83,3614.81,530.66,-2.83,1909.51,628.69,-2.97,3477.17
320700,1205.43,939.15,1.00,1,1,1,757.81,-2.81,18432.00,670.17,-2.80,14790.10,443.67,-2.71,12342.92,461.29,-2.84,4518.35,649.88,-2.97,1391.02
336300,1196.91,935.95,1.00,1,1,1,583.78,-2.78,11211.87,182.46,-2.14,34458.11,364.97,-2.69,5098.08,458.05,-2.84,222.63,654.38,-2.97,295.12
367100,1200.88,932.01,1.00,2,2,2,181.49,-0.78,22073.22,171.50,-2.39,1505.96,280.53,-2.73,2777.63,532.66,-2.93,2883.91,610.91,-2.99,1462.30
382800,1191.06,930.53,1.00,2,2,2,632.63,-2.99,48099.32,420.92,-2.97,18633.03,319.12,-2.86,3443.47,519.32,-2.96,1296.52,593.27,-3.01,1298.59
413800,1181.51,928.68,1.00,2,2,2,313.83,-2.95,10300.55,491.41,-3.01,2353.09,640.32,-3.09,10896.48,548.50,-3.02,1362.92,580.28,-3.03,664.84
429100,1168.49,927.60,1.00,2,2,2,853.34,-3.06,35450.70,983.46,3.12,32885.04,695.16,-3.11,3702.79,581.80,-3.06,2513.71,575.72,-3.06,919.59
444300,1151.52,929.34,1.00,2,2,2,1122.81,3.04,21369.80,1004.36,3.10,1701.99,973.56,3.14,18423.70,673.88,-3.12,6655.06,587.47,-3.10,1671.98
460200,1137.28,928.76,1.00,2,2,2,896.11,-3.10,16867.40,964.40,-3.13,4037.06,982.52,3.13,639.56,671.03,3.14,1100.22,535.89,-3.12,3311.48
476200,1120.76,928.92,1.00,2,2,2,1032.86,3.13,9061.46,962.04,-3.12,417.03,704.86,3.13,17353.71,741.92,3.10,4646.86,509.58,3.14,1922.11
492100,1106.60,928.15,1.00,2,2,2,891.76,-3.09,9683.65,550.42,3.11,26002.80,650.04,3.10,3759.26,733.06,3.07,1743.58,465.95,3.12,2824.36
529700,1091.32,929.90,1.00,1,1,1,408.88,3.03,13125.77,465.65,3.02,2567.53,573.01,3.06,2131.40,657.86,3.05,2024.26,499.79,3.10,917.95
545300,1082.02,931.22,1.00,1,1,1,602.61,3.00,12447.41,613.88,2.99,9551.08,551.51,2.98,3157.49,565.26,3.02,6032.76,425.83,3.11,4743.31
561300,1072.15,932.85,1.00,1,1,1,624.95,2.98,1641.57,696.63,2.94,5504.28,602.47,2.92,3844.68,478.44,2.99,5549.68,339.73,3.13,5413.22
577000,1060.37,935.59,1.00,1,1,1,770.39,2.91,9690.09,593.82,2.85,7501.98,458.20,2.88,9284.78,354.19,2.92,8103.59,241.57,-3.11,6296.80
592900,1054.16,938.19,1.00,1,1,1,423.34,2.74,22651.38,224.28,2.69,23528.54,356.57,2.83,6546.11,280.86,2.92,4612.93,103.16,-2.82,9156.22
608600,1053.98,938.66,1.00,1,1,1,31.99,1.94,25599.63,116.06,2.69,6893.33,99.42,2.45,16997.49,112.38,2.89,10736.00,47.83,-1.57,6335.49
623900,1050.93,939.76,1.00,1,1,1,212.36,2.79,12611.75,59.54,0.52,10281.54,44.44,-0.16,9118.10,134.50,-0.19,16129.19,148.15,-0.47,8714.42
639700,1055.58,939.58,1.00,1,1,1,295.06,-0.04,31742.98,200.26,-0.33,10574.03,237.31,-0.26,12225.40,344.05,-0.23,13273.99,233.68,-0.36,5561.81
655400,1056.90,937.74,1.00,2,2,2,144.21,-0.95,15033.48,432.17,-0.36,14785.31,621.34,-0.26,24460.43,504.67,-0.26,10250.21,306.35,-0.35,4634.26
671200,1068.32,934.77,1.00,2,2,2,746.69,-0.25,40675.22,1042.89,-0.25,38939.50,776.30,-0.29,9889.73,613.51,-0.28,6922.44,317.56,-0.36,791.92
686900,1088.73,929.61,1.00,2,2,2,1340.99,-0.25,37856.00,1121.90,-0.26,5126.72,869.88,-0.26,6154.31,726.78,-0.28,7214.74,344.11,-0.34,1773.12
702700,1102.43,925.54,1.00,2,2,2,904.64,-0.29,27764.43,754.75,-0.27,23242.08,912.77,-0.28,2903.47,782.41,-0.30,3710.44,332.09,-0.37,973.30
734200,1123.11,919.99,1.00,2,2,2,679.67,-0.26,7172.22,773.39,-0.30,808.81,797.06,-0.28,3674.42,732.16,-0.31,1617.92,289.82,-0.42,1427.37
749900,1137.35,914.91,1.00,1,1,1,963.26,-0.34,18534.16,839.45,-0.29,4209.37,786.52,-0.31,1365.84,630.02,-0.35,6705.32,248.09,-0.46,2750.54
781500,1161.12,908.52,1.00,1,1,1,778.89,-0.26,6235.54,799.69,-0.32,1416.22,618.82,-0.37,5491.13,491.06,-0.37,4407.08,222.58,-0.47,816.17
797300,1173.36,903.05,1.00,1,1,1,848.15,-0.42,9224.25,403.84,-0.54,26237.17,399.37,-0.48,14321.82,327.40,-0.46,10649.68,166.86,-0.53,3602.22
828300,1177.38,898.88,1.00,1,1,1,186.90,-0.80,21882.79,131.97,-2.01,13313.18,173.27,-0.80,7763.45,130.43,-0.97,7165.10,167.38,-0.44,508.02
844200,1170.72,897.45,1.00,1,1,1,428.28,-2.93,34609.94,151.27,-2.97,8285.38,215.28,-2.93,21416.16,110.17,-2.57,10919.03,130.13,-0.45,2344.89
867500,1171.54,897.86,1.00,1,1,1,39.26,0.47,20015.35,398.04,3.03,10990.56,594.73,3.06,16901.98,334.53,3.14,10699.87,66.45,-0.55,2760.03
883200,1155.29,899.11,1.00,1,1,1,1038.09,3.07,68269.87,1150.05,3.02,47903.14,699.42,2.99,7348.97,502.49,3.00,11291.76,70.20,-0.39,743.15
899200,1135.35,902.29,1.00,1,1,1,1261.79,2.98,15151.19,1074.62,2.96,6153.77,979.07,2.96,17515.86,571.52,2.92,5154.70,8.69,-0.95,3938.39
914600,1122.08,905.11,1.00,2,2,2,880.84,2.93,24981.88,806.68,2.88,18118.10,921.66,2.89,5979.50,523.50,2.85,3886.04,55.20,2.88,4037.50
929800,1111.51,908.69,1.00,2,2,2,734.35,2.81,11476.09,774.67,2.78,5511.61,560.86,2.74,24742.59,479.90,2.83,2925.73,176.09,2.90,7954.02
945700,1099.54,913.60,1.00,2,2,2,813.95,2.75,5845.13,347.88,2.42,29275.47,348.88,2.54,14438.29,260.53,2.63,14510.80,241.27,2.89,4101.15
961400,1103.25,915.94,1.00,1,1,1,279.47,0.56,63839.66,191.12,0.69,26892.67,136.57,2.00,15395.74,135.01,2.17,9654.34,305.94,2.87,4131.48
977000,1104.14,917.43,1.00,1,1,1,110.94,1.03,12015.30,95.41,0.59,6195.27,307.35,0.14,23732.97,101.38,1.64,4503.24,342.15,2.86,2323.61
1008700,1106.99,918.47,1.00,1,1,1,95.77,0.35,2227.85,409.21,-0.02,10592.75,276.99,0.09,1085.64,86.80,1.55,530.65,389.76,2.88,1522.12
1023900,1123.32,917.05,1.00,1,1,1,1078.86,-0.09,65324.53,583.62,-0.04,11485.70,219.71,0.11,3782.21,53.84,1.24,2565.73,374.00,2.87,1104.89
1039000,1124.66,917.84,1.00,1,1,1,102.77,0.53,66032.30,101.98,2.35,43827.81,86.72,0.47,9402.72,83.35,2.59,5870.57,343.55,2.85,2075.25
1054700,1121.11,919.28,1.00,1,1,1,244.02,2.76,20198.16,420.75,2.91,21549.39,276.47,2.93,22174.09,188.60,2.89,7123.97,301.96,2.84,2662.95
1070500,1111.76,920.90,1.00,1,1,1,600.23,2.97,23118.15,402.72,3.02,3136.70,418.29,2.99,9071.43,309.95,2.96,7741.42,261.49,2.83,2566.93
1101900,1102.24,921.57,1.00,1,1,1,304.13,3.07,9532.66,418.26,3.05,606.75,581.56,3.02,5224.77,485.39,2.98,5596.35,220.83,2.83,1294.84
1117600,1092.15,922.75,1.00,1,1,1,646.87,3.02,21871.11,847.02,3.03,27321.14,557.66,3.02,1531.73,559.35,2.98,4711.14,178.63,2.81,2695.36
1133700,1075.48,924.65,1.00,2,2,2,1042.20,3.03,24554.89,695.29,3.00,9492.56,691.67,3.00,8342.92,543.30,2.99,1027.81,161.83,2.83,1074.29
1165400,1059.23,927.34,1.00,1,1,1,519.43,2.98,16532.39,587.72,2.98,3415.16,699.02,2.98,635.68,469.00,2.98,2350.99,129.04,2.83,1035.04
1181100,1047.97,929.03,1.00,1,1,1,725.66,2.99,13149.57,705.49,2.94,7706.99,505.75,2.95,12351.16,457.39,2.95,1127.45,153.66,2.92,1780.26
1197000,1037.39,931.79,1.00,1,1,1,687.55,2.89,5300.00,384.33,2.88,20306.28,350.14,2.89,9922.05,281.50,2.88,11182.63,149.30,2.95,419.51
1212700,1036.25,932.21,1.00,1,1,1,77.55,2.79,38878.01,62.96,2.39,21008.69,195.38,2.72,10231.41,134.44,2.74,9509.70,123.90,2.97,1627.93
1235000,1035.63,933.42,1.00,1,1,1,60.73,2.04,2384.02,63.37,1.84,1541.91,209.58,0.13,17486.74,95.25,0.21,9837.44,94.71,2.99,1311.01
1250300,1035.60,934.51,1.00,1,1,1,71.04,1.60,1995.78,517.26,0.02,35090.49,301.42,0.01,6332.73,242.39,-0.07,10019.24,44.90,3.07,3271.44
1266200,1051.77,933.67,1.00,1,1,1,1018.12,-0.05,64540.07,683.76,-0.10,11324.62,576.13,-0.09,17480.28,343.27,-0.13,6439.88,17.09,-0.51,3827.68
1281900,1057.10,932.35,1.00,1,1,1,349.88,-0.24,43172.65,640.23,-0.18,4463.77,714.21,-0.17,9349.85,325.09,-0.14,1171.80,141.32,-0.18,7977.56
1297600,1071.54,930.02,1.00,1,1,1,931.43,-0.16,37160.09,748.31,-0.24,7313.26,502.95,-0.25,13779.46,341.99,-0.17,1250.57,235.05,-0.18,5970.12
1313300,1079.93,926.80,1.00,1,1,1,572.69,-0.37,24766.26,367.95,-0.37,24611.69,350.96,-0.25,9681.32,388.46,-0.22,3179.03,278.19,-0.18,2749.41
1328600,1082.18,925.91,1.00,1,1,1,157.87,-0.38,27113.25,85.69,-0.31,18460.07,160.03,-0.39,12653.62,330.19,-0.29,4150.51,315.28,-0.19,2429.73
1360300,1083.77,925.56,1.00,1,1,1,51.25,-0.22,3394.35,24.40,-0.55,1962.63,130.46,-0.43,951.83,400.25,-0.25,2259.54,298.82,-0.19,521.17
1376000,1083.17,925.30,1.00,2,2,2,41.44,-2.74,5628.06,198.61,-0.50,11098.04,194.51,-0.37,4119.22,360.74,-0.27,2578.24,307.51,-0.21,676.05
1391800,1089.26,922.56,1.00,3,3,3,422.79,-0.42,28605.97,451.11,-0.36,16209.53,449.67,-0.25,16312.11,307.41,-0.24,3422.43,275.41,-0.24,2107.63
1407500,1096.48,920.35,1.00,1,1,1,481.41,-0.30,5199.25,624.14,-0.19,12303.85,563.28,-0.24,7240.72,294.75,-0.24,818.58,200.51,-0.28,4810.28
1438500,1117.86,916.93,1.00,1,1,1,698.17,-0.16,7457.88,641.99,-0.18,611.92,457.55,-0.20,3465.82,277.09,-0.24,573.43,167.56,-0.30,1066.35
1454200,1125.96,914.86,1.00,1,1,1,532.71,-0.25,11132.93,292.78,-0.22,22261.58,381.04,-0.18,4906.33,279.84,-0.25,247.78,76.03,-0.49,5995.95
1485700,1131.35,913.95,1.00,1,1,1,173.57,-0.17,11430.10,122.89,-0.16,5404.32,133.82,-0.23,7858.00,182.80,-0.28,3087.20,31.04,-0.93,1578.25
1501400,1131.68,913.93,1.00,1,1,1,21.30,-0.06,9706.87,26.27,3.10,9490.44,45.37,-0.41,5698.57,94.31,-0.27,5638.00,35.08,-0.79,397.71
1532700,1130.12,914.00,1.00,1,1,1,50.13,3.10,2282.15,41.51,-2.74,671.83,151.09,-3.13,6178.20,56.29,-3.10,4758.57,22.16,-1.31,619.55
1548500,1129.89,913.16,1.00,1,1,1,54.97,-1.84,4155.51,337.97,-3.12,18980.15,249.63,3.03,6418.58,200.94,3.03,9210.69,22.57,-1.12,268.14
1564100,1119.51,913.78,1.00,1,1,1,666.59,3.08,42143.48,569.63,2.98,15715.98,307.08,3.02,3686.16,306.88,3.04,6790.68,28.01,-0.41,1180.46
1580000,1112.18,916.07,1.00,1,1,1,482.68,2.84,14439.00,287.35,2.89,17885.46,528.50,3.00,13939.56,281.93,3.05,1579.84,43.22,-0.09,1185.15
1603300,1108.59,916.55,1.00,1,1,1,155.59,3.01,14179.27,495.37,3.02,9151.35,481.50,2.99,2019.51,338.90,3.03,2454.76,24.37,2.91,2893.59
1618900,1093.06,918.46,1.00,1,1,1,1002.86,3.02,54313.15,726.59,3.04,14856.23,318.52,3.06,10569.92,333.14,3.01,612.32,58.30,2.81,2187.22
1634700,1085.88,918.79,1.00,1,1,1,454.73,3.10,34845.69,97.55,-2.96,40083.50,375.21,3.03,3623.02,173.68,2.91,10208.88,68.14,2.79,629.82
1649500,1090.12,917.93,1.00,1,1,1,292.29,-0.20,50331.57,14.97,2.59,5878.91,111.80,3.05,17799.22,30.48,2.26,10167.96,120.95,2.86,3598.79
1665200,1085.49,919.03,1.00,1,1,1,302.97,2.91,37909.38,131.57,2.86,7465.14,180.70,0.03,18595.65,25.41,0.70,2517.00,138.61,2.86,1124.53
1681000,1086.15,919.10,1.00,1,1,1,41.50,0.11,21668.90,367.21,0.01,31296.62,310.10,0.06,8202.78,116.59,0.13,6079.00,208.50,2.87,4424.51
1696800,1097.10,919.17,1.00,1,1,1,693.12,0.01,41256.15,745.12,0.00,23919.84,409.61,-0.02,6567.04,194.36,0.07,4955.31,164.89,2.77,2992.44
1712500,1109.62,919.19,1.00,1,1,1,797.45,0.00,6648.76,453.57,-0.04,18649.73,298.00,0.07,7353.78,69.78,0.61,8859.38,121.51,2.66,2942.63
1727500,1111.01,918.58,1.00,2,2,2,101.46,-0.42,47062.47,32.84,1.86,31015.64,205.51,0.10,6193.02,69.93,0.58,162.81,133.10,2.83,1664.94
1758500,1109.19,920.64,1.00,2,2,2,88.77,2.29,5994.53,62.61,0.86,1699.54,158.59,2.78,11434.08,102.66,2.44,4515.73,159.53,-3.12,1753.68
1774200,1112.92,920.79,1.00,1,1,1,237.87,0.04,19226.43,363.80,2.88,25180.82,233.10,2.82,4769.91,159.93,2.65,4018.61,156.31,-2.88,2421.89
1789900,1098.14,923.55,1.00,1,1,1,957.58,2.96,75838.71,619.82,2.96,16453.49,559.17,2.92,20899.90,197.58,2.71,2492.43,152.92,-2.69,1933.31
1805700,1093.73,924.38,1.00,1,1,1,284.19,2.96,42619.81,757.40,2.94,8752.28,499.87,2.88,3984.88,244.77,2.90,4001.83,100.79,-2.76,3354.91
1820900,1075.16,928.34,1.00,1,1,1,1249.35,2.93,63504.44,421.45,2.80,22654.11,233.27,2.67,18175.75,417.89,-3.09,12920.09,67.20,2.48,5801.03
1852400,1075.17,930.93,1.00,1,1,1,82.28,1.57,39214.05,123.34,0.70,15722.56,256.76,2.97,2460.65,453.30,-2.95,2269.14,163.99,2.06,3371.99
1875800,1080.32,932.72,1.00,1,1,1,233.09,0.33,9398.16,107.30,-2.42,9855.95,348.22,-2.77,7849.87,343.31,-2.66,6772.88,304.20,2.09,5996.74
1891500,1072.03,928.16,1.00,1,1,1,603.17,-2.64,53111.31,1157.68,-2.71,67228.56,499.53,-2.53,11545.43,246.60,-2.72,6248.56,430.22,2.05,8073.74
1907400,1047.04,917.53,1.00,1,1,1,1707.44,-2.74,69746.42,830.72,-2.55,22972.64,611.72,-2.31,10592.86,39.87,2.57,14313.99,523.55,1.97,6383.17
1937900,1040.09,906.57,1.00,1,1,1,425.52,-2.14,45191.63,435.67,-1.50,23530.78,326.45,-2.20,9473.99,210.36,1.66,6183.62,624.16,2.04,3586.87
1953600,1048.37,897.45,1.00,1,1,1,784.93,-0.83,50153.95,542.13,0.07,44314.35,283.54,0.59,38262.28,469.54,1.83,16879.49,646.51,2.03,1475.13
1969200,1057.02,907.71,1.00,1,1,1,860.07,0.87,79426.73,854.83,1.03,45224.77,849.74,1.07,39287.34,738.81,1.79,17342.80,648.80,2.07,1536.91
2001000,1069.13,932.25,1.00,2,2,2,860.54,1.11,6533.66,1253.53,1.31,15475.68,1362.89,1.45,20546.73,964.01,1.57,9153.28,578.18,2.06,2226.56
2016800,1072.26,965.40,1.00,2,2,2,2107.37,1.48,84737.93,2308.76,1.68,77417.81,1707.24,1.64,28765.88,1307.29,1.64,22402.63,543.66,2.19,5200.78
2032100,1061.43,1003.63,1.00,4,4,4,2597.58,1.85,64752.71,2603.17,1.89,39026.46,2203.64,1.73,34215.60,1457.75,1.76,14147.67,453.17,2.38,8365.21
2047200,1047.39,1040.52,1.00,4,4,4,2613.90,1.93,15193.41,2105.05,1.78,36860.80,2147.87,1.92,28090.54,1406.74,1.87,10898.97,335.79,2.51,8477.33
2063300,1047.51,1067.82,1.00,4,4,4,1695.59,1.57,74476.56,1710.26,1.97,32814.29,1734.96,2.06,30451.46,1361.24,2.04,15255.64,178.13,2.49,9798.03
2078600,1026.53,1090.01,1.00,4,4,4,1995.83,2.33,91539.99,1554.39,2.43,49569.80,1184.74,2.27,40988.57,1031.21,2.33,31184.40,92.65,2.64,5734.05
2095100,1010.11,1100.14,1.00,4,4,4,1169.33,2.59,55564.25,894.64,2.86,50147.90,921.95,2.86,40111.41,577.31,2.86,36829.90,97.77,3.02,2168.68
2110700,998.98,1098.11,1.00,4,4,4,725.38,-2.96,51009.49,787.31,-2.41,52804.92,846.20,-2.51,49971.36,543.46,-2.38,35700.27,84.64,-2.78,2951.54
2126000,991.99,1083.91,1.00,4,4,4,1034.41,-2.03,54778.61,1367.10,-1.95,48951.93,1004.96,-1.92,36615.20,886.79,-1.92,30678.40,92.48,-2.06,4070.44
2141800,983.23,1058.61,1.00,4,4,4,1694.13,-1.90,43031.58,1229.53,-1.73,20251.05,1412.78,-1.64,33496.93,1204.31,-1.63,27609.73,161.67,-1.77,4926.61
2173600,982.89,1026.09,1.00,2,2,2,1022.67,-1.58,24953.05,1510.72,-1.46,14543.44,1710.40,-1.47,12346.43,1214.98,-1.53,3761.86,264.58,-1.53,3604.96
2189300,991.41,987.32,1.00,2,2,2,2528.50,-1.35,98673.21,2547.20,-1.29,69257.68,1819.16,-1.33,17327.70,1233.09,-1.40,9780.36,408.25,-1.26,10715.56
2204800,1005.00,949.76,1.00,1,1,1,2577.15,-1.22,21778.63,2320.57,-1.21,19101.20,1521.64,-1.29,19702.17,1039.41,-1.22,18047.44,551.25,-1.17,9657.01
2220700,1017.10,919.13,1.00,1,1,1,2070.92,-1.19,32116.26,931.29,-1.29,87723.91,1145.13,-1.13,27018.11,901.09,-1.06,13215.28,721.07,-0.97,13118.27
2259000,1018.75,901.19,1.00,1,1,1,470.45,-1.48,42421.41,479.10,-0.92,13483.98,649.67,-0.70,16224.32,804.24,-0.90,4394.73,882.32,-0.83,5142.23
2274900,1032.84,898.49,1.00,1,1,1,902.65,-0.19,56260.72,788.06,0.16,44359.96,448.97,-0.05,25115.32,700.62,-0.61,15096.38,1008.18,-0.72,10245.83
2306600,1055.75,907.35,1.00,1,1,1,774.86,0.37,15102.28,745.19,0.56,9601.07,650.06,0.44,10340.22,699.55,-0.33,6212.74,1031.53,-0.62,3263.49
2321800,1062.44,917.07,1.00,1,1,1,776.35,0.97,30099.61,583.28,1.03,22924.60,734.43,0.41,5687.21,816.67,-0.09,14129.02,1127.75,-0.50,10877.78
2337600,1065.01,922.88,1.00,1,1,1,402.06,1.15,24584.80,749.17,0.19,35840.07,933.16,0.09,20797.92,1220.72,-0.00,26146.97,1247.61,-0.39,10984.06
2353400,1085.69,921.53,1.00,1,1,1,1311.71,-0.07,78017.51,1579.90,-0.20,59031.72,1405.87,-0.11,33358.82,1397.71,-0.02,11289.56,1201.59,-0.30,7922.95
2369200,1113.91,912.82,1.00,2,2,2,1869.15,-0.30,42188.37,2107.54,-0.22,33425.18,2038.30,-0.17,40574.84,1465.75,-0.08,7092.34,1071.63,-0.21,10514.37
2385000,1150.75,907.30,1.00,2,2,2,2357.79,-0.15,36843.00,2499.38,-0.15,26410.81,2346.57,-0.18,19575.17,1708.45,-0.13,16152.81,1006.82,-0.13,6672.85
2400700,1191.72,900.84,1.00,2,2,2,2641.91,-0.16,18140.03,2592.99,-0.16,6010.69,1910.21,-0.15,28169.02,1935.51,-0.16,14741.44,1043.74,-0.07,4224.62
2415900,1229.89,894.74,1.00,3,3,3,2542.46,-0.16,6552.17,1509.39,-0.15,71303.92,1954.96,-0.14,3051.60,1842.87,-0.16,6128.68,941.35,-0.06,6767.34
2447000,1260.86,890.66,1.00,1,1,1,1004.70,-0.13,49465.64,1534.05,-0.13,1207.58,1852.46,-0.14,3298.65,1472.32,-0.15,11941.81,891.46,-0.09,1783.50
2462700,1301.10,885.60,1.00,1,1,1,2582.66,-0.12,100509.54,2358.38,-0.14,52515.41,1440.90,-0.13,26233.97,1208.52,-0.15,16813.85,898.75,-0.09,463.88
2478400,1334.23,880.61,1.00,1,1,1,2134.46,-0.15,28785.25,1301.65,-0.14,67307.90,1035.58,-0.14,25822.56,888.66,-0.16,20379.19,1054.51,-0.11,9988.48
2494000,1341.45,880.01,1.00,1,1,1,464.36,-0.08,107142.28,144.31,-0.17,74192.92,465.45,-0.19,36630.79,549.28,-0.16,21755.52,1069.28,-0.15,2966.82
2525000,1340.86,879.49,1.00,1,1,1,25.29,-2.42,15555.10,105.81,-2.85,7863.11,81.94,-2.85,17390.95,344.29,-0.12,6634.49,912.10,-0.20,5324.69
2540700,1336.72,878.59,1.00,1,1,1,270.20,-2.93,15824.49,408.67,-3.08,19533.95,276.66,3.11,12782.93,207.68,0.22,10413.29,888.29,-0.23,2202.73
2556200,1328.13,878.75,1.00,1,1,1,553.82,3.12,19182.45,496.02,3.03,7468.96,434.14,2.97,10645.48,304.54,0.16,6315.10,868.30,-0.23,1289.90
2578500,1318.08,880.67,1.00,1,1,1,458.88,2.95,5736.45,469.85,2.81,4930.54,172.13,1.76,18277.80,401.76,-0.10,5983.83,862.84,-0.15,2946.55
2594300,1311.21,884.60,1.00,1,1,1,500.75,2.62,10332.66,430.52,0.65,50213.56,658.51,0.18,43160.68,386.22,-0.40,7448.54,887.00,0.02,9437.39
2625200,1334.05,892.89,1.00,2,2,2,786.18,0.35,37987.99,1541.79,0.06,39175.94,1133.33,-0.08,16970.24,592.39,-0.37,6683.27,780.13,0.29,8203.16
2641000,1383.10,888.57,1.00,2,2,2,3116.99,-0.09,153626.81,2374.83,-0.26,65153.44,987.35,-0.32,18670.93,852.80,-0.30,16845.64,687.54,0.74,21497.07
2656800,1406.53,873.45,1.00,2,2,2,1764.75,-0.57,111446.76,787.41,-1.13,124050.82,1334.52,-0.49,25063.80,1188.23,-0.15,23162.53,762.56,1.10,17009.95
2688000,1398.90,855.11,1.00,3,3,3,636.62,-1.96,56601.98,768.88,-0.98,3828.98,1184.69,-0.57,5805.21,1401.13,0.05,10615.75,920.86,1.41,9647.79
2704000,1426.80,843.35,1.00,1,1,1,1892.41,-0.40,124608.26,2046.62,-0.26,96826.70,1248.12,-0.21,27454.49,1442.08,0.31,23041.74,997.51,1.57,10826.67
2719700,1461.52,838.14,1.00,1,1,1,2236.10,-0.15,39325.18,2435.21,0.13,60392.89,2184.01,0.29,79528.51,1203.59,0.90,51776.16,1063.91,1.65,6918.87
2735200,1502.19,852.85,1.00,1,1,1,2789.71,0.35,86764.90,2860.18,0.69,98642.63,2416.45,0.83,80183.39,1540.09,1.39,47264.58,1073.40,1.65,679.71
2750900,1530.39,894.90,1.00,1,1,1,3224.92,0.98,122129.44,3393.99,1.32,128594.69,2990.31,1.43,107093.81,2289.61,1.62,55450.10,981.65,1.64,5917.58
2765900,1527.56,953.91,1.00,2,2,2,3938.52,1.62,156589.51,4341.90,1.89,157158.81,3860.42,1.81,102978.97,2491.36,1.83,35599.39,839.14,1.69,10056.78
2781700,1487.81,1021.67,1.00,4,4,4,4971.96,2.10,148950.20,4934.99,2.12,76308.95,4602.42,2.11,92692.18,2823.49,1.99,33538.62,678.33,1.85,12730.49
2797400,1446.14,1086.33,1.00,4,4,4,4899.98,2.14,14007.41,5032.59,2.29,52282.10,3778.80,2.27,67613.64,2871.31,2.11,23364.47,506.35,1.92,11290.90
2813200,1383.88,1141.37,1.00,4,4,4,5259.31,2.42,90739.62,3078.14,2.42,128411.72,3296.25,2.38,38866.48,2610.23,2.27,32025.44,344.49,1.84,10465.05
2844500,1336.89,1181.64,1.00,4,4,4,1977.24,2.43,104870.68,2167.29,2.52,30057.27,2416.84,2.51,30484.97,1921.48,2.46,25754.21,207.92,2.12,4944.85
2860200,1301.35,1201.07,1.00,4,4,4,2579.89,2.64,48644.18,1495.40,2.76,51282.93,1241.20,2.78,80548.18,1133.08,2.81,59722.96,207.00,2.73,8017.94
2876100,1292.99,1199.13,1.00,4,4,4,539.78,-2.91,138779.62,824.70,-1.92,108860.21,809.33,-2.16,83163.87,791.20,-2.44,62604.56,251.30,3.05,5287.22
2892100,1292.40,1176.33,1.00,4,4,4,1425.44,-1.60,86982.92,1700.90,-1.38,67232.25,1817.48,-1.35,86790.22,1316.79,-1.62,60613.80,275.83,-2.78,7547.28
2914900,1305.22,1134.27,1.00,2,2,2,1928.09,-1.28,32047.48,2784.05,-1.22,50116.87,2839.83,-1.25,45997.57,2222.94,-1.37,44195.90,421.21,-2.51,7537.46
2930100,1329.06,1077.09,1.00,2,2,2,4076.33,-1.18,142512.71,4290.22,-1.18,99434.83,3504.26,-1.23,43838.15,2399.57,-1.27,18595.49,579.56,-2.32,12244.83
2946000,1355.97,1010.88,1.00,2,2,2,4494.77,-1.18,26428.47,4368.26,-1.24,17779.81,4133.81,-1.21,40025.82,2483.27,-1.19,13716.97,684.35,-2.03,12997.50
2961800,1373.60,945.97,1.00,2,2,2,4256.95,-1.31,36671.54,3983.02,-1.24,24460.70,2928.93,-1.22,76348.63,2141.63,-1.10,25291.38,823.00,-1.71,17670.17
2977600,1397.33,892.01,1.00,2,2,2,3731.21,-1.16,50211.87,1946.97,-1.20,129065.25,2172.05,-1.12,50979.03,1805.59,-1.14,21859.34,1025.71,-1.48,18318.95
3008200,1406.75,861.93,1.00,2,2,2,1029.83,-1.27,88566.50,1001.51,-0.78,36207.82,1201.16,-0.80,35792.56,1209.40,-1.36,22327.25,1122.50,-1.34,5845.84
3023500,1430.06,859.73,1.00,3,3,3,1530.91,-0.09,96579.81,960.93,0.08,53376.76,315.76,-0.48,59294.68,712.82,-1.60,35356.56,1136.86,-1.29,3611.67
3055200,1451.77,865.50,1.00,1,1,1,708.44,0.26,28408.76,417.56,1.91,35989.73,623.02,2.49,29510.16,373.99,-1.99,12474.46,1010.96,-1.32,4041.85
3071000,1423.53,878.45,1.00,1,1,1,1966.52,2.71,161586.11,2787.67,2.84,162060.36,1094.54,2.67,31273.55,222.53,-2.97,19631.40,851.98,-1.40,11245.62
3086700,1367.97,891.73,1.00,1,1,1,3638.50,2.91,111565.61,2328.77,2.85,29323.23,1672.29,2.88,41272.14,276.97,2.52,12732.25,627.88,-1.73,20722.68
3102500,1353.21,899.36,1.00,1,1,1,1051.15,2.66,166465.09,580.00,3.10,112128.49,970.02,3.02,45732.15,380.39,2.67,7284.47,481.49,-2.27,20783.02
3118400,1349.60,892.55,1.00,1,1,1,484.82,-2.06,72500.87,529.17,-0.93,63012.43,157.14,-0.78,69103.56,655.23,2.89,18604.57,515.23,-2.88,19101.37
3133800,1363.09,886.06,1.00,1,1,1,971.83,-0.45,71622.86,853.27,-0.30,34435.84,532.60,-0.49,24983.42,589.54,2.97,5303.87,679.66,3.04,17410.49
3149500,1374.98,884.79,1.00,1,1,1,761.64,-0.11,22946.69,632.72,-0.11,16461.22,270.02,-0.31,17290.43,507.31,3.05,5970.76,898.93,2.92,15154.04
3164300,1382.26,883.88,1.00,1,1,1,496.01,-0.12,17962.04,202.45,2.87,56302.03,251.66,2.82,35247.09,653.89,3.09,9985.63,1043.35,2.94,9809.46
3187900,1367.48,886.86,1.00,1,1,1,638.74,2.94,48048.96,930.96,2.93,30886.07,1075.48,2.97,35073.53,913.49,3.01,11253.09,1234.12,2.96,8186.73
3203700,1346.42,891.70,1.00,2,2,2,1367.63,2.92,46158.72,2141.09,2.98,76744.92,1657.95,2.97,36865.74,1170.23,2.99,16351.90,1162.26,2.98,4780.53
3219400,1300.91,897.64,1.00,2,2,2,2923.79,3.01,99869.51,2571.64,2.99,27437.54,2217.00,2.99,35706.53,1514.23,2.99,21913.44,911.51,2.99,15974.14
3235100,1266.64,904.13,1.00,2,2,2,2221.57,2.95,45690.36,2293.32,3.00,17809.86,1988.67,3.01,14686.22,1681.39,2.99,10650.02,816.78,3.00,6066.97
3250800,1229.64,907.93,1.00,2,2,2,2369.18,3.04,15543.24,1603.07,3.02,44082.53,1903.23,3.00,5474.97,1779.07,2.99,6237.38,731.65,2.96,5803.25
3282500,1191.17,913.00,1.00,1,1,1,1223.89,3.01,36161.86,1645.36,3.00,1746.14,1703.22,3.01,6355.05,1699.80,2.99,2501.57,757.03,2.93,992.25
3298300,1152.24,918.77,1.00,1,1,1,2491.14,2.99,80225.06,1853.76,3.00,13192.61,1428.62,2.99,17580.80,1255.92,2.97,28166.19,797.50,2.93,2562.55
3314100,1133.18,921.27,1.00,1,1,1,1216.48,3.01,80694.12,1098.60,2.95,47996.79,1337.29,2.95,6442.70,958.18,2.95,18877.57,847.42,2.94,3165.65
3329400,1118.69,925.23,1.00,1,1,1,981.92,2.88,18126.86,817.32,2.85,19443.37,601.06,2.85,48484.50,594.04,2.89,23974.53,871.55,2.94,1607.56
3345100,1108.92,928.58,1.00,1,1,1,657.71,2.81,20910.70,279.93,2.59,35110.64,230.28,2.44,25513.32,369.59,2.77,14738.01,861.31,2.95,870.44
3375700,1107.64,932.01,1.00,2,2,2,119.43,1.93,19248.68,245.68,0.37,15386.35,155.00,0.59,10177.54,141.84,2.33,8136.41,755.27,2.95,3466.77
3391500,1119.53,932.74,1.00,2,2,2,754.39,0.06,50477.33,491.67,0.05,17064.39,310.52,0.18,11316.39,100.59,1.88,4277.50,634.50,2.95,7645.18
3422700,1130.71,933.26,1.00,3,3,3,358.64,0.05,12686.78,381.61,0.06,3530.15,375.21,0.10,2282.77,89.15,2.00,519.49,401.13,2.91,7510.37
3438500,1137.43,933.89,1.00,1,1,1,427.25,0.09,4493.72,205.53,0.25,11606.49,122.06,0.37,16452.28,116.52,2.50,3634.09,50.29,1.10,26315.86
3454400,1137.03,934.86,1.00,1,1,1,65.86,1.97,28383.89,293.33,2.89,30415.91,291.48,2.89,24948.95,203.88,2.85,6447.79,141.84,2.33,8388.79
3470100,1128.47,936.24,1.00,1,1,1,552.43,2.98,33162.16,773.97,3.02,30866.22,688.80,3.01,25561.59,276.01,2.97,4952.06,100.59,1.88,4304.74
3485800,1112.92,937.93,1.00,1,1,1,996.00,3.03,28361.15,1088.49,3.05,20112.35,910.76,3.05,14239.48,138.52,3.03,8792.73,89.15,2.00,1032.36
3501600,1094.34,939.53,1.00,1,1,1,1180.53,3.06,11773.08,1047.72,3.07,2972.70,757.78,3.08,9808.44,483.02,-0.14,39335.33,116.52,2.50,3634.09
3517300,1080.01,940.37,1.00,1,1,1,914.26,3.08,17056.93,424.53,-3.13,39854.32,45.15,-1.40,49022.32,910.76,3.05,88759.61,203.88,2.85,6529.93
3532700,1081.13,939.40,1.00,1,1,1,96.69,-0.71,64465.41,1086.83,-0.16,97869.29,1666.07,-0.13,107343.91,757.78,3.08,10063.21,276.01,2.97,5048.53
3548400,1113.40,935.14,1.00,1,1,1,2072.98,-0.13,126934.15,3732.86,-0.12,168606.90,1086.83,-0.16,36941.61,45.15,-1.40,49022.32,138.52,3.03,8792.73
3564100,1197.54,925.65,1.00,1,1,1,5393.00,-0.11,211504.76,5393.00,-0.11,105752.38,3732.86,-0.12,168606.90,1666.07,-0.13,105292.75,483.02,-0.14,39585.87
