@RELATION gaze_labels

%@METADATA width_px 1920
%@METADATA height_px 1080
%@METADATA width_mm 540.00
%@METADATA height_mm 254.00
%@METADATA distance_mm 620.00


@ATTRIBUTE time INTEGER
@ATTRIBUTE x NUMERIC
@ATTRIBUTE y NUMERIC
@ATTRIBUTE confidence NUMERIC
@ATTRIBUTE handlabeller1 INTEGER
@ATTRIBUTE handlabeller2 INTEGER
@ATTRIBUTE handlabeller_final INTEGER
@ATTRIBUTE speed_1 numeric
@ATTRIBUTE direction_1 numeric
@ATTRIBUTE acceleration_1 numeric
@ATTRIBUTE speed_2 numeric
@ATTRIBUTE direction_2 numeric
@ATTRIBUTE acceleration_2 numeric
@ATTRIBUTE speed_4 numeric
@ATTRIBUTE direction_4 numeric
@ATTRIBUTE acceleration_4 numeric
@ATTRIBUTE speed_8 numeric
@ATTRIBUTE direction_8 numeric
@ATTRIBUTE acceleration_8 numeric
@ATTRIBUTE speed_16 numeric
@ATTRIBUTE direction_16 numeric
@ATTRIBUTE acceleration_16 numeric

%The number after speed, direction denotes the step size that was used for the calculation.
%Acceleration was calculated between two adjacent samples of the already low pass filtered velocity

@DATA
0,1263.43,974.96,1.00,1,1,1,0.00,0.00,0.00,1923.11,-0.30,0.00,1216.48,-0.26,0.00,421.02,-0.02,0.00,169.11,0.58,0.00
15700,1292.30,966.10,1.00,1,1,1,1923.11,-0.30,122491.23,1216.48,-0.26,45186.21,186.09,0.50,69342.91,269.16,2.17,39306.70,132.90,1.74,10744.33
31500,1300.50,965.23,1.00,1,1,1,521.88,-0.11,89516.25,186.09,0.50,68904.04,421.02,-0.02,17416.32,464.10,2.42,13558.97,117.81,1.81,1071.78
47100,1297.43,968.90,1.00,1,1,1,306.80,2.27,49518.74,445.43,2.42,34516.54,269.16,2.17,39558.67,373.32,2.38,5918.60,63.53,1.05,5364.74
63000,1289.95,974.49,1.00,1,1,1,586.79,2.50,18660.87,584.65,2.49,9032.73,464.10,2.42,13473.69,169.11,0.58,27896.12,83.68,-0.08,5088.52
78700,1282.73,980.10,1.00,1,1,1,582.55,2.48,756.38,482.77,2.42,6876.22,373.32,2.38,5880.91,132.90,1.74,10744.33,90.76,-0.71,3430.15
94500,1278.51,984.50,1.00,1,1,1,386.01,2.34,13167.25,210.04,2.13,18219.31,213.40,2.11,11204.20,117.81,1.81,1071.78,95.43,-1.31,3520.85
117400,1278.40,986.98,1.00,1,1,1,108.49,1.61,13672.69,121.30,0.64,10206.97,95.86,0.73,9464.08,63.53,1.05,3654.58,167.96,-2.36,6401.63
133100,1282.25,987.31,1.00,1,1,1,245.93,0.09,16841.03,222.78,-0.13,10208.79,209.72,-0.12,10418.19,83.68,-0.08,5153.35,136.41,-2.97,6125.93
164800,1288.88,985.62,1.00,1,1,1,215.70,-0.25,2609.63,316.85,-0.34,3450.79,275.57,-0.36,2735.66,90.76,-0.71,1698.84,297.73,-3.12,5178.06
180500,1296.41,982.30,1.00,1,1,1,524.29,-0.41,19966.81,339.45,-0.51,3822.41,272.12,-0.58,3855.64,95.43,-1.31,3543.28,399.73,-3.11,6503.87
211100,1302.59,977.95,1.00,1,1,1,247.16,-0.61,9352.75,247.68,-0.89,4687.76,205.93,-1.24,5478.15,167.96,-2.36,4790.76,423.28,-3.04,1205.87
226900,1303.62,973.35,1.00,1,1,1,297.94,-1.35,12786.11,360.42,-2.42,27131.13,212.22,-2.33,13696.51,367.50,-2.83,14559.42,436.13,-2.96,2392.68
242600,1294.06,970.46,1.00,2,2,2,636.28,-2.85,43464.11,463.08,-2.89,13745.09,598.97,-2.90,27749.54,578.66,-2.90,13629.06,452.17,-2.88,2485.31
273100,1282.90,968.03,1.00,2,2,2,374.49,-2.93,8678.05,801.71,-3.04,11517.38,1057.42,-3.08,15725.15,769.73,-2.97,6409.09,440.71,-2.80,1155.16
287800,1258.00,966.92,1.00,2,2,2,1695.77,-3.10,90350.31,1971.10,3.14,79993.55,1201.39,-3.08,9794.46,964.55,-2.98,13274.52,462.55,-2.76,1968.54
303700,1222.58,968.06,1.00,2,2,2,2228.37,3.11,34796.76,1772.39,-3.10,13427.47,1673.87,-3.08,29715.77,1042.87,-2.98,4935.63,467.76,-2.76,327.50
319500,1201.86,964.60,1.00,2,2,2,1329.85,-2.98,60807.71,1394.10,-2.99,26217.18,1411.76,-3.02,17545.32,1048.03,-2.96,1415.59,504.79,-2.75,2358.96
335200,1179.15,961.55,1.00,2,2,2,1459.13,-3.01,8721.54,1064.05,-2.89,22582.75,1037.45,-2.87,26536.87,1032.93,-2.93,2456.37,524.52,-2.78,1490.04
351000,1169.43,956.14,1.00,2,2,2,704.63,-2.63,53403.50,711.57,-2.62,26552.40,885.42,-2.77,11319.75,859.06,-2.86,11763.20,585.10,-2.83,4262.06
366600,1159.74,950.50,1.00,2,2,2,718.66,-2.61,1239.35,722.00,-2.60,1413.60,532.10,-2.50,25546.95,583.94,-2.71,18830.47,547.92,-2.85,2453.72
382000,1150.28,944.55,1.00,3,3,3,725.60,-2.58,1731.76,398.17,-2.32,23064.27,430.31,-2.37,7807.97,444.31,-2.55,10573.52,520.10,-2.85,1814.53
405600,1149.11,939.18,1.00,1,1,1,232.85,-1.79,24848.01,251.49,-1.83,9058.11,287.65,-2.30,6138.57,321.10,-2.29,6631.28,481.05,-2.86,1656.66
421400,1147.76,934.96,1.00,1,1,1,280.04,-1.88,3359.86,197.06,-2.25,6824.44,199.66,-1.77,9633.48,273.59,-2.32,3051.80,386.68,-2.80,6190.11
453000,1143.25,931.90,1.00,1,1,1,172.51,-2.55,5675.23,157.34,-1.70,3285.10,173.18,-1.69,972.37,182.50,-2.13,3192.54,291.65,-2.68,3259.86
468800,1146.82,927.56,1.00,1,1,1,355.62,-0.88,25908.87,242.46,-0.97,10302.39,134.84,-2.19,5359.42,126.63,-1.97,3847.65,219.98,-2.54,5017.06
484200,1147.52,925.66,1.00,1,1,1,131.84,-1.22,15277.59,170.97,-2.90,22255.56,89.15,-1.49,5722.93,84.46,-2.10,2885.08,148.76,-2.22,5969.79
500000,1141.64,926.31,1.00,1,1,1,374.76,3.03,28440.29,79.02,-2.94,5826.02,66.21,-2.68,5659.72,47.50,-1.72,2804.70,113.76,-2.00,2851.95
531600,1143.85,924.92,1.00,1,1,1,82.75,-0.56,14261.80,25.14,-1.11,2816.00,62.49,2.99,1235.63,24.31,-1.71,733.72,87.76,-1.64,1395.30
547300,1142.17,925.25,1.00,1,1,1,109.10,2.95,12016.36,57.57,2.50,5148.49,52.87,0.11,7286.18,6.74,-2.22,1189.93,65.99,-1.52,1520.99
579100,1141.66,926.56,1.00,1,1,1,44.15,1.94,2932.73,100.44,0.35,4418.54,43.47,1.91,2384.83,25.82,-0.09,941.69,43.67,-1.68,751.97
594000,1146.58,926.85,1.00,1,1,1,330.64,0.06,23270.25,61.23,0.98,4206.02,54.64,0.35,4667.52,84.71,-0.14,3955.21,31.78,-1.91,992.82
609900,1142.71,928.13,1.00,1,1,1,256.34,2.82,36270.71,13.04,-2.82,4527.97,160.27,-0.13,7199.58,98.73,-0.09,924.40,25.78,-2.38,913.46
625600,1146.19,926.72,1.00,1,1,1,239.11,-0.38,31540.00,295.13,-0.31,19474.48,135.68,-0.28,2119.11,65.75,-0.10,2100.49,5.93,-0.80,1687.03
641400,1151.57,925.31,1.00,1,1,1,351.96,-0.26,7517.14,281.74,-0.25,1335.48,248.64,-0.29,7150.31,43.39,-0.17,1436.91,21.97,0.28,1257.31
657300,1154.84,924.50,1.00,1,1,1,211.97,-0.24,8807.52,202.45,-0.26,4986.84,91.19,-0.42,9987.48,17.79,-2.60,3651.27,80.07,0.08,3690.79
673000,1157.76,923.69,1.00,1,1,1,192.86,-0.27,1267.63,111.03,-3.10,19769.83,49.67,3.08,8834.80,37.08,-2.84,1290.88,139.94,0.11,3817.94
688300,1151.40,924.36,1.00,1,1,1,417.86,3.04,39799.41,218.89,2.96,7393.75,133.75,3.04,5500.09,13.50,-0.23,3218.01,188.52,0.09,3182.68
719800,1147.68,925.53,1.00,1,1,1,123.75,2.84,9444.76,149.68,2.97,2198.24,258.28,3.00,3961.05,22.03,0.76,582.49,254.61,0.02,2146.81
735600,1144.42,925.55,1.00,1,1,1,206.33,3.13,6023.89,316.88,3.04,10618.77,48.88,2.62,13521.17,79.68,0.34,3812.46,250.58,-0.00,411.07
751500,1137.69,926.58,1.00,1,1,1,428.19,2.99,14214.06,116.96,0.20,27035.76,102.31,0.30,8817.05,184.16,0.21,6640.29,211.52,-0.02,2474.12
767300,1148.05,926.29,1.00,1,1,1,656.16,-0.03,68504.53,516.56,0.05,25394.93,339.67,0.12,15166.24,305.67,0.12,7804.01,148.63,-0.00,3987.30
782800,1153.84,927.44,1.00,1,1,1,380.38,0.20,19204.56,570.82,0.11,4000.16,729.40,0.06,25242.86,477.77,0.04,11294.45,47.63,0.07,6527.07
797900,1165.42,928.18,1.00,1,1,1,768.59,0.06,26144.58,943.62,0.06,24819.67,693.88,0.07,2515.08,532.41,0.02,3678.55,12.27,2.56,3833.00
813900,1183.14,929.09,1.00,1,1,1,1108.84,0.05,21278.41,789.15,0.05,9654.45,815.84,0.01,8221.34,446.61,0.00,5379.17,35.82,3.05,1604.46
837600,1196.70,929.90,1.00,1,1,1,573.34,0.06,22596.64,717.20,-0.04,4289.49,703.23,-0.03,4886.92,277.57,0.01,7133.35,33.70,-2.99,359.40
853500,1211.51,927.93,1.00,1,1,1,939.83,-0.13,24681.83,604.10,-0.16,8706.97,244.33,-0.11,28936.17,77.78,-0.10,12608.22,23.78,-2.66,853.17
869200,1215.54,926.81,1.00,1,1,1,266.08,-0.27,43139.36,160.44,-3.00,48313.79,101.64,-2.73,21424.82,83.39,-3.02,10202.76,15.84,-1.11,1807.59
900200,1204.10,926.83,1.00,2,2,2,368.97,3.14,20306.21,556.56,-3.14,12851.03,588.94,-3.11,15993.79,221.15,-3.02,4444.02,59.02,-0.35,1572.41
916200,1189.38,926.69,1.00,3,3,3,920.05,-3.13,34444.89,1221.90,-3.13,41587.14,676.30,-3.14,5606.90,330.16,-3.01,6813.38,44.78,-0.31,900.77
931900,1165.37,926.25,1.00,3,3,3,1529.54,-3.12,38827.04,795.03,-3.14,27198.83,724.59,-3.10,3430.03,411.59,-3.06,5295.81,20.18,-0.35,1569.26
963600,1151.70,926.55,1.00,1,1,1,431.47,3.12,34655.15,392.66,-3.06,12775.59,528.82,-3.06,6231.83,407.50,-3.06,129.88,25.99,3.09,1440.01
979300,1146.83,924.65,1.00,1,1,1,332.99,-2.77,11360.73,258.50,-2.81,9907.58,263.38,-2.98,17028.99,323.66,-3.01,5451.69,47.46,3.08,1367.73
1008500,1140.73,922.75,1.00,1,1,1,218.70,-2.84,3968.22,134.13,-2.73,4290.24,97.79,-2.34,6629.39,186.23,-2.98,4712.65,122.38,3.06,2566.08
1024800,1141.24,922.19,1.00,1,1,1,46.48,-0.83,14853.98,197.65,-0.25,19280.25,116.01,-0.50,10456.32,38.14,-2.98,9085.82,202.77,3.02,4951.80
1039000,1146.57,921.26,1.00,1,1,1,381.00,-0.17,24319.69,447.35,-0.13,17765.28,327.03,-0.03,16188.88,40.99,0.34,5547.76,306.99,3.00,7347.19
1054700,1154.50,920.46,1.00,1,1,1,507.91,-0.10,8345.39,459.03,0.07,5678.04,304.91,0.17,4197.41,153.26,0.24,7169.85,430.62,2.98,7879.46
1070500,1161.00,922.20,1.00,1,1,1,425.54,0.26,11805.84,226.14,0.77,20323.64,184.51,0.60,9931.71,164.06,0.49,2566.35,480.65,2.97,3178.14
1085800,1159.57,925.33,1.00,1,1,1,224.98,2.00,33525.38,188.54,2.09,16814.08,241.75,0.60,3741.49,125.16,0.96,5063.15,484.92,2.95,795.95
1109500,1157.33,928.57,1.00,2,2,2,166.28,2.18,2879.43,258.65,0.48,13769.21,154.34,1.68,9180.74,224.45,2.45,10458.25,480.30,2.94,294.39
1124400,1168.42,929.95,1.00,2,2,2,750.53,0.12,56423.28,162.25,1.05,10057.95,194.14,2.28,7378.48,580.65,2.80,25361.48,390.82,2.93,6020.25
1140100,1159.80,932.87,1.00,2,2,2,579.82,2.82,82629.38,590.20,2.83,41027.53,573.14,2.81,26523.58,800.31,2.90,14617.74,265.26,2.87,8068.20
1156000,1150.66,935.64,1.00,3,3,3,600.60,2.85,1769.19,1167.58,2.94,36745.58,1402.76,2.96,52845.65,950.73,2.94,9705.94,103.96,2.75,10220.59
1171700,1123.66,940.29,1.00,1,1,1,1745.25,2.97,73354.61,2236.88,2.99,68297.59,1469.52,2.98,5037.60,1015.31,2.96,4402.45,51.85,0.19,9566.20
1187000,1082.13,946.21,1.00,1,1,1,2741.81,3.00,65263.14,1675.05,3.01,36790.51,1669.17,3.00,13144.36,882.30,3.00,8954.28,153.87,-0.10,6875.87
1218400,1046.15,950.83,1.00,1,1,1,1155.32,3.01,50531.47,1296.52,3.01,12059.70,1373.38,3.01,9440.08,595.62,3.03,9168.10,298.93,-0.16,4634.61
1234200,1021.43,954.01,1.00,1,1,1,1577.15,3.01,26698.30,929.18,3.03,23280.66,538.23,3.07,52942.50,224.21,-3.10,23755.64,447.81,-0.19,9448.04
1250100,1016.87,954.08,1.00,1,1,1,286.86,3.13,81293.84,234.00,-0.38,72726.17,283.22,-0.36,51187.65,241.53,-0.40,28598.64,624.29,-0.19,11100.64
1281100,1031.62,949.93,1.00,1,1,1,494.16,-0.27,24996.55,1096.08,-0.22,27937.34,982.24,-0.22,22679.53,710.46,-0.25,15250.78,734.64,-0.20,3561.88
1296900,1066.96,943.01,1.00,1,1,1,2279.27,-0.19,113111.75,1724.58,-0.19,39829.75,1572.71,-0.20,37386.46,1330.58,-0.21,39345.01,846.69,-0.20,7092.26
1328600,1111.99,934.11,1.00,2,2,2,1448.11,-0.20,26219.71,2042.49,-0.20,10028.94,2190.65,-0.20,19494.50,1650.19,-0.20,10094.31,921.90,-0.19,2372.66
1344400,1162.13,924.17,1.00,2,2,2,3235.02,-0.20,113095.20,2893.52,-0.20,53879.76,2376.31,-0.19,11859.50,1959.10,-0.19,19578.72,951.79,-0.19,1892.36
1360100,1201.25,915.63,1.00,2,2,2,2550.13,-0.22,43767.27,2881.44,-0.18,4348.50,2456.88,-0.19,5145.07,2340.57,-0.18,24327.85,989.36,-0.19,2393.42
1375800,1251.13,907.89,1.00,3,3,3,3215.41,-0.15,43820.08,2162.97,-0.17,45797.16,2424.29,-0.17,2787.72,2283.67,-0.17,3692.27,1058.55,-0.20,4407.99
1406800,1300.81,898.57,1.00,1,1,1,1630.37,-0.19,51183.77,2118.96,-0.17,1425.20,2492.03,-0.16,2499.36,2316.26,-0.17,1139.86,1061.60,-0.20,114.42
1422800,1349.32,891.26,1.00,1,1,1,3066.60,-0.15,89903.70,2972.63,-0.15,53452.48,2190.91,-0.16,18823.29,1783.32,-0.16,33314.49,1104.89,-0.19,2713.43
1438800,1394.90,884.62,1.00,1,1,1,2878.67,-0.14,11785.32,2299.45,-0.14,42088.57,2143.04,-0.14,3699.47,1315.75,-0.16,29224.87,1208.31,-0.18,6510.84
1454100,1420.59,881.19,1.00,1,1,1,1693.79,-0.13,77460.87,1286.93,-0.12,66203.74,1069.15,-0.13,70192.63,770.42,-0.18,35663.56,1163.50,-0.18,3011.12
1469800,1434.49,879.70,1.00,1,1,1,890.65,-0.11,51197.91,82.97,0.04,76756.35,3.15,-2.95,68288.68,379.82,-0.21,24901.76,1178.41,-0.16,1248.65
1493100,1423.82,881.30,1.00,1,1,1,463.06,2.99,58087.12,1023.09,3.02,47429.97,815.10,3.03,34853.87,109.17,-0.37,11699.02,1116.58,-0.15,2764.26
1509000,1394.69,884.58,1.00,1,1,1,1844.10,3.03,86884.29,1936.61,3.04,57472.36,914.49,3.05,6368.71,18.47,-2.30,7360.47,1023.84,-0.13,5963.20
1524300,1363.74,887.67,1.00,1,1,1,2032.82,3.04,12441.58,824.36,3.08,72797.86,767.77,3.07,9660.66,30.72,3.13,1516.16,944.44,-0.11,5293.22
1555800,1356.17,886.85,1.00,1,1,1,241.54,-3.03,57051.02,49.83,-1.29,26745.92,33.17,-2.25,23785.55,86.45,-0.09,3717.77,864.10,-0.09,2661.14
1570700,1364.39,885.45,1.00,1,1,1,559.39,-0.17,53321.80,1255.47,-0.11,83015.04,681.92,-0.12,46983.51,406.91,-0.08,21507.70,750.80,-0.06,7726.78
1585400,1393.09,882.61,1.00,1,1,1,1962.12,-0.10,95556.65,1677.64,-0.08,28906.41,1495.30,-0.09,55373.57,744.85,-0.08,22989.51,624.54,-0.03,8721.28
1601600,1416.06,881.25,1.00,2,2,2,1420.12,-0.06,33700.97,1721.21,-0.07,2771.30,1879.49,-0.08,23761.79,1113.13,-0.07,22738.83,542.44,-0.00,5155.17
1616900,1447.16,878.57,1.00,2,2,2,2040.33,-0.09,40646.70,2080.72,-0.07,23498.31,1487.29,-0.06,25677.10,1330.05,-0.05,14243.95,463.61,0.02,5224.68
1632600,1480.39,876.56,1.00,2,2,2,2120.42,-0.06,6135.56,1331.00,-0.05,47800.50,1540.61,-0.05,3629.53,1360.76,-0.04,2346.17,441.55,0.03,1428.90
1664000,1509.76,875.27,1.00,3,3,3,936.36,-0.04,37716.04,1186.67,-0.02,4748.75,1224.80,-0.03,10111.82,1215.17,-0.02,4711.71,503.13,0.01,1988.13
1679800,1536.39,875.29,1.00,1,1,1,1685.00,0.00,47512.72,1121.18,0.01,4641.18,1024.63,0.01,12857.60,1078.86,-0.00,8697.13,521.21,-0.01,1298.36
1711800,1563.35,875.59,1.00,1,1,1,842.81,0.01,26321.14,865.71,0.04,8066.35,949.44,0.05,2718.02,815.32,0.03,8310.41,551.66,-0.01,956.74
1727600,1577.73,877.08,1.00,1,1,1,914.64,0.10,6858.54,695.28,0.16,12137.61,629.58,0.11,20441.51,476.45,0.12,21710.12,521.07,-0.01,1936.91
1743400,1585.06,879.02,1.00,1,1,1,479.70,0.26,28280.30,287.62,0.40,26727.64,230.95,0.53,27213.08,254.18,0.31,14648.54,427.71,0.01,5942.31
1759200,1586.09,880.65,1.00,1,1,1,122.31,1.01,25256.21,316.82,2.73,35139.26,388.27,2.79,35644.39,118.31,2.47,21188.95,338.75,0.02,5636.78
1774900,1575.90,882.99,1.00,1,1,1,665.52,2.92,45555.48,1016.98,2.99,45530.86,658.46,2.97,18178.25,364.77,2.96,16954.56,279.10,0.04,3816.84
1790200,1554.94,885.53,1.00,1,1,1,1380.18,3.02,47175.87,1012.81,3.04,3727.76,911.91,3.05,17103.40,470.86,3.04,7292.46,204.08,0.04,4903.18
1806300,1544.26,886.15,1.00,1,1,1,664.56,3.08,44604.26,831.71,3.12,12032.42,861.17,3.12,4687.47,512.98,3.07,2822.43,102.08,0.04,6335.48
1829100,1522.60,886.33,1.00,1,1,1,950.13,3.13,12644.57,742.50,-3.09,4782.37,561.91,-3.09,13337.02,456.83,3.10,2537.40,63.10,3.01,7220.19
1844900,1515.64,884.57,1.00,1,1,1,454.00,-2.89,33141.09,244.44,-2.77,32676.38,389.66,-3.05,10971.99,298.05,-3.11,10168.61,270.15,3.08,13116.87
1860600,1515.43,883.50,1.00,1,1,1,69.33,-1.76,27330.00,61.51,-0.52,18284.71,60.20,-2.42,21830.17,94.41,-2.67,13802.64,430.60,3.09,10221.43
1875800,1517.29,883.63,1.00,1,1,1,122.72,0.07,10250.16,81.54,-0.06,2485.52,218.16,-0.17,17134.24,62.65,-1.91,4299.17,626.55,3.08,12894.27
1905900,1519.12,883.28,1.00,1,1,1,61.79,-0.19,2158.91,326.45,-0.12,8143.36,357.13,-0.16,4617.57,64.70,-2.12,459.09,782.49,3.07,5186.77
1921700,1532.17,881.80,1.00,1,1,1,830.94,-0.11,48693.29,752.83,-0.17,27031.37,264.04,-0.29,6451.38,195.50,-3.00,10249.00,946.56,3.06,10397.76
1937500,1542.56,879.20,1.00,1,1,1,677.97,-0.24,11535.99,214.92,-0.54,35321.62,73.76,-1.89,17455.40,400.18,3.13,13220.12,1079.86,3.05,8457.98
1969100,1540.88,876.53,1.00,1,1,1,99.88,-2.13,22633.50,537.85,-3.08,22955.11,593.71,-3.11,18124.61,714.15,3.08,9970.94,1213.14,3.04,4230.78
1984500,1517.32,877.77,1.00,1,1,1,1532.16,3.09,96508.03,1782.16,3.07,81185.82,1016.08,3.09,27742.57,1058.29,3.06,22396.87,1337.41,3.03,8122.78
2000200,1485.58,880.28,1.00,1,1,1,2027.69,3.06,31700.93,1496.43,3.05,18325.45,1871.00,3.05,54602.55,1498.61,3.04,28075.80,1409.82,3.02,4681.40
2031700,1446.96,884.00,1.00,2,2,2,1231.73,3.05,25283.02,1930.16,3.03,13834.78,1922.57,3.03,1971.12,1932.31,3.03,13787.38,1494.18,3.01,2714.67
2047500,1394.87,890.59,1.00,2,2,2,3323.24,3.02,132428.99,2345.94,3.01,26419.31,2255.54,3.01,21156.11,2455.83,3.02,33180.32,1517.45,3.01,1603.44
2079300,1336.25,898.55,1.00,2,2,2,1860.40,3.01,46006.37,2581.99,3.00,7456.04,3032.36,3.00,24441.39,2627.08,3.01,5417.84,1566.32,3.00,1554.23
2094700,1274.19,907.57,1.00,2,2,2,4072.11,3.00,143627.70,4083.14,3.00,97482.92,3039.76,3.00,1207.55,2559.48,3.00,4500.52,1477.79,2.99,5772.94
2110400,1210.59,916.85,1.00,3,3,3,4093.96,3.00,1399.29,3725.74,2.99,22778.35,3686.43,2.99,41198.34,2747.73,2.99,12143.48,1425.99,2.99,3301.85
2126200,1158.11,924.86,1.00,1,1,1,3359.89,2.99,46485.09,3300.92,2.99,26899.77,2967.22,2.99,45521.10,2441.04,2.98,19527.45,1424.43,2.99,354.37
2142400,1106.17,932.79,1.00,1,1,1,3243.40,2.99,7191.15,2354.59,2.99,58415.55,2433.28,2.97,33086.25,2227.95,2.96,13302.55,1299.05,2.99,7740.25
2165200,1067.34,938.76,1.00,1,1,1,1723.06,2.99,66681.42,1724.03,2.95,27876.11,1781.12,2.94,28762.68,1455.97,2.93,33954.00,1128.38,2.99,7488.19
2181500,1039.99,945.62,1.00,1,1,1,1729.80,2.90,9906.62,1098.51,2.82,40010.23,934.47,2.86,52326.65,780.09,2.88,41598.76,1070.41,2.98,3584.73
2197400,1033.83,950.08,1.00,1,1,1,478.32,2.52,81614.73,190.94,1.13,71502.48,285.38,0.54,72172.99,230.65,2.66,35067.46,877.21,2.97,12174.43
2213200,1042.59,951.09,1.00,1,1,1,558.32,0.12,61189.08,1554.67,-0.04,94291.63,1100.76,-0.03,55332.47,274.15,0.05,30841.07,701.49,2.95,11171.57
2229000,1082.92,948.18,1.00,1,1,1,2559.04,-0.07,127414.70,2141.19,-0.11,37997.21,1547.48,-0.11,29124.45,536.04,-0.07,16814.54,498.68,2.93,12859.98
2244600,1109.43,943.79,1.00,1,1,1,1722.39,-0.16,55047.90,1548.50,-0.18,39000.14,1614.67,-0.16,6905.65,705.79,-0.12,11042.19,311.07,2.88,12074.92
2260400,1130.72,939.27,1.00,1,1,1,1377.57,-0.21,22256.30,1099.50,-0.27,29330.58,794.58,-0.24,52190.14,782.09,-0.14,4944.54,158.19,2.79,9763.26
2276100,1142.79,934.48,1.00,1,1,1,827.08,-0.38,36899.91,296.16,-0.44,51522.55,399.96,-0.32,25307.53,744.58,-0.15,2399.76,23.23,1.52,9734.49
2307200,1143.27,933.39,1.00,1,1,1,38.24,-1.15,25729.83,78.34,-2.97,11676.25,170.87,-0.36,7372.66,410.60,-0.19,10774.71,139.37,-0.01,4514.94
2323000,1139.17,933.85,1.00,1,1,1,261.26,3.03,17879.29,37.46,1.59,5809.90,53.53,0.33,8473.75,90.86,-0.27,20258.76,238.34,-0.12,6407.78
2338700,1143.24,934.57,1.00,1,1,1,263.79,0.18,33100.83,248.49,0.26,15447.74,77.75,2.33,7092.37,101.36,3.05,12191.57,274.38,-0.19,2513.33
2354600,1146.76,935.83,1.00,1,1,1,235.14,0.34,3198.97,129.97,2.53,21807.91,219.44,2.78,9623.62,212.45,2.99,7009.02,270.76,-0.24,883.41
2370400,1139.88,936.95,1.00,1,1,1,441.33,2.98,41583.91,514.82,2.97,25396.84,369.85,2.93,9904.12,219.87,3.00,470.12,180.96,-0.37,5958.98
2401200,1123.13,939.95,1.00,1,1,1,552.54,2.96,3620.69,540.87,2.99,944.73,429.62,3.04,2418.44,182.46,3.04,1249.04,148.23,-0.46,1172.00
2417100,1114.90,940.68,1.00,1,1,1,519.69,3.05,3669.70,349.41,-3.14,12732.86,327.99,3.09,6512.06,183.03,3.13,1087.79,121.85,-0.56,1880.05
2448800,1106.50,939.90,1.00,2,2,2,266.14,-3.05,8271.75,132.15,-2.77,7279.61,163.33,-2.89,5630.98,163.79,-2.99,1037.47,88.97,-0.65,1079.91
2464500,1109.05,938.43,1.00,2,2,2,187.74,-0.52,27595.93,165.47,-0.65,16584.39,74.92,-1.66,9916.26,65.82,-2.24,7898.89,109.63,-0.54,1492.28
2480200,1110.63,936.75,1.00,1,1,1,146.75,-0.82,4048.74,203.81,-0.60,2512.06,263.99,-0.49,15564.65,213.89,-0.55,14758.78,132.73,-0.46,1609.88
2496300,1114.40,934.76,1.00,1,1,1,264.53,-0.48,8354.26,364.04,-0.42,10422.91,413.59,-0.37,9585.79,359.11,-0.42,9270.94,130.58,-0.41,422.71
2512100,1121.25,932.04,1.00,1,1,1,466.40,-0.38,12993.74,632.29,-0.30,17338.20,640.22,-0.32,14472.03,485.56,-0.36,8159.46,104.66,-0.48,1718.24
2527800,1133.42,928.85,1.00,1,1,1,801.43,-0.26,21859.87,923.48,-0.27,18592.98,784.55,-0.31,9201.13,511.43,-0.33,1853.21,100.07,-0.45,348.25
2543500,1149.16,924.17,1.00,1,1,1,1045.77,-0.29,15676.56,936.83,-0.31,2289.45,711.21,-0.31,4678.15,473.98,-0.31,2510.82,129.36,-0.39,1921.65
2559300,1161.51,919.83,1.00,1,1,1,829.14,-0.34,14015.69,502.12,-0.38,27682.36,611.12,-0.31,6341.14,453.90,-0.24,2364.42,123.81,-0.39,351.57
2575100,1163.88,918.27,1.00,1,1,1,179.45,-0.58,41542.89,280.21,-0.29,14215.37,340.48,-0.30,17130.66,370.37,-0.20,5391.18,130.49,-0.37,445.11
2590300,1169.84,917.35,1.00,1,1,1,396.54,-0.15,16114.37,235.06,-0.18,3492.48,215.50,-0.06,9227.90,231.63,-0.15,9176.41,106.33,-0.48,1802.83
2622300,1174.80,916.29,1.00,1,1,1,158.51,-0.21,7453.10,186.29,0.13,2525.74,136.36,0.24,2966.97,60.51,0.19,5489.19,101.31,-0.57,345.70
2645000,1179.95,918.67,1.00,1,1,1,249.85,0.43,6866.92,125.47,1.48,8852.57,77.95,1.93,7246.80,102.12,2.64,6775.62,121.52,-0.63,923.93
2660800,1175.22,921.10,1.00,1,1,1,336.18,2.67,33414.62,424.63,2.76,25728.26,277.84,2.63,14162.35,171.73,2.79,4587.92,162.35,-0.61,2587.02
2676600,1167.49,923.66,1.00,1,1,1,515.53,2.82,12064.41,574.87,2.87,10143.60,523.61,2.88,16737.97,239.49,2.93,4614.56,211.76,-0.58,3153.43
2691900,1157.98,925.83,1.00,1,1,1,637.46,2.92,8726.91,629.53,2.97,5071.04,570.71,2.98,4590.94,267.64,3.03,2492.49,295.52,-0.51,5585.74
2707700,1148.21,927.09,1.00,1,1,1,623.29,3.01,3940.81,572.66,3.08,5653.79,518.99,3.10,5392.31,263.85,-3.02,3939.82,102.12,2.64,25166.69
2723500,1139.92,926.94,1.00,1,1,1,525.08,-3.12,8165.40,424.48,-2.98,11655.89,294.54,-2.92,15588.67,157.83,-2.34,10940.35,171.73,2.79,4587.92
2739300,1134.97,924.95,1.00,2,2,2,337.59,-2.76,15325.48,163.21,-2.21,20759.28,177.92,-1.96,15337.88,231.15,-0.98,15865.83,239.49,2.93,4614.56
2770700,1135.33,920.75,1.00,3,3,3,134.00,-1.49,10335.89,286.41,-0.93,9086.07,377.26,-0.83,10837.58,532.75,-0.58,10599.25,267.64,3.03,1214.49
2786200,1142.97,914.15,1.00,3,3,3,651.14,-0.71,36317.81,933.78,-0.57,43470.94,655.04,-0.54,20277.93,177.92,-1.96,34096.11,263.85,-3.02,4016.07
2801800,1159.78,905.07,1.00,1,1,1,1224.69,-0.49,38826.86,1055.24,-0.43,11814.59,1298.34,-0.41,41888.28,377.26,-0.83,21814.10,157.83,-2.34,11080.61
2832700,1187.56,893.67,1.00,1,1,1,971.79,-0.39,8988.61,1551.99,-0.35,16427.56,1055.24,-0.43,7898.30,655.04,-0.54,10171.78,231.15,-0.98,8112.62
2848500,1227.89,880.30,1.00,1,1,1,2689.36,-0.32,108939.57,2689.36,-0.32,72082.07,1551.99,-0.35,32127.31,1298.34,-0.41,41358.05,532.75,-0.58,21064.33
