@RELATION gaze_labels

%@METADATA width_px 1920
%@METADATA height_px 1080
%@METADATA width_mm 540.00
%@METADATA height_mm 254.00
%@METADATA distance_mm 620.00


@ATTRIBUTE time INTEGER
@ATTRIBUTE x NUMERIC
@ATTRIBUTE y NUMERIC
@ATTRIBUTE confidence NUMERIC
@ATTRIBUTE handlabeller1 INTEGER
@ATTRIBUTE handlabeller2 INTEGER
@ATTRIBUTE handlabeller_final INTEGER
@ATTRIBUTE speed_1 numeric
@ATTRIBUTE direction_1 numeric
@ATTRIBUTE acceleration_1 numeric
@ATTRIBUTE speed_2 numeric
@ATTRIBUTE direction_2 numeric
@ATTRIBUTE acceleration_2 numeric
@ATTRIBUTE speed_4 numeric
@ATTRIBUTE direction_4 numeric
@ATTRIBUTE acceleration_4 numeric
@ATTRIBUTE speed_8 numeric
@ATTRIBUTE direction_8 numeric
@ATTRIBUTE acceleration_8 numeric
@ATTRIBUTE speed_16 numeric
@ATTRIBUTE direction_16 numeric
@ATTRIBUTE acceleration_16 numeric

%The number after speed, direction denotes the step size that was used for the calculation.
%Acceleration was calculated between two adjacent samples of the already low pass filtered velocity

@DATA
0,1125.19,893.95,1.00,1,1,1,0.00,0.00,0.00,2652.08,-0.07,0.00,2000.04,-0.08,0.00,880.16,-0.11,0.00,271.23,-0.06,0.00
15500,1166.21,891.24,1.00,1,1,1,2652.08,-0.07,171102.09,2000.04,-0.08,42115.73,924.40,-0.13,69550.24,281.18,-0.21,38777.93,63.00,2.82,21452.99
31200,1187.39,888.98,1.00,1,1,1,1357.01,-0.11,82628.77,924.40,-0.13,68664.25,880.16,-0.11,3193.19,99.59,-2.96,23906.92,235.51,2.91,11010.23
46900,1194.98,887.40,1.00,1,1,1,493.56,-0.21,55239.77,146.19,-0.35,49822.90,281.18,-0.21,38283.95,304.11,3.06,13331.42,303.13,2.87,4355.11
78500,1193.89,886.62,1.00,1,1,1,42.32,-2.52,16554.29,150.25,-3.04,9146.43,99.59,-2.96,11877.80,271.23,-0.06,18206.33,353.60,2.83,1654.19
94300,1187.89,886.69,1.00,1,1,1,379.76,3.13,21935.06,457.13,3.07,19622.39,304.11,3.06,13247.04,63.00,2.82,21045.65,341.23,2.78,1362.10
109600,1179.71,887.59,1.00,1,1,1,538.13,3.03,10750.52,543.72,2.99,6285.91,493.68,2.98,12566.96,235.51,2.91,11298.08,324.06,2.72,1674.69
125400,1171.18,889.26,1.00,1,1,1,550.06,2.95,2949.38,533.31,2.90,3015.21,407.47,2.90,5924.34,303.13,2.87,4327.55,301.35,2.73,1439.12
141100,1163.39,891.57,1.00,1,1,1,517.67,2.85,3840.10,321.28,2.80,13773.68,381.41,2.81,2886.18,353.60,2.83,3329.45,78.38,2.31,14763.79
172900,1156.80,894.37,1.00,1,1,1,225.09,2.74,9281.65,283.64,2.68,1624.14,311.85,2.70,2461.98,341.23,2.78,676.77,194.74,2.79,4099.94
188200,1151.41,897.48,1.00,1,1,1,406.96,2.62,12128.17,304.72,2.57,2519.74,274.72,2.66,2533.12,324.06,2.72,1674.69,270.61,2.87,5102.15
211600,1146.86,900.71,1.00,2,2,2,238.43,2.52,7311.26,267.13,2.65,1832.18,286.63,2.62,708.04,301.35,2.73,971.71,301.51,2.91,1391.98
242900,1138.56,904.43,1.00,2,2,2,290.73,2.72,2351.49,272.29,2.67,253.44,273.94,2.62,410.50,331.38,2.78,1102.67,292.50,2.92,309.47
258500,1135.50,906.54,1.00,2,2,2,238.09,2.54,4551.77,286.74,2.56,2066.51,291.62,2.75,2704.48,323.17,2.79,542.28,249.01,2.92,2788.55
273400,1131.23,909.20,1.00,1,1,1,337.83,2.58,6747.81,313.93,2.83,5573.65,412.20,2.88,8664.87,304.90,2.84,1715.56,209.15,2.91,2678.45
302900,1122.24,910.85,1.00,1,1,1,309.63,2.96,4212.88,510.05,3.00,7063.68,372.46,2.93,1469.09,300.21,2.95,1073.11,163.14,2.88,1570.33
318700,1108.34,912.39,1.00,1,1,1,885.13,3.03,36500.20,459.39,3.03,3279.07,353.76,3.04,2790.18,224.99,3.09,5290.13,135.21,2.84,1798.34
334400,1107.87,912.53,1.00,1,1,1,31.37,2.86,54408.61,132.65,-3.05,21062.77,331.03,-3.09,3753.20,153.89,-3.00,5062.68,119.84,2.78,1103.95
350300,1104.17,912.01,1.00,1,1,1,235.01,-3.00,13000.59,223.90,-2.73,6706.56,100.36,-1.73,20440.15,106.71,-2.66,4033.35,113.78,2.68,833.60
366000,1101.39,909.69,1.00,1,1,1,230.71,-2.45,8160.42,212.12,-1.07,20453.75,173.71,-0.95,7931.45,57.36,-1.73,5465.43,141.30,2.69,1755.36
381800,1107.35,906.14,1.00,1,1,1,439.45,-0.54,35442.75,451.25,-0.44,19450.62,268.92,-0.61,7571.60,112.87,-0.53,6747.93,148.57,2.63,744.45
397600,1114.29,903.62,1.00,1,1,1,467.11,-0.35,5704.88,361.96,-0.34,6189.22,263.75,-0.34,4582.26,111.93,-0.34,1358.05,179.01,2.66,1953.03
413000,1118.00,902.36,1.00,1,1,1,254.10,-0.33,13838.75,142.43,-0.12,14629.00,189.49,-0.12,5722.57,115.14,0.06,2908.72,157.47,2.54,1874.44
444500,1120.92,902.84,1.00,1,1,1,94.21,0.16,5606.39,96.23,0.44,2504.11,117.97,0.40,3349.71,80.25,0.95,2852.51,106.32,2.20,2154.36
460400,1122.13,904.29,1.00,1,1,1,118.51,0.88,4893.00,151.38,1.16,6421.38,137.11,1.34,7346.69,136.13,1.87,6830.76,103.13,0.67,9127.76
476100,1122.82,907.23,1.00,2,2,2,192.62,1.34,6476.95,277.37,1.76,11108.91,296.93,2.22,14957.73,237.03,2.33,8297.49,209.41,0.21,7994.43
492100,1120.47,912.92,1.00,2,2,2,384.74,1.96,15887.16,492.82,2.44,20521.61,424.34,2.35,8427.48,261.12,2.23,2172.38,337.98,0.06,8405.41
514400,1108.35,919.35,1.00,3,3,3,615.24,2.65,18038.00,598.74,2.56,5529.93,502.96,2.54,5266.82,237.66,2.05,2321.33,493.84,-0.02,7125.05
530200,1101.40,925.44,1.00,1,1,1,584.81,2.42,8982.09,514.09,2.61,5587.57,436.46,2.46,4726.27,182.54,1.20,11420.73,634.22,-0.05,8977.19
561700,1087.44,931.77,1.00,1,1,1,486.51,2.72,5860.93,309.33,2.31,7516.02,199.84,1.85,9416.18,313.56,0.37,7368.36,744.41,-0.07,3529.15
576600,1091.77,936.08,1.00,1,1,1,410.01,0.78,49581.26,377.78,0.32,38772.37,350.50,0.20,27993.68,533.89,0.06,17068.55,801.90,-0.09,3992.68
606000,1103.35,936.96,1.00,2,2,2,395.15,0.08,9508.83,913.58,-0.11,20047.78,1090.62,-0.07,25805.90,887.22,-0.08,12463.87,896.22,-0.11,3256.70
621900,1132.92,931.72,1.00,2,2,2,1888.78,-0.18,94920.80,2139.12,-0.17,77275.10,1511.19,-0.16,27253.92,1234.87,-0.14,22242.49,870.43,-0.12,1738.44
637600,1169.99,925.64,1.00,2,2,2,2392.75,-0.16,32147.70,2373.15,-0.18,15055.33,2020.30,-0.19,32650.37,1732.62,-0.17,31816.27,813.52,-0.14,3738.91
653400,1206.43,918.12,1.00,2,2,2,2354.67,-0.20,6637.96,1940.31,-0.21,27566.72,2302.18,-0.20,17926.79,1795.21,-0.20,5071.26,820.21,-0.16,1254.47
684200,1258.51,907.18,1.00,1,1,1,1727.75,-0.21,20355.91,2254.63,-0.22,10231.66,2363.01,-0.22,2195.71,2080.26,-0.22,9352.61,880.26,-0.18,1973.06
699900,1308.82,895.60,1.00,1,1,1,3288.56,-0.23,99457.74,2986.61,-0.22,46641.63,2049.88,-0.23,20039.20,1778.27,-0.23,19283.33,898.50,-0.19,1454.91
715800,1350.52,886.18,1.00,1,1,1,2688.47,-0.22,37748.90,1811.79,-0.25,73965.31,2156.81,-0.26,7743.70,1410.79,-0.26,23275.64,960.51,-0.20,3937.22
739800,1378.91,877.90,1.00,1,1,1,1232.37,-0.28,60851.95,1340.22,-0.33,20413.17,1202.21,-0.30,39857.01,1153.94,-0.28,10737.11,1033.44,-0.21,3060.28
747700,1390.93,872.22,1.00,1,1,1,1682.18,-0.44,63729.49,426.03,-0.57,117913.37,374.83,-0.58,107469.38,882.92,-0.30,34404.33,1200.98,-0.21,21212.69
770400,1389.89,870.86,1.00,1,1,1,75.40,-2.22,74874.94,476.76,-3.11,38011.41,167.45,-2.47,20073.50,472.71,-0.35,18139.18,1117.08,-0.20,3697.58
786200,1372.58,871.70,1.00,1,1,1,1096.72,3.09,66814.45,612.95,3.11,8854.01,301.36,3.10,13034.77,161.81,-0.52,19899.94,1041.23,-0.20,4800.30
801500,1370.83,871.45,1.00,1,1,1,115.27,-3.00,64299.73,89.36,2.64,34964.70,374.94,3.00,5341.37,140.31,-0.34,2281.73,952.62,-0.19,5858.77
816500,1370.21,873.01,1.00,1,1,1,111.95,1.95,9360.78,150.42,2.50,4204.22,38.37,2.06,23562.31,351.65,-0.11,14474.60,809.93,-0.18,9520.17
831500,1367.22,874.15,1.00,1,1,1,213.49,2.78,10691.19,34.66,0.93,10302.12,342.43,-0.00,24150.33,487.61,-0.10,9069.46,695.68,-0.15,7771.74
863100,1371.18,874.30,1.00,2,2,2,125.57,0.04,10528.70,638.75,-0.09,19657.81,930.05,-0.09,18666.18,693.87,-0.09,6530.65,601.20,-0.11,3126.02
878800,1397.30,871.41,1.00,2,2,2,1674.06,-0.11,98724.84,2301.18,-0.11,105900.19,1047.51,-0.11,7585.59,786.64,-0.08,5940.16,600.08,-0.05,2292.27
894100,1442.07,866.34,1.00,3,3,3,2944.71,-0.11,83050.15,1460.85,-0.12,54937.43,1396.53,-0.11,22812.71,763.77,-0.09,1532.48,570.18,-0.06,2008.37
925600,1465.16,863.08,1.00,1,1,1,740.30,-0.14,69992.96,803.65,-0.12,20863.86,1154.93,-0.10,7699.04,869.36,-0.07,3368.80,578.21,-0.19,2379.68
941400,1479.81,861.81,1.00,1,1,1,930.76,-0.09,12379.97,849.52,-0.06,4401.65,636.30,-0.08,32842.27,1014.13,-0.05,9267.82,649.26,-0.23,4727.72
972300,1504.77,860.85,1.00,1,1,1,808.33,-0.04,4186.36,490.94,-0.02,11631.76,674.19,-0.00,1990.32,999.25,-0.01,1270.92,672.66,-0.19,1044.16
995300,1506.27,861.33,1.00,1,1,1,68.31,0.31,32365.25,463.91,0.11,2974.13,665.87,0.08,2429.22,767.25,-0.04,10128.95,691.53,-0.18,954.16
1010400,1522.33,862.85,1.00,1,1,1,1068.59,0.09,66351.39,986.92,0.16,34712.49,804.64,0.15,9864.08,677.20,-0.26,11986.59,663.65,-0.10,4002.64
1025400,1535.57,866.20,1.00,1,1,1,910.43,0.25,14543.90,1226.77,0.17,15996.32,983.80,0.01,14777.79,619.18,-0.37,6355.50,589.24,0.09,9213.78
1041200,1559.57,869.27,1.00,2,2,2,1531.06,0.13,40286.18,1003.80,-0.14,26104.23,746.06,-0.57,34121.60,556.25,-0.38,4001.50,409.65,0.62,19919.56
1057000,1566.97,861.67,1.00,2,2,2,671.61,-0.80,79048.17,998.20,-1.51,79909.09,712.19,-0.82,12064.92,609.87,-0.32,4022.59,477.04,1.68,28600.50
1072700,1561.54,837.89,1.00,3,3,3,1553.42,-1.80,83783.71,792.27,-1.40,14575.61,566.98,-1.07,13682.71,403.06,-0.17,14064.64,882.76,2.10,31049.28
1103700,1573.41,825.24,1.00,1,1,1,559.78,-0.82,42730.21,440.86,-0.38,21750.94,436.47,-0.94,4743.25,195.28,1.05,12315.95,1226.33,2.27,12485.95
1119400,1580.67,830.28,1.00,1,1,1,562.89,0.61,46740.94,519.42,0.58,28429.19,290.55,0.75,35160.05,681.68,2.26,40731.16,1669.71,2.40,30695.64
1135200,1587.14,834.14,1.00,1,1,1,476.84,0.54,5910.41,737.66,1.68,43335.69,1097.88,1.93,64674.65,1450.23,2.33,48845.49,1770.16,2.51,12867.67
1150900,1578.17,853.38,1.00,1,1,1,1352.56,2.01,88414.67,2143.09,2.16,97452.15,2220.40,2.20,76403.74,2356.56,2.31,57753.21,1684.28,2.69,21305.55
1166700,1549.37,890.09,1.00,2,2,2,2952.71,2.24,105304.08,3812.61,2.29,108195.60,3784.81,2.31,101152.22,3265.89,2.37,58550.96,1302.66,-3.14,48493.91
1182500,1498.51,943.77,1.00,2,2,2,4680.41,2.33,111536.45,5452.82,2.37,105985.06,5300.75,2.38,98072.13,3941.53,2.45,46397.72,681.68,2.26,64611.45
1198300,1426.20,1010.58,1.00,4,4,4,6231.11,2.40,100727.76,6831.76,2.43,90797.82,5093.55,2.45,25822.39,3856.52,2.55,24030.29,1450.23,2.33,48845.49
1213700,1336.80,1082.63,1.00,4,4,4,7455.88,2.46,84974.68,4875.99,2.51,130384.47,5391.43,2.54,35708.16,3533.75,2.72,46359.11,2356.56,2.31,58878.27
1245800,1239.15,1147.17,1.00,4,4,4,3646.30,2.56,119661.04,4502.70,2.64,22430.49,4020.28,2.70,48617.08,2563.34,-3.08,54109.27,3265.89,2.37,28819.47
1261600,1147.44,1185.89,1.00,4,4,4,6300.59,2.74,177057.40,3372.04,2.97,107989.89,2818.53,-3.13,122202.92,5391.43,2.54,236215.46,3941.53,2.45,46397.72
1293100,1081.95,1174.12,1.00,2,2,2,2112.35,-2.96,148403.77,2801.86,-2.20,104240.61,3791.94,-1.89,124824.83,4020.28,2.70,49543.12,3856.52,2.55,12053.29
1308400,1069.89,1080.15,1.00,2,2,2,6192.61,-1.70,386378.17,10139.01,-1.37,556959.40,2801.86,-2.20,93064.15,2818.53,-3.13,126196.48,3533.75,2.72,46662.11
1324300,1146.21,864.38,1.00,2,2,2,14393.98,-1.23,584593.64,14393.98,-1.23,286675.73,10139.01,-1.37,535942.06,3791.94,-1.89,247294.48,2563.34,-3.08,109239.47
