@RELATION gaze_labels

%@METADATA width_px 1920
%@METADATA height_px 1080
%@METADATA width_mm 540.00
%@METADATA height_mm 254.00
%@METADATA distance_mm 620.00


@ATTRIBUTE time INTEGER
@ATTRIBUTE x NUMERIC
@ATTRIBUTE y NUMERIC
@ATTRIBUTE confidence NUMERIC
@ATTRIBUTE handlabeller1 INTEGER
@ATTRIBUTE handlabeller2 INTEGER
@ATTRIBUTE handlabeller_final INTEGER
@ATTRIBUTE speed_1 numeric
@ATTRIBUTE direction_1 numeric
@ATTRIBUTE acceleration_1 numeric
@ATTRIBUTE speed_2 numeric
@ATTRIBUTE direction_2 numeric
@ATTRIBUTE acceleration_2 numeric
@ATTRIBUTE speed_4 numeric
@ATTRIBUTE direction_4 numeric
@ATTRIBUTE acceleration_4 numeric
@ATTRIBUTE speed_8 numeric
@ATTRIBUTE direction_8 numeric
@ATTRIBUTE acceleration_8 numeric
@ATTRIBUTE speed_16 numeric
@ATTRIBUTE direction_16 numeric
@ATTRIBUTE acceleration_16 numeric

%The number after speed, direction denotes the step size that was used for the calculation.
%Acceleration was calculated between two adjacent samples of the already low pass filtered velocity

@DATA
0,342.77,492.59,1.00,1,1,1,0.00,0.00,0.00,539.35,2.42,0.00,518.88,2.45,0.00,406.27,2.98,0.00,148.03,2.68,0.00
34600,328.72,504.87,1.00,1,1,1,539.35,2.42,15588.19,518.88,2.45,755.85,287.10,2.98,8872.48,564.35,-2.72,9219.78,104.12,-2.96,2610.20
48700,323.24,508.63,1.00,1,1,1,471.04,2.54,6406.20,287.10,2.98,21772.19,406.27,2.98,8451.69,524.11,-2.82,4996.87,313.85,-2.60,15546.56
63100,320.64,506.17,1.00,1,1,1,248.22,-2.39,33587.85,495.03,-2.51,24735.00,564.35,-2.72,22153.08,84.93,3.01,31178.78,185.68,-2.87,9980.22
84700,308.81,498.16,1.00,1,1,1,661.28,-2.55,19359.79,830.28,-2.57,15597.13,524.11,-2.82,3261.85,148.03,2.68,3398.29,377.18,0.14,26009.93
99200,295.49,489.86,1.00,1,1,1,1082.40,-2.58,29125.45,616.79,-3.13,31060.25,84.93,3.01,30963.76,104.12,-2.96,6228.48,1205.28,0.14,57110.68
114100,290.68,497.91,1.00,1,1,1,629.49,2.11,84712.06,570.66,0.75,74346.92,165.23,0.42,16238.60,313.85,-2.60,14711.85,1871.18,0.05,45559.46
143300,313.88,507.04,1.00,1,1,1,853.93,0.37,39062.66,605.72,0.18,11355.58,219.27,0.62,2267.12,185.68,-2.87,4921.75,2330.99,-0.03,16800.46
164900,320.94,503.51,1.00,1,1,1,365.21,-0.46,30911.79,106.76,-1.85,30551.65,193.11,-2.18,18806.39,377.18,0.14,26009.93,1073.94,-0.12,58616.45
193800,312.42,501.85,1.00,1,1,1,300.28,-2.95,21810.61,1059.42,-2.67,34270.53,287.48,-2.77,5752.64,1205.28,0.14,28654.15,1102.32,-0.20,3172.64
207800,280.35,483.05,1.00,2,2,2,2655.10,-2.61,169564.89,617.58,-2.97,35722.94,566.56,0.07,60370.63,1871.18,0.05,48488.28,1116.96,-0.24,3411.71
229200,290.89,498.02,1.00,2,2,2,855.51,0.96,161310.87,1917.70,0.25,118407.07,2428.80,0.09,87030.22,2330.99,-0.03,22923.99,1137.97,-0.19,2913.56
258000,373.56,507.14,1.00,3,3,3,2887.68,0.11,83618.93,4941.00,0.10,106219.72,4045.15,0.10,56124.14,2349.84,-0.15,9585.77,1283.50,-0.09,6523.17
272100,501.78,519.42,1.00,1,1,1,9135.37,0.10,443129.94,7082.63,0.04,154338.36,5172.74,-0.00,86202.24,2445.74,-0.19,9624.31,1473.01,-0.02,15100.83
293700,626.24,516.20,1.00,1,1,1,5764.20,-0.03,161297.27,5519.94,-0.12,84743.60,4974.07,-0.18,42481.87,2551.59,-0.15,6232.33,1731.00,-0.08,12607.91
307700,696.95,496.53,1.00,1,1,1,5242.37,-0.27,103150.82,3163.27,-0.84,269505.12,2707.08,-0.49,181190.26,2650.55,-0.16,7110.81,2006.68,-0.12,20381.09
321800,685.75,450.17,1.00,1,1,1,3382.59,-1.81,435520.13,2578.69,-2.20,258874.80,1509.82,-1.24,134415.95,2521.12,-0.14,9639.52,2413.48,-0.13,28912.73
335900,654.01,437.84,1.00,1,1,1,2414.60,-2.77,199916.08,1046.52,-2.41,111335.83,1004.96,-2.06,78545.56,1831.63,-0.15,48948.02,2913.71,-0.11,35707.79
357500,657.92,425.23,1.00,1,1,1,611.08,-1.27,113388.54,337.80,0.09,61681.53,226.57,0.92,56907.39,1605.19,-0.27,14089.97,3082.64,-0.07,9443.65
372600,666.36,438.92,1.00,1,1,1,1064.99,1.02,101811.69,1781.66,0.79,101862.75,1443.83,0.37,83252.94,1661.21,-0.26,3866.22,3290.21,-0.07,13780.64
386600,694.60,461.88,1.00,2,2,2,2599.42,0.68,116581.04,2404.83,0.40,71903.64,2427.54,0.15,75779.02,2483.77,-0.11,62649.45,3086.50,-0.09,15270.53
415400,761.13,479.08,1.00,2,2,2,2386.14,0.25,37612.02,3072.49,-0.05,47959.20,3338.09,-0.02,35800.05,3389.57,-0.05,32034.66,2393.01,-0.11,24152.08
436000,846.21,454.62,1.00,3,3,3,4296.93,-0.28,123699.12,4881.85,-0.26,96582.22,4439.27,-0.15,59008.99,3654.22,-0.01,14796.79,2002.75,-0.13,19199.94
450300,925.70,434.96,1.00,3,3,3,5726.55,-0.24,100812.71,6798.53,-0.23,134790.50,6007.04,-0.17,110016.98,3952.88,-0.00,20944.45,1630.70,-0.11,26203.63
465200,1039.65,410.04,1.00,1,1,1,7828.54,-0.22,141600.89,7396.51,-0.11,70215.33,5209.43,-0.10,59980.27,3553.30,-0.05,29633.26,1619.42,-0.00,11479.21
479400,1139.74,412.33,1.00,1,1,1,7050.59,0.02,135816.85,3999.20,0.07,248731.78,4691.72,0.01,52558.45,2886.52,-0.08,47272.60,1809.40,0.01,13546.50
500500,1180.45,420.27,1.00,1,1,1,1965.69,0.19,242842.71,2607.13,0.27,72415.59,2722.57,0.10,94713.06,2383.24,-0.05,24091.86,2001.58,0.03,9263.28
515000,1229.25,436.89,1.00,1,1,1,3555.13,0.33,112370.58,1690.65,0.16,65173.47,980.07,0.31,122427.73,1634.37,0.01,52391.27,2123.46,0.01,9159.08
544000,1253.08,431.84,1.00,1,1,1,840.05,-0.21,98822.30,101.78,0.95,55876.64,474.31,0.35,17468.58,960.40,0.22,24903.70,2236.77,-0.10,9045.85
579400,1233.09,442.21,1.00,1,1,1,636.19,2.66,41331.24,626.57,3.02,19259.67,101.27,2.95,15919.69,570.56,0.33,11244.75,2230.22,-0.04,3752.08
593900,1222.03,435.55,1.00,1,1,1,889.81,-2.60,53620.35,312.11,-2.94,23806.10,492.43,2.81,27063.56,636.95,0.23,6212.34,1906.44,0.15,35330.73
629100,1217.90,439.06,1.00,2,2,2,154.10,2.44,24237.48,393.91,2.47,8741.61,53.14,0.84,14651.51,665.65,0.05,3390.46,1139.71,0.47,25548.24
643500,1206.71,447.66,1.00,2,2,2,980.41,2.49,57396.78,669.72,0.33,65424.10,839.15,0.15,55477.46,989.23,-0.27,28888.94,667.20,2.25,99650.41
657500,1235.87,445.29,1.00,1,1,1,2089.79,-0.08,211512.11,2828.33,-0.03,158287.79,2017.67,0.03,84867.76,1482.94,0.03,44074.51,1905.63,2.95,104506.16
671800,1286.71,445.07,1.00,1,1,1,3555.24,-0.00,103525.65,3106.21,-0.02,19585.58,3284.64,-0.29,105128.28,1524.10,0.50,48776.39,2692.21,3.08,58475.07
693600,1347.98,442.97,1.00,1,1,1,2812.23,-0.03,34357.08,3757.09,-0.43,71003.25,3228.73,0.02,45546.61,1212.48,1.44,58276.67,2730.12,2.94,17185.70
707700,1409.04,388.27,1.00,4,4,4,5814.60,-0.73,289199.81,3390.39,0.07,128356.09,2440.40,0.65,134875.66,2301.78,2.74,162492.68,2301.68,2.55,75028.29
722200,1444.72,449.48,1.00,4,4,4,4886.30,1.04,573400.27,5304.07,1.55,416320.29,2917.76,2.20,260359.15,4919.79,3.03,192542.58,2192.95,1.90,99464.55
736300,1412.32,539.93,1.00,4,4,4,6814.23,1.91,371653.02,7138.96,2.53,432474.85,6876.49,2.78,334634.48,6487.17,3.11,116370.32,2205.22,1.63,41816.56
757500,1237.89,593.45,1.00,4,4,4,8606.16,2.84,334507.27,10247.41,3.07,259079.17,11677.36,3.06,254130.30,6984.12,2.97,50271.85,1925.76,1.72,15629.48
785900,905.37,576.63,1.00,4,4,4,11723.43,-3.09,164516.75,16510.83,-3.05,233659.89,12929.24,-3.08,76626.59,6044.42,2.61,88268.76,1430.90,2.08,27263.00
800000,539.44,525.87,1.00,4,4,4,26200.87,-3.00,1032484.07,16956.20,-2.97,97689.73,11119.88,3.12,145187.19,5049.38,2.19,178963.76,1499.37,2.55,48675.75
821000,319.23,473.37,1.00,4,4,4,10779.98,-2.91,738348.42,5297.91,2.68,623437.10,5345.74,2.34,392090.87,3925.82,1.98,69921.65,1687.42,2.83,22953.94
835400,371.81,609.97,1.00,4,4,4,10164.18,1.20,1287095.51,17041.94,0.79,1345041.82,11046.01,0.80,842020.40,2563.77,1.83,100192.18,1744.42,2.88,6755.87
849900,667.04,822.09,1.00,4,4,4,25070.97,0.62,1205725.25,27527.23,0.57,791974.00,16441.73,0.61,412136.49,1638.38,1.24,104047.41,1972.74,2.88,15751.54
863800,1029.96,1031.88,1.00,4,4,4,30158.01,0.52,414947.46,16352.94,0.46,821672.95,10814.62,0.45,432068.53,2206.43,0.51,105977.63,2007.80,3.05,24345.75
885000,1181.70,1076.22,1.00,4,4,4,7456.92,0.28,1084097.10,2343.01,-0.44,708007.27,3281.26,0.02,374992.16,2769.35,0.29,36325.71,1853.72,-3.06,17071.91
914000,1136.29,981.60,1.00,4,4,4,3618.87,-2.02,352946.12,4828.90,-2.22,199732.05,3762.57,-2.06,209638.48,2466.46,-0.05,32358.19,1308.24,-2.94,19985.27
949300,993.11,829.56,1.00,4,4,4,5916.56,-2.33,76507.27,8051.71,-2.36,94286.03,5803.65,-2.29,65577.11,1703.64,-1.11,62844.41,320.19,-2.46,29323.05
963400,854.82,700.57,1.00,4,4,4,13411.94,-2.39,533160.63,7308.35,-2.36,52731.26,5149.91,-2.26,47556.64,3194.41,-1.98,174054.00,1150.48,-0.03,99883.35
991900,772.36,610.01,1.00,1,1,1,4297.36,-2.31,320547.43,2422.10,-1.95,181481.73,4351.16,-2.18,31564.51,4004.05,-2.12,33931.69,2061.65,0.03,32117.90
1013200,809.83,588.65,1.00,1,1,1,2024.59,-0.52,241098.32,1849.18,-1.13,83748.85,2520.71,-1.82,101725.07,3458.10,-2.15,25951.20,2213.79,-0.20,24389.18
1027200,800.10,550.92,1.00,1,1,1,2783.41,-1.82,212923.60,2775.77,-1.63,103865.88,1967.31,-1.17,109262.67,2501.17,-2.05,71410.46,1891.55,-0.71,76739.08
1042200,804.93,508.31,1.00,1,1,1,2859.05,-1.46,68451.06,2115.51,-1.22,79829.50,1282.70,-1.34,49080.02,1226.88,-1.29,121048.95,1955.59,-1.37,83181.89
1056100,821.31,493.58,1.00,1,1,1,1584.99,-0.73,142219.94,668.77,0.02,143574.51,731.42,-0.88,50779.53,1591.72,-0.52,80601.89,2042.95,-1.59,32135.60
1077200,828.33,508.67,1.00,1,1,1,788.95,1.14,93190.56,651.36,1.19,34742.78,1321.39,0.07,51222.65,1992.63,-0.44,19926.13,1814.20,-1.46,16181.38
1091100,829.72,514.77,1.00,2,2,2,449.72,1.35,26013.14,1856.24,0.09,119948.31,1854.04,-0.00,39309.78,2444.58,-0.36,35132.11,1531.17,-1.04,53625.76
1120000,907.46,515.79,1.00,2,2,2,2690.01,0.01,90682.16,3013.43,-0.15,44428.98,3079.93,-0.18,44682.71,2554.41,-0.25,10338.68,1467.74,-0.65,20429.23
1141200,979.09,492.79,1.00,1,1,1,3548.70,-0.31,62040.59,4670.09,-0.30,82790.88,3932.04,-0.28,44056.52,2383.48,-0.20,9732.78,1582.37,-0.42,17463.48
1155500,1065.81,466.68,1.00,1,1,1,6333.06,-0.29,194803.79,5658.10,-0.42,80529.44,4177.57,-0.37,30168.10,2659.86,-0.21,19343.53,1391.75,-0.39,13492.86
1169500,1125.56,428.10,1.00,1,1,1,5080.62,-0.57,144421.01,3595.51,-0.49,149272.81,3171.45,-0.36,71996.56,2570.01,-0.20,6626.41,1343.14,-0.29,10657.00
1183600,1154.93,419.09,1.00,1,1,1,2178.51,-0.30,215780.00,1243.14,-0.14,174915.08,2152.10,-0.26,74286.20,2127.60,-0.27,33731.21,1292.49,-0.15,13545.06
1205300,1169.64,421.97,1.00,1,1,1,691.01,0.19,73857.95,1266.00,0.26,22805.51,1264.44,0.07,48258.92,1589.97,-0.31,24962.23,1242.01,-0.07,5071.01
1219600,1198.99,430.74,1.00,1,1,1,2141.85,0.29,101791.43,1325.06,0.24,4345.80,690.77,0.19,40814.09,850.35,-0.29,51748.39,1169.01,-0.11,5900.90
1247600,1224.04,435.49,1.00,1,1,1,910.54,0.19,44273.62,281.75,-0.04,37754.11,314.57,0.09,13537.75,419.41,0.06,17117.04,1157.08,-0.15,1634.90
1269100,1212.93,430.24,1.00,1,1,1,571.63,-2.70,68411.76,903.72,-2.78,54357.99,69.21,-2.86,17800.61,302.41,0.64,10869.92,898.90,-0.27,13410.38
1283100,1194.02,424.18,1.00,1,1,1,1418.39,-2.83,61069.43,474.62,-3.08,33619.12,348.14,-3.04,20029.51,372.91,0.72,5380.47,544.35,-0.36,25724.30
1311400,1192.89,428.95,1.00,1,1,1,173.41,1.80,50969.76,165.65,1.54,18259.17,332.73,2.35,10329.47,207.06,1.52,9639.88,78.12,-1.89,19319.86
1333600,1194.25,432.54,1.00,1,1,1,172.61,1.21,4547.05,552.38,1.48,17439.14,497.05,1.04,23610.14,223.82,2.41,8359.48,384.61,2.64,18272.34
1347200,1194.60,448.66,1.00,1,1,1,1185.32,1.55,75304.61,921.54,0.93,39419.55,456.58,1.37,11911.30,270.21,2.87,9010.36,617.84,2.67,17177.42
1376000,1217.52,463.92,1.00,1,1,1,956.36,0.59,35102.43,394.12,1.25,19481.56,353.98,1.48,3893.53,408.11,2.97,4925.32,678.48,2.77,3007.22
1397800,1200.86,467.59,1.00,2,2,2,782.77,2.92,73480.69,589.86,-2.96,39100.82,300.39,-2.83,25053.54,896.99,3.03,22483.08,803.88,2.90,7336.54
1411800,1196.75,460.11,1.00,2,2,2,609.68,-2.07,60446.14,1387.20,-2.40,67081.33,1430.80,-2.82,80746.38,1255.66,2.85,29124.27,861.02,2.99,6704.15
1425800,1172.11,441.47,1.00,2,2,2,2206.95,-2.49,119251.26,2515.83,-2.78,94488.40,2235.17,-2.98,60942.67,1500.69,2.88,17718.83,839.01,3.00,1813.98
1439800,1130.97,434.90,1.00,1,1,1,2975.29,-2.98,104206.22,3104.73,3.12,87637.73,2703.69,3.00,62846.90,1727.30,2.99,21150.86,742.46,2.85,11186.20
1462500,1058.19,443.94,1.00,1,1,1,3231.01,3.02,40008.73,3212.45,2.71,56327.64,2996.17,2.81,27136.85,1815.50,3.05,5585.29,744.72,2.79,1977.04
1477200,1021.66,484.75,1.00,1,1,1,3726.11,2.30,169062.58,3267.57,2.44,60403.28,2147.46,2.75,58596.57,1634.03,3.08,12818.60,793.71,2.78,3345.92
1491700,985.35,505.57,1.00,1,1,1,2886.33,2.62,92470.24,1232.43,2.84,150855.11,1592.96,2.72,38490.71,1460.16,3.03,12893.65,832.97,2.84,4396.12
1520400,970.79,500.48,1.00,1,1,1,537.24,-2.81,89434.91,819.47,-2.73,28267.08,771.29,-2.99,35981.80,1110.12,2.80,15958.36,823.26,2.96,3265.56
1535100,952.73,491.40,1.00,1,1,1,1375.49,-2.68,57525.27,741.48,-1.93,41712.08,595.49,-2.07,42556.73,652.68,2.43,37654.94,522.75,3.05,20889.50
1556100,961.48,475.70,1.00,1,1,1,855.76,-1.06,78607.36,817.16,-1.21,26431.83,232.78,-0.90,26156.15,339.94,2.54,15077.04,222.87,2.91,14467.95
1570000,962.84,464.73,1.00,1,1,1,795.24,-1.45,23133.70,808.76,0.62,92527.70,533.24,0.37,36960.18,160.96,2.53,12876.41,165.40,0.64,25375.93
1584200,980.02,488.84,1.00,1,1,1,2084.94,0.95,191861.31,1337.49,1.02,47229.34,663.40,1.06,29966.92,111.92,0.45,16700.69,437.92,0.24,20599.34
1605200,987.64,504.75,1.00,1,1,1,839.87,1.12,60271.16,670.08,1.49,38139.49,850.03,1.50,17985.84,556.31,-0.11,22140.03,697.21,0.13,12685.76
1619300,981.97,512.28,1.00,1,1,1,669.07,2.22,56557.81,889.86,2.56,58078.93,244.02,1.30,43471.69,1078.99,-0.00,37531.04,776.45,-0.07,11997.28
1633500,966.60,518.58,1.00,1,1,1,1169.56,2.75,48287.88,133.85,-0.99,71421.78,642.72,-0.39,50302.32,1409.31,0.03,23463.95,838.70,-0.18,7433.81
1663100,985.19,507.39,1.00,2,2,2,733.21,-0.54,64104.93,1294.06,-0.45,39908.01,1632.64,-0.24,33848.53,1616.33,-0.07,8750.97,865.43,-0.14,1305.73
1699600,1043.71,481.56,1.00,3,3,3,1752.41,-0.42,28195.95,2967.16,-0.21,47507.80,2185.50,-0.18,15475.90,1684.16,-0.11,2630.00,914.79,-0.16,1436.94
1713500,1131.31,475.55,1.00,1,1,1,6317.03,-0.07,338641.00,3470.38,-0.05,52873.11,2860.19,-0.13,49210.98,1665.09,-0.16,5837.60,928.58,-0.13,2274.77
1749000,1214.95,473.44,1.00,1,1,1,2356.91,-0.03,111651.23,2771.37,-0.05,19690.52,2988.28,-0.04,8817.03,1621.61,-0.21,2717.44,983.84,-0.07,2219.10
1763000,1268.34,469.01,1.00,1,1,1,3826.19,-0.08,105670.35,2147.99,-0.01,45071.09,1719.35,-0.06,90716.61,1485.56,-0.18,10344.56,867.70,-0.16,9890.97
1777300,1275.74,472.97,1.00,1,1,1,587.21,0.49,234153.91,128.96,-2.71,158431.80,602.92,-0.41,81842.24,1295.11,-0.19,13365.92,497.43,-0.20,25984.08
1791400,1265.00,467.49,1.00,1,1,1,854.92,-2.67,102274.11,852.89,-2.63,51382.75,311.37,-2.79,60764.06,804.09,-0.30,35805.37,68.07,-2.53,38746.47
1812100,1249.89,458.38,1.00,1,1,1,852.37,-2.60,2898.37,415.89,-2.81,21739.07,576.98,-2.43,14797.63,496.46,-0.47,15721.64,549.82,-3.03,23726.69
1841100,1245.47,460.72,1.00,1,1,1,172.51,2.65,26818.37,390.97,-2.08,9906.20,380.71,-1.84,11562.53,188.46,-2.08,18556.54,1051.51,-2.96,17400.87
1855200,1241.64,443.69,1.00,1,1,1,1238.34,-1.79,91805.81,756.05,-1.15,43173.88,413.45,-0.55,34018.18,952.16,3.14,62097.77,1295.11,-0.19,163553.64
1876400,1256.29,436.32,1.00,2,2,2,773.34,-0.47,60916.55,1011.82,-0.06,44435.91,279.64,-1.00,9535.39,2032.45,3.03,51416.55,804.09,-0.30,23813.95
1890900,1277.69,441.38,1.00,2,2,2,1516.62,0.23,72368.27,326.33,1.69,77088.34,1644.49,2.86,128614.54,3227.52,3.05,82489.32,496.46,-0.47,22444.00
1905200,1255.18,445.66,1.00,2,2,2,1601.80,2.95,213287.24,4972.26,2.91,340648.62,4679.01,2.93,212651.88,4502.59,-3.12,93789.05,188.46,-2.08,37632.14
1919200,1140.63,473.25,1.00,3,3,3,8416.56,2.91,486935.80,8434.95,2.96,248204.35,7667.48,3.02,217431.19,1644.49,2.86,212602.77,952.16,3.14,62541.32
1940300,964.09,499.71,1.00,1,1,1,8460.06,2.99,35090.08,9844.44,3.07,82302.44,9161.87,3.14,83777.58,4679.01,2.93,144119.52,2032.45,3.03,51660.23
1954800,791.08,498.55,1.00,1,1,1,11932.20,-3.13,262545.27,10371.50,-2.97,174261.71,9844.44,3.07,64801.94,7667.48,3.02,209933.56,3227.52,3.05,82489.32
1969200,668.83,448.14,1.00,1,1,1,9183.22,-2.75,336986.94,9183.22,-2.75,169076.49,10371.50,-2.97,175471.86,9161.87,3.14,122757.42,4502.59,-3.12,93137.73
