@RELATION gaze_labels

%@METADATA width_px 1920
%@METADATA height_px 1080
%@METADATA width_mm 540.00
%@METADATA height_mm 254.00
%@METADATA distance_mm 620.00


@ATTRIBUTE time INTEGER
@ATTRIBUTE x NUMERIC
@ATTRIBUTE y NUMERIC
@ATTRIBUTE confidence NUMERIC
@ATTRIBUTE handlabeller1 INTEGER
@ATTRIBUTE handlabeller2 INTEGER
@ATTRIBUTE handlabeller_final INTEGER
@ATTRIBUTE speed_1 numeric
@ATTRIBUTE direction_1 numeric
@ATTRIBUTE acceleration_1 numeric
@ATTRIBUTE speed_2 numeric
@ATTRIBUTE direction_2 numeric
@ATTRIBUTE acceleration_2 numeric
@ATTRIBUTE speed_4 numeric
@ATTRIBUTE direction_4 numeric
@ATTRIBUTE acceleration_4 numeric
@ATTRIBUTE speed_8 numeric
@ATTRIBUTE direction_8 numeric
@ATTRIBUTE acceleration_8 numeric
@ATTRIBUTE speed_16 numeric
@ATTRIBUTE direction_16 numeric
@ATTRIBUTE acceleration_16 numeric

%The number after speed, direction denotes the step size that was used for the calculation.
%Acceleration was calculated between two adjacent samples of the already low pass filtered velocity

@DATA
0,287.51,371.89,1.00,1,1,1,0.00,0.00,0.00,4847.04,0.66,0.00,3201.55,0.86,0.00,1093.54,1.12,0.00,886.88,0.78,0.00
14400,342.68,414.65,1.00,1,1,1,4847.04,0.66,336600.23,3201.55,0.86,126377.12,1479.35,1.89,191539.22,508.80,1.56,46503.27,362.78,1.26,40958.70
28800,347.89,441.58,1.00,1,1,1,1905.14,1.38,252754.24,1479.35,1.89,191539.22,1093.54,1.12,71920.21,332.71,0.75,25606.27,222.03,0.79,13332.88
43400,329.12,455.35,1.00,1,1,1,1594.16,2.51,129468.50,482.69,2.82,85808.83,508.80,1.56,45866.24,537.01,-0.08,27257.09,385.57,0.22,15998.80
78500,325.10,449.07,1.00,1,1,1,212.36,-2.14,46193.78,243.75,0.45,19361.72,332.71,0.75,10505.14,886.88,0.78,19164.57,1103.40,0.20,20451.84
107800,343.26,462.16,1.00,1,1,1,764.14,0.62,32928.73,1072.19,0.29,28402.74,537.01,-0.08,13582.03,362.78,1.26,20129.87,1862.98,0.07,26743.36
123100,370.86,462.95,1.00,1,1,1,1804.55,0.03,81582.19,967.69,-0.25,36213.61,825.60,0.40,28044.99,222.03,0.79,12548.60,2272.51,0.07,26769.03
158200,390.56,450.28,1.00,1,1,1,667.46,-0.57,37300.31,618.60,0.56,19981.38,281.55,0.64,15849.39,385.57,0.22,6654.77,2448.97,0.02,6025.04
173000,396.98,479.40,1.00,1,1,1,2014.84,1.35,157580.97,1065.52,2.38,91720.23,100.93,0.96,12718.61,1103.40,0.20,48504.03,1513.98,0.14,65014.78
194200,362.76,476.71,1.00,2,2,2,1619.21,-3.06,138180.18,660.53,-2.72,47974.30,321.30,1.27,10721.64,1862.98,0.07,36961.34,1204.09,-0.01,17246.59
208100,375.80,469.96,1.00,2,2,2,1056.37,-0.48,185439.78,1199.42,-0.19,128187.26,1553.72,0.05,105937.38,2272.51,0.07,29465.19,1178.40,-0.02,1993.84
223100,396.80,470.17,1.00,2,2,2,1399.98,0.01,45324.64,4190.56,0.12,204713.17,4333.73,0.02,185436.49,2448.97,0.02,14098.59,1228.55,-0.04,4030.62
237100,496.43,484.68,1.00,1,1,1,7191.69,0.14,414814.71,7587.86,0.05,244322.43,5170.95,0.05,60705.00,2568.16,-0.12,25523.24,1314.32,-0.02,6458.12
251200,609.74,481.01,1.00,1,1,1,8040.40,-0.03,112737.18,5979.34,0.01,116003.26,4391.69,-0.04,62564.76,2620.09,-0.17,11363.95,1328.95,-0.01,1529.23
272900,710.49,486.13,1.00,1,1,1,4648.64,0.05,158051.17,2660.25,-0.18,156760.82,3420.08,-0.18,51224.54,2473.90,-0.10,11244.28,1244.29,0.02,4316.13
301800,742.17,456.86,1.00,1,1,1,1492.44,-0.75,130100.60,1644.98,-0.77,54836.21,1628.30,-0.52,67874.08,2316.60,-0.10,5443.35,1317.69,0.03,2595.49
315700,761.01,437.09,1.00,1,1,1,1964.58,-0.81,34862.12,1319.25,-1.81,108259.31,683.01,-1.25,86934.43,1604.37,-0.19,52938.04,1164.97,-0.04,12600.82
336900,730.99,411.93,1.00,1,1,1,1847.58,-2.44,131175.61,955.61,-3.10,65664.86,417.49,-2.35,29137.28,835.30,-0.18,36284.28,1400.39,-0.04,11108.45
350900,727.40,435.61,1.00,1,1,1,1711.18,1.72,221683.93,968.73,1.84,85542.58,635.55,3.05,35093.73,278.20,-0.35,40213.58,1657.72,-0.04,18384.24
364900,723.72,438.06,1.00,1,1,1,315.68,2.56,108369.60,295.78,2.50,54070.55,729.07,1.53,67340.01,171.70,0.26,12021.05,1881.36,-0.01,16320.33
379500,720.62,440.66,1.00,1,1,1,277.60,2.44,3455.74,622.19,1.16,42916.13,550.20,0.98,26625.27,189.42,1.84,17631.58,1908.07,-0.05,5829.15
400900,732.76,458.55,1.00,1,1,1,1010.29,0.97,47667.93,876.98,0.78,17426.35,624.41,0.54,12551.79,444.12,0.76,18322.88,1764.12,-0.06,6793.88
428900,751.27,471.28,1.00,1,1,1,802.29,0.60,14031.50,787.81,0.13,19228.75,418.35,0.68,7826.16,928.09,0.11,22668.01,1425.49,-0.14,12764.44
443000,765.62,463.00,1.00,1,1,1,1175.08,-0.52,78069.49,94.51,-1.24,54990.36,525.28,0.03,22735.46,1552.43,0.09,44304.55,1234.84,-0.09,14185.94
478600,752.77,466.83,1.00,2,2,2,376.57,2.85,43367.53,317.45,-0.20,7925.39,1553.65,-0.16,29277.31,2169.40,0.03,17635.82,1122.27,-0.06,3353.73
493300,781.28,459.84,1.00,2,2,2,1996.19,-0.24,161386.11,4142.83,-0.13,260290.34,2324.63,0.00,56613.99,2575.98,-0.03,29346.15,1182.43,0.03,7697.88
507600,871.95,451.62,1.00,2,2,2,6366.91,-0.09,307914.13,4315.03,0.02,44542.65,4453.62,-0.04,149222.75,2557.24,-0.11,14807.16,1156.51,-0.04,5791.44
544200,1000.87,463.84,1.00,1,1,1,3538.33,0.09,80913.72,4642.97,0.00,9176.79,4939.77,-0.04,13286.99,2148.42,-0.11,11169.98,1283.34,-0.01,3607.31
558700,1109.20,452.09,1.00,1,1,1,7514.94,-0.11,283526.29,6052.28,-0.11,105356.86,3542.08,-0.09,97670.25,2459.71,-0.14,21834.13,1365.31,-0.01,5669.02
573500,1177.15,444.50,1.00,1,1,1,4619.28,-0.11,195656.97,1829.20,-0.53,300275.94,1945.31,-0.33,116009.47,2129.53,-0.13,22405.29,1344.82,-0.05,4104.11
588000,1155.49,425.08,1.00,1,1,1,2006.32,-2.41,423454.55,1726.46,-2.77,221050.15,536.45,-1.66,130341.52,1421.75,-0.15,48880.63,1355.82,-0.09,3856.85
609000,1119.95,422.48,1.00,1,1,1,1697.00,-3.07,58690.45,1406.94,-2.99,21979.59,1448.82,-2.89,64991.32,934.08,-0.26,24082.77,1162.58,-0.12,9376.83
623600,1105.99,417.43,1.00,1,1,1,1016.79,-2.79,52709.88,1148.51,-3.11,20422.05,1209.56,-3.09,24651.25,287.36,-0.38,44497.70,1150.73,-0.12,816.77
637900,1086.78,421.28,1.00,1,1,1,1370.35,2.94,50891.75,997.49,3.01,16373.98,234.88,2.17,77229.31,135.57,-2.80,27906.04,1062.89,-0.11,6169.96
653200,1076.72,421.28,1.00,1,1,1,657.46,3.14,48171.46,953.49,0.46,122002.38,655.76,0.50,47027.87,75.90,1.09,12956.40,833.17,-0.03,15738.28
667600,1112.16,433.83,1.00,1,1,1,2611.02,0.34,224870.27,1902.88,0.24,68937.52,921.57,0.23,23431.37,30.71,-0.56,5836.57,497.41,-0.20,24510.04
689700,1144.13,438.04,1.00,1,1,1,1458.69,0.13,55316.97,926.85,0.09,45146.57,1077.94,0.16,7715.39,174.64,2.72,9279.80,152.33,-0.70,16773.64
718000,1158.70,437.92,1.00,1,1,1,514.93,-0.01,33617.69,396.90,-0.20,19689.38,209.30,-0.87,34867.77,31.99,1.45,5933.02,171.52,-2.51,9013.29
732000,1160.59,434.75,1.00,1,1,1,263.86,-1.03,31442.80,1115.50,-2.67,103441.59,795.68,-2.97,65683.00,297.53,0.54,19938.47,114.78,-2.97,6105.17
753200,1123.70,420.12,1.00,1,1,1,1871.93,-2.76,91115.21,2188.06,-3.05,57715.80,1113.65,-2.97,14998.47,166.70,0.06,7936.09,18.28,-0.81,5938.40
767600,1083.02,427.65,1.00,1,1,1,2872.89,2.96,112983.76,1236.03,2.98,71913.53,726.32,2.96,34591.64,91.27,-1.54,13348.40,47.60,1.62,4346.18
783000,1087.32,425.89,1.00,1,1,1,301.73,-0.39,205768.51,1139.61,0.48,146589.40,290.44,0.80,59761.23,212.02,-2.35,10588.31,247.54,2.70,14877.61
797800,1113.60,443.45,1.00,1,1,1,2135.43,0.59,133969.38,1185.26,0.18,23091.00,648.06,-0.09,34835.84,247.52,-2.78,7029.19,577.16,2.81,22448.82
827100,1138.70,435.47,1.00,1,1,1,899.05,-0.31,58832.72,576.28,-0.60,29934.86,520.91,-0.25,5384.59,10.73,-1.43,8375.48,1087.72,2.95,17824.44
863100,1144.67,422.22,1.00,1,1,1,403.67,-1.15,19380.58,436.74,-1.74,15522.49,218.89,-1.37,13010.77,130.96,0.22,3670.84,1613.45,3.03,14882.31
877500,1135.03,413.77,1.00,1,1,1,890.41,-2.42,59966.90,523.61,-3.01,39845.00,226.43,-2.28,13640.49,447.49,2.76,38930.12,1862.49,3.07,17971.92
913100,1118.72,418.73,1.00,2,2,2,478.81,2.85,21254.30,240.80,2.75,9459.22,520.40,2.89,13146.17,1212.09,2.97,21892.64,1723.89,3.12,4494.04
927100,1123.97,418.28,1.00,2,2,2,376.15,-0.09,60741.33,681.49,2.34,33612.45,1611.37,2.81,78077.28,2300.02,2.97,77710.54,1640.51,3.06,8975.53
941400,1105.25,432.53,1.00,2,2,2,1645.47,2.49,138017.11,3972.53,2.82,236380.87,3568.60,2.86,137132.77,3593.20,3.00,90631.69,1407.41,2.99,18001.34
955900,1015.52,454.72,1.00,2,2,2,6374.68,2.90,338509.12,5947.50,2.91,139500.62,5699.79,2.92,147947.64,3796.45,3.02,15246.84,1410.31,2.95,3845.91
976900,899.88,481.53,1.00,3,3,3,5652.80,2.91,34624.25,7119.98,2.96,58265.73,7339.50,3.01,83135.50,3631.35,3.08,13069.16,1554.07,3.06,10676.64
991500,766.16,500.20,1.00,1,1,1,9247.48,3.00,250133.72,9123.79,3.09,154810.52,6521.78,3.09,66873.58,3651.12,3.06,6683.31,1714.18,3.03,11545.03
1005700,637.45,494.83,1.00,1,1,1,9072.19,-3.10,116921.17,5950.32,-3.01,242648.81,3805.70,-3.03,199632.00,3282.57,3.01,28746.34,1790.01,2.75,35313.77
1020100,597.46,477.84,1.00,1,1,1,3017.26,-2.74,440135.78,1143.24,-2.21,362298.49,2103.71,-2.91,120650.36,2540.85,2.99,51648.42,1989.96,2.57,26956.72
1055200,603.62,449.46,1.00,1,1,1,827.46,-1.36,84785.29,364.25,-1.00,30462.46,87.03,0.16,62407.89,1998.25,3.14,18328.81,2511.58,2.77,19413.22
1069200,607.05,462.75,1.00,1,1,1,980.29,1.32,125653.87,2199.94,0.85,166393.62,675.46,0.67,42934.15,1051.96,-3.09,67797.86,2957.94,2.98,52076.91
1083200,644.11,495.88,1.00,1,1,1,3550.78,0.73,199221.37,1738.15,0.96,36282.81,546.42,1.21,24978.48,901.71,1.28,113999.61,3136.10,3.09,28066.76
1104600,642.25,513.22,1.00,1,1,1,814.72,1.68,147013.85,876.62,-2.69,118719.29,500.12,1.24,2265.65,1704.34,1.38,37894.17,2519.85,3.01,30677.47
1119000,615.93,482.08,1.00,1,1,1,2831.58,-2.27,239227.14,1127.79,-2.45,23642.01,1939.22,1.33,100142.65,1929.59,2.15,96039.41,1289.62,2.20,131250.88
1133000,617.49,492.90,1.00,4,4,4,781.11,1.43,251316.80,5105.39,1.17,437704.46,3315.06,1.55,105968.02,2381.73,2.88,114199.64,1869.78,1.17,116582.71
1147900,673.87,617.77,1.00,4,4,4,9195.13,1.15,566939.81,6534.43,1.45,144586.69,3256.51,2.26,152785.51,3032.12,-3.10,69227.07,2452.29,0.99,46576.42
1169100,646.56,726.99,1.00,4,4,4,5310.81,1.82,283608.03,4613.71,2.87,349753.51,3919.72,2.96,119986.11,2501.90,3.04,30693.62,2198.70,0.98,12021.39
1197400,453.98,679.45,1.00,4,4,4,7009.27,-2.90,310296.83,6910.44,-2.77,150004.17,5463.24,-2.88,89918.55,1889.81,1.45,112082.83,1772.15,1.08,16462.28
1234100,227.75,564.63,1.00,4,4,4,6912.71,-2.67,43156.74,7279.52,-2.56,41300.09,4647.82,-2.73,30716.20,3787.36,0.97,62104.77,1045.03,1.11,19862.15
1248200,144.15,477.56,1.00,4,4,4,8560.63,-2.34,216679.62,872.84,-0.50,548354.46,2455.05,0.59,501907.85,3725.47,0.94,9736.15,506.38,0.59,46765.02
1262400,249.44,552.80,1.00,4,4,4,9113.53,0.62,1239330.97,12465.12,0.58,850745.70,11754.02,0.56,654963.12,2801.10,0.78,74619.70,528.90,-0.18,27391.65
1297600,657.94,816.97,1.00,4,4,4,13820.32,0.57,134532.01,18248.86,0.59,164313.31,14678.91,0.63,87048.56,2893.47,0.55,18523.74,561.91,-0.05,2216.15
1311800,1000.55,1051.32,1.00,4,4,4,29231.94,0.60,1085943.92,18569.48,0.69,133069.29,11508.02,0.60,224699.48,3871.92,0.34,84090.69,653.16,-0.25,10363.63
1326100,1067.07,1152.68,1.00,4,4,4,8477.96,0.99,1512778.85,580.76,2.33,1302103.58,3573.71,0.50,556707.69,4097.08,0.17,51260.92,701.98,-0.91,31036.27
1340500,989.08,1063.42,1.00,4,4,4,8231.27,-2.29,1157630.05,8229.89,-2.31,575751.46,5993.61,-2.27,653805.78,3559.04,-0.13,86253.99,1067.88,-1.12,28269.44
1362900,862.43,929.42,1.00,4,4,4,8231.48,-2.33,14403.92,10754.71,-2.23,118320.08,7978.10,-2.04,113374.47,2586.04,-1.19,143959.65,1321.15,-0.67,26207.48
1377100,748.93,751.54,1.00,4,4,4,14859.09,-2.14,489401.04,8248.39,-1.81,328748.06,7648.38,-1.88,92888.40,4411.00,-1.86,202034.81,2038.89,-0.22,72122.13
1405700,780.25,586.08,1.00,1,1,1,5887.93,-1.38,395624.61,6393.11,-1.36,129519.23,5890.91,-1.71,72273.28,5265.23,-1.91,31401.72,2383.63,-0.07,16548.87
1420100,806.30,482.69,1.00,1,1,1,7404.57,-1.32,108834.45,3230.76,-1.43,220596.69,4044.57,-1.34,179878.67,4653.28,-1.87,45406.94,2371.82,-0.18,18524.38
1441300,796.76,472.26,1.00,1,1,1,666.67,-2.31,332991.85,1228.73,-1.20,96714.59,2339.03,-1.35,80471.90,3581.73,-1.75,55592.11,2012.94,-0.79,64066.07
1455800,822.03,441.74,1.00,1,1,1,2732.43,-0.88,187700.68,1276.00,-1.11,8379.87,920.89,-1.77,106551.67,2220.63,-1.42,112753.52,2204.44,-1.37,84424.08
1469900,812.84,439.50,1.00,1,1,1,670.97,-2.90,218805.13,1143.83,-2.60,116173.09,776.95,-2.06,19952.36,1234.69,-1.12,78279.62,2488.38,-1.47,25681.18
1483900,794.51,425.13,1.00,1,1,1,1663.29,-2.48,77710.62,1164.35,-2.87,22494.34,427.72,-3.07,47044.23,1133.77,-0.37,62547.12,2146.56,-1.34,32836.76
1504900,773.56,428.63,1.00,1,1,1,1011.44,2.98,58702.68,418.99,1.53,64358.08,575.52,-0.26,47149.03,1926.36,-0.23,38944.76,1954.63,-1.11,23426.19
1519000,795.06,439.83,1.00,2,2,2,1719.40,0.48,184363.73,1932.85,-0.01,139339.36,1997.10,-0.02,102418.98,2000.27,-0.12,16545.67,1625.44,-0.78,48377.67
1547600,856.09,428.15,1.00,3,3,3,2172.57,-0.19,47123.32,3429.33,-0.11,53098.59,3712.63,-0.07,60159.87,2065.17,-0.13,2416.02,1298.96,-0.50,18060.34
1568200,962.84,421.93,1.00,1,1,1,5190.50,-0.06,148046.06,5883.98,-0.09,119198.92,3659.63,-0.11,7312.31,2014.67,-0.08,5349.36,1153.41,-0.24,17059.81
1582700,1061.75,409.19,1.00,1,1,1,6877.91,-0.13,119887.85,3923.14,-0.10,135299.40,3439.63,-0.11,15295.05,2122.28,-0.13,9850.66,1287.35,-0.25,9268.02
1611200,1130.60,404.25,1.00,1,1,1,2422.13,-0.07,156552.91,1706.22,-0.17,77986.71,2038.07,-0.14,49253.82,1846.91,-0.16,9919.02,1004.34,-0.21,10032.04
1632100,1144.87,395.22,1.00,1,1,1,807.91,-0.56,83851.23,423.35,-0.45,62479.94,813.20,-0.37,60283.65,1675.60,-0.12,8959.26,687.10,-0.29,15487.21
1660700,1149.43,395.05,1.00,1,1,1,159.62,-0.04,23594.46,436.57,-2.35,24389.20,238.61,-2.11,30934.28,1189.48,-0.12,16997.19,384.25,-0.23,10640.62
1675100,1131.73,381.82,1.00,1,1,1,1535.16,-2.50,115447.33,835.32,-2.86,34995.33,205.13,3.13,15538.83,712.78,-0.28,34661.37,167.35,-0.16,15109.85
1697300,1120.04,386.63,1.00,1,1,1,569.12,2.75,60178.00,386.19,1.80,42308.83,70.93,1.81,8986.67,188.45,-1.87,33376.04,21.83,-2.56,8285.41
1711400,1128.61,395.48,1.00,1,1,1,873.69,0.80,85524.06,1110.80,0.43,78030.21,584.01,-0.10,43336.62,917.33,-3.02,60841.48,121.82,-2.99,7264.52
1725300,1148.35,399.51,1.00,1,1,1,1449.90,0.20,63396.13,1558.85,-0.40,82858.41,150.58,-1.35,39926.78,1634.28,3.13,52775.84,480.43,3.11,26002.51
1739800,1169.33,378.12,1.00,2,2,2,2065.85,-0.79,121674.00,949.60,-2.44,148730.03,1799.67,-3.00,125441.16,2140.31,3.02,37982.28,891.55,3.08,28373.24
1761500,1122.20,377.20,1.00,2,2,2,2172.53,-3.12,179352.85,4334.47,3.13,169170.67,2953.76,-3.13,54864.38,2345.55,2.99,9770.75,1168.68,3.09,12772.73
1775600,1014.16,379.60,1.00,1,1,1,7663.72,3.12,389632.94,4853.49,3.05,46062.33,4357.32,3.02,105082.37,2175.18,3.05,15528.11,1251.84,3.03,7483.19
1804500,914.43,396.93,1.00,1,1,1,3502.71,2.97,146460.83,4416.08,2.93,24038.04,4312.68,2.97,8136.68,2312.95,3.06,4776.32,1354.25,3.05,3597.12
1819300,825.47,420.07,1.00,1,1,1,6210.69,2.89,184807.74,3704.70,2.84,54101.63,2540.23,2.92,120127.01,2636.82,3.02,22927.00,1309.95,3.04,3020.74
1839900,789.23,435.96,1.00,1,1,1,1921.13,2.73,209917.42,193.74,2.77,170457.51,1572.21,2.84,47764.86,2357.28,3.01,13643.19,1179.93,3.04,6317.67
1854200,819.17,422.52,1.00,1,1,1,2295.22,-0.42,294846.82,1085.95,-0.29,89455.02,493.21,2.98,76002.76,1624.42,2.91,53042.10,1151.31,3.06,2834.06
1868300,818.75,427.04,1.00,1,1,1,322.31,1.66,175160.06,861.56,3.04,137480.78,203.11,-1.63,39106.51,1059.71,2.90,40056.78,1082.67,3.08,5071.64
1883100,794.39,424.98,1.00,1,1,1,1651.63,-3.06,113528.09,847.14,-3.01,13615.40,510.80,2.79,40677.16,378.80,-3.08,47835.87,1094.36,3.02,4458.55
1904400,788.45,422.88,1.00,1,1,1,295.87,-2.80,64201.01,304.28,2.17,35774.34,566.02,3.07,7469.26,106.30,-1.85,16755.29,1038.58,3.00,2817.58
1918600,788.31,433.91,1.00,1,1,1,776.95,1.58,64510.65,325.59,2.31,3412.37,296.77,-2.71,23897.71,130.25,-3.08,9673.77,962.54,2.97,5781.76
1933100,782.18,429.80,1.00,1,1,1,509.19,-2.55,78473.14,710.85,-2.15,58784.43,48.37,-2.73,17132.57,46.39,-1.82,8577.91,1059.71,2.90,8348.24
1947100,777.16,417.00,1.00,1,1,1,982.39,-1.94,45335.65,178.67,-1.25,44028.45,223.34,-0.80,17488.68,260.98,-0.16,19221.82,378.80,-3.08,50569.35
1982800,784.97,421.38,1.00,1,1,1,250.83,0.51,33251.16,475.47,0.18,13576.40,365.87,-0.28,5697.17,171.27,-0.08,2556.56,106.30,-1.85,9996.85
1997200,800.58,421.36,1.00,1,1,1,1083.85,-0.00,60686.25,650.14,-0.05,15188.26,598.42,0.02,18971.71,394.37,-3.08,39202.66,130.25,-3.08,9539.42
2032000,816.91,419.67,1.00,1,1,1,471.86,-0.10,17708.91,734.46,-0.08,2489.04,388.78,-0.02,6050.60,365.87,-0.28,21522.61,46.39,-1.82,3574.13
2046200,836.45,418.41,1.00,1,1,1,1378.48,-0.06,63883.07,78.15,2.57,56640.31,913.21,3.03,91601.71,598.42,0.02,19238.91,260.98,-0.16,18951.09
2060200,815.06,420.86,1.00,2,2,2,1537.73,3.03,208236.34,3213.06,3.04,224536.18,78.15,2.57,60273.57,388.78,-0.02,15040.07,171.27,-0.08,6519.23
2081300,724.27,430.00,1.00,2,2,2,4324.73,3.04,132096.32,4324.73,3.04,52687.99,3213.06,3.04,148981.35,913.21,3.03,61646.65,394.37,-3.08,26754.43
