@RELATION gaze_labels

%@METADATA width_px 1920
%@METADATA height_px 1080
%@METADATA width_mm 540.00
%@METADATA height_mm 254.00
%@METADATA distance_mm 620.00


@ATTRIBUTE time INTEGER
@ATTRIBUTE x NUMERIC
@ATTRIBUTE y NUMERIC
@ATTRIBUTE confidence NUMERIC
@ATTRIBUTE handlabeller1 INTEGER
@ATTRIBUTE handlabeller2 INTEGER
@ATTRIBUTE handlabeller_final INTEGER
@ATTRIBUTE speed_1 numeric
@ATTRIBUTE direction_1 numeric
@ATTRIBUTE acceleration_1 numeric
@ATTRIBUTE speed_2 numeric
@ATTRIBUTE direction_2 numeric
@ATTRIBUTE acceleration_2 numeric
@ATTRIBUTE speed_4 numeric
@ATTRIBUTE direction_4 numeric
@ATTRIBUTE acceleration_4 numeric
@ATTRIBUTE speed_8 numeric
@ATTRIBUTE direction_8 numeric
@ATTRIBUTE acceleration_8 numeric
@ATTRIBUTE speed_16 numeric
@ATTRIBUTE direction_16 numeric
@ATTRIBUTE acceleration_16 numeric

%The number after speed, direction denotes the step size that was used for the calculation.
%Acceleration was calculated between two adjacent samples of the already low pass filtered velocity

@DATA
0,300.90,531.49,1.00,1,1,1,0.00,0.00,0.00,1843.63,-2.27,0.00,987.60,-2.56,0.00,290.80,2.77,0.00,274.35,-2.11,0.00
15400,282.57,509.81,1.00,1,1,1,1843.63,-2.27,119716.27,987.60,-2.56,61008.09,660.29,1.78,89271.76,293.43,1.78,18001.55,40.39,-1.76,15377.41
29600,276.46,515.45,1.00,1,1,1,585.18,2.40,137918.69,660.29,1.78,96815.86,290.80,2.77,39288.78,170.70,-0.25,28135.92,128.13,-0.92,7423.01
51000,277.78,532.83,1.00,1,1,1,814.32,1.50,30060.27,484.80,1.46,11600.36,293.43,1.78,12954.39,388.08,-0.99,13372.20,240.69,-1.14,5548.22
80500,279.08,539.99,1.00,1,1,1,246.70,1.39,19306.78,8.09,-1.75,16707.30,170.70,-0.25,13543.39,274.35,-2.11,12388.23,406.38,-1.08,5650.06
94400,277.72,532.48,1.00,1,1,1,548.83,-1.75,57232.92,651.35,-1.12,46390.03,388.08,-0.99,20587.41,40.39,-1.76,17036.84,335.02,-1.23,6469.58
129500,292.99,511.26,1.00,1,1,1,744.92,-0.95,15309.89,725.93,-0.98,3445.75,589.89,-1.58,9818.10,128.13,-0.92,3003.04,396.72,-2.51,12531.22
143500,297.53,502.85,1.00,1,1,1,682.47,-1.08,7924.46,781.52,-2.27,64929.15,303.68,-1.45,20800.26,240.69,-1.14,8480.85,458.41,2.98,23945.24
157900,278.64,494.33,1.00,1,1,1,1439.38,-2.72,113640.43,330.36,-3.14,43036.54,183.94,-1.77,9813.33,406.38,-1.08,11574.78,124.28,-0.04,40414.01
192900,281.21,502.77,1.00,1,1,1,252.19,1.27,46193.72,242.47,0.25,16243.08,106.53,-1.78,2212.29,335.02,-1.23,2569.35,638.28,0.01,14690.92
206900,290.14,497.31,1.00,1,1,1,747.49,-0.55,60472.74,473.61,-0.55,25069.82,398.33,-0.38,28192.65,396.72,-2.51,31417.55,1236.03,-0.08,43019.00
228500,295.61,494.00,1.00,1,1,1,296.10,-0.54,20898.15,702.80,-0.66,11064.99,407.73,-0.98,10923.74,458.41,2.98,15520.07,1733.27,-0.14,23426.33
242900,310.06,481.71,1.00,1,1,1,1317.19,-0.71,71254.42,451.03,-1.55,37722.12,725.45,-2.72,61848.47,470.95,0.53,60671.49,1996.73,-0.17,18699.56
257200,295.91,481.06,1.00,1,1,1,990.28,-3.10,150356.05,2204.30,-3.08,156256.02,1143.76,2.84,53852.90,1442.94,0.04,73528.69,1975.29,-0.15,3242.92
271300,247.56,478.09,1.00,1,1,1,3435.64,-3.08,173441.61,2482.78,2.67,89801.38,881.77,1.03,113525.69,2659.34,-0.03,86853.52,2097.47,-0.09,11998.03
285600,233.25,513.40,1.00,2,2,2,2664.48,1.96,252946.79,2969.35,0.52,335665.74,2467.16,0.16,141067.31,3816.67,-0.07,81421.71,2080.35,-0.08,2259.41
306700,338.98,529.96,1.00,2,2,2,5072.06,0.16,295882.43,5073.91,-0.01,137938.93,5354.58,0.02,138940.18,3976.71,-0.08,7717.10,2048.20,-0.07,1776.82
335600,486.94,511.41,1.00,3,3,3,5159.65,-0.12,49503.22,7655.03,-0.13,93243.19,7333.47,-0.10,72779.22,4041.69,-0.07,2837.79,2047.59,-0.10,2479.01
350600,672.11,485.68,1.00,1,1,1,12463.29,-0.14,486961.64,11144.24,-0.16,233363.08,6834.92,-0.17,48057.66,4458.72,-0.03,29288.26,1802.09,-0.13,16641.82
365700,817.96,457.14,1.00,1,1,1,9842.25,-0.19,178222.89,5875.42,-0.23,350654.74,6025.92,-0.17,53609.01,4577.21,-0.09,17696.43,1784.07,-0.13,1193.20
387500,883.33,436.81,1.00,1,1,1,3140.37,-0.30,308664.02,1714.43,-0.24,190875.62,3390.65,-0.13,121202.64,3768.80,-0.14,38548.17,1631.35,-0.09,7670.27
401400,877.47,442.81,1.00,1,1,1,603.79,2.34,264953.86,756.20,1.22,129091.58,1147.58,-0.01,162315.27,2669.05,-0.18,79633.10,1886.97,-0.02,20108.73
415600,890.60,456.78,1.00,1,1,1,1350.15,0.82,102512.09,692.52,0.77,23496.27,273.01,1.90,89002.79,1088.96,-0.33,112765.87,2252.36,-0.00,25912.46
430000,891.75,456.53,1.00,1,1,1,81.72,-0.21,90957.03,374.84,-2.87,72046.00,152.52,-3.08,19107.09,202.66,-1.22,67565.16,2621.23,-0.06,27445.68
451100,877.77,453.26,1.00,1,1,1,680.63,-2.91,35797.39,600.82,-2.64,11935.10,572.84,-2.59,21053.83,343.83,3.14,21604.53,2589.95,-0.12,7129.65
479800,865.53,442.12,1.00,1,1,1,576.56,-2.40,11559.54,692.49,-2.51,4322.08,692.13,-2.68,4614.92,169.31,1.02,15891.34,2347.04,-0.12,8473.06
515500,841.79,426.91,1.00,1,1,1,789.83,-2.57,6767.16,783.39,-2.72,4989.07,517.16,-2.84,5589.06,492.73,0.23,10976.25,1672.06,-0.12,18907.17
530200,829.54,425.88,1.00,1,1,1,836.20,-3.06,26825.03,460.23,2.62,43059.40,397.95,0.75,60679.79,1046.49,0.03,38886.98,1192.03,-0.04,33480.20
559300,824.26,436.87,1.00,2,2,2,418.76,2.02,27167.53,1746.11,0.58,68640.26,1809.66,0.36,49850.25,1600.93,-0.07,19563.18,1094.40,0.04,4636.12
573600,892.80,467.61,1.00,2,2,2,5252.65,0.42,369242.47,4414.12,0.26,196895.37,3207.97,0.15,103906.40,2062.56,-0.05,32351.41,1148.29,0.03,3832.06
595000,976.65,477.02,1.00,1,1,1,3942.80,0.11,89755.39,5296.91,-0.03,76085.45,5167.46,-0.01,96054.75,2384.72,-0.01,15644.09,875.48,0.07,12858.19
608700,1078.65,462.73,1.00,1,1,1,7518.52,-0.14,279309.75,6505.70,-0.24,125712.75,4694.45,-0.14,59061.44,2477.78,0.04,11495.67,444.98,0.27,32806.41
622700,1151.88,434.96,1.00,1,1,1,5593.81,-0.36,171956.28,4070.84,-0.32,176517.47,3342.83,-0.25,101565.79,3018.45,0.03,38678.69,237.45,1.46,29893.83
637700,1190.80,425.85,1.00,1,1,1,2664.96,-0.23,198225.22,939.48,-0.33,208764.01,1665.49,-0.20,112114.32,2565.81,-0.04,33353.17,493.92,2.55,29214.42
659100,1184.22,423.85,1.00,1,1,1,321.29,-2.85,137731.16,460.55,1.94,60100.40,945.81,0.24,42148.39,1370.01,-0.01,55961.30,624.71,2.74,7812.23
673700,1184.77,441.30,1.00,1,1,1,1195.19,1.54,91324.13,1310.28,0.75,83424.33,650.37,0.70,31929.11,412.26,2.56,118570.92,552.57,2.80,5550.11
687700,1211.63,449.41,1.00,1,1,1,2004.37,0.29,141381.62,1391.50,0.30,43701.30,674.49,1.81,49823.28,1965.34,2.81,112050.89,477.54,2.87,6002.14
702400,1222.95,453.00,1.00,2,2,2,807.87,0.31,81403.71,955.64,2.57,145316.32,2114.76,2.81,125120.36,3098.56,2.92,79477.86,655.85,-3.10,16780.76
737400,1171.73,475.17,1.00,2,2,2,1594.69,2.73,64777.47,4040.37,2.93,90389.73,4280.96,2.91,62457.15,3608.09,3.00,16289.94,887.61,-3.11,6623.04
751400,1029.49,495.03,1.00,3,3,3,10258.69,3.00,623712.46,10188.94,2.96,439437.58,5785.87,2.99,111579.84,3564.69,3.07,18065.71,1289.51,-3.13,28765.29
765900,886.10,527.54,1.00,1,1,1,10139.34,2.92,59768.87,8213.48,3.03,143698.07,7785.21,3.10,146536.26,3608.14,3.10,8416.10,1427.37,3.07,12005.88
786900,739.63,526.72,1.00,1,1,1,6974.86,-3.14,176199.35,6013.87,-3.00,134873.83,5450.64,-3.09,114714.06,3436.19,3.13,9376.13,1617.11,3.03,9432.64
800900,677.85,496.99,1.00,1,1,1,4897.84,-2.69,235916.95,2660.46,-2.45,284168.37,3052.73,-2.85,185767.37,3142.97,-3.13,22014.15,1500.67,2.97,10999.67
815400,681.03,478.61,1.00,1,1,1,1286.22,-1.40,324924.73,1179.73,-0.87,201623.95,1117.02,-1.98,170804.51,2247.38,-3.03,64238.57,1187.02,2.97,21637.31
829700,699.73,471.00,1.00,1,1,1,1411.83,-0.39,91807.00,960.27,-0.55,28609.13,682.73,-0.55,85910.44,1113.19,-2.80,83402.27,920.84,2.93,18864.19
851500,710.67,460.63,1.00,1,1,1,691.27,-0.76,37048.28,483.24,-0.09,26096.54,444.52,-0.57,10942.66,406.30,-2.31,35641.16,693.83,2.93,10413.96
879900,723.90,468.91,1.00,1,1,1,549.39,0.56,27027.35,22.31,-1.74,17097.62,147.27,-0.36,10632.95,389.84,0.07,26034.07,354.55,2.94,11948.78
894200,710.51,459.69,1.00,1,1,1,1136.45,-2.54,117866.07,212.72,-2.84,14241.89,252.03,2.23,26965.04,964.30,0.14,40300.84,99.74,-0.94,30290.24
930500,713.61,465.74,1.00,2,2,2,187.12,1.10,35929.12,474.97,2.21,12451.16,449.82,1.12,11241.60,1434.02,0.16,12947.13,599.19,-0.33,14354.51
945400,696.09,479.28,1.00,2,2,2,1485.96,2.48,98210.41,1501.90,0.94,96224.82,1607.32,0.32,89365.23,1924.95,0.12,33175.76,1078.90,-0.25,32440.34
959800,739.65,501.21,1.00,2,2,2,3386.73,0.47,294811.11,4769.99,0.15,267669.99,3464.50,0.19,130790.86,2411.84,0.08,34521.07,1209.22,-0.13,13211.48
974400,832.78,500.53,1.00,1,1,1,6379.00,-0.01,253660.79,5474.82,0.04,63727.26,4907.99,0.06,105575.83,2317.48,0.04,9091.78,1116.58,-0.10,6875.40
995400,934.43,508.10,1.00,1,1,1,4853.93,0.07,75775.88,5050.68,-0.01,23778.05,5128.11,-0.02,21030.01,2719.43,0.02,19246.50,1022.21,-0.08,4557.27
1010300,1014.08,497.85,1.00,1,1,1,5389.63,-0.13,78097.07,4728.30,-0.09,33631.41,3325.20,-0.13,125177.33,2659.81,-0.09,19736.60,979.52,-0.09,2878.39
1024600,1071.90,495.23,1.00,1,1,1,4047.28,-0.05,97686.19,1434.58,-0.68,253239.63,2056.41,-0.30,93909.39,2126.18,-0.17,39816.37,1050.21,-0.08,4962.59
1039200,1046.33,471.79,1.00,1,1,1,2375.88,-2.40,408666.00,1085.72,-2.34,128293.55,857.61,-1.06,106350.25,1341.05,-0.29,55488.36,1060.18,-0.04,3298.01
1054100,1049.67,472.17,1.00,1,1,1,225.84,0.11,171940.11,644.05,-1.79,42612.05,708.18,-2.17,55808.91,712.51,-0.67,48885.59,1316.88,-0.03,17231.04
1075700,1041.33,448.82,1.00,1,1,1,1147.91,-1.91,58506.43,503.55,-1.95,7814.03,499.89,-2.41,11720.03,443.10,-1.70,28602.04,1741.30,-0.02,19671.39
1103400,1040.49,449.10,1.00,1,1,1,31.86,2.81,41437.66,581.40,-3.01,19927.48,525.54,-2.48,1549.29,482.56,-2.31,10136.09,1905.79,-0.01,5982.20
1117800,1017.07,445.57,1.00,1,1,1,1645.08,-2.99,112279.98,741.55,-2.98,11224.43,490.67,-2.77,10459.52,269.22,-2.49,15476.47,1797.40,-0.03,7946.37
1138800,1014.60,444.75,1.00,1,1,1,123.59,-2.82,72543.71,435.48,-2.39,21426.85,249.46,-2.84,11556.56,196.03,-0.67,17668.88,1643.48,-0.06,7792.64
1153800,1005.65,434.82,1.00,1,1,1,891.28,-2.30,52417.55,365.33,-0.03,49321.81,51.23,2.02,16472.10,919.17,0.16,53347.65,1144.98,-0.11,33493.16
1167700,1025.15,444.40,1.00,1,1,1,1563.13,0.46,173626.07,597.61,0.94,35652.38,911.81,0.16,66736.19,1747.19,0.19,59625.76,962.24,-0.19,14768.39
1182200,1015.64,448.54,1.00,2,2,2,715.69,2.73,144712.05,1362.12,0.20,69332.66,2634.87,0.21,118965.43,2306.39,0.12,39944.63,1038.09,-0.14,6506.54
1203300,1072.67,454.09,1.00,2,2,2,2715.48,0.10,159192.28,4402.91,0.14,144291.18,3392.10,0.20,35932.95,2746.91,0.09,21132.25,1034.76,-0.12,695.57
1217600,1169.99,470.22,1.00,3,3,3,6898.47,0.16,293221.93,5096.52,0.20,52348.78,4083.26,0.11,53771.79,2205.05,0.07,38009.98,1078.32,-0.06,5715.06
1245700,1284.50,496.81,1.00,1,1,1,4183.41,0.23,97391.53,3854.14,0.08,47820.96,4284.25,0.08,8481.86,2063.33,-0.02,8573.42,1182.99,-0.03,3899.17
1266400,1357.42,485.88,1.00,1,1,1,3562.08,-0.15,76042.59,3420.43,-0.14,44817.74,1956.76,-0.05,113824.31,2120.14,-0.06,5024.49,1289.63,-0.01,5282.45
1280400,1401.97,479.89,1.00,1,1,1,3211.23,-0.13,25326.60,513.64,-1.39,235320.70,1134.24,-0.66,86698.73,1865.16,-0.07,18310.59,1263.33,-0.02,2230.23
1315800,1361.92,460.91,1.00,1,1,1,1252.20,-2.70,121908.11,1181.40,-2.36,27774.56,735.76,-1.51,24035.74,1257.74,-0.21,18118.41,1159.80,0.02,3269.41
1330200,1360.39,438.27,1.00,1,1,1,1575.44,-1.64,101211.78,1114.77,-1.59,59629.99,771.23,-2.26,38591.30,779.27,-0.53,39751.58,1020.35,-0.03,10424.94
1345500,1361.24,427.81,1.00,1,1,1,686.34,-1.49,58975.98,211.10,-1.09,61084.43,538.82,-1.57,32435.63,396.73,-0.91,28573.03,861.45,-0.05,10439.46
1359500,1363.22,432.78,1.00,1,1,1,382.27,1.19,74473.98,74.09,1.15,18829.58,379.25,0.01,47135.28,369.74,-2.15,31946.02,365.92,-0.03,35401.49
1373700,1362.10,429.71,1.00,1,1,1,229.97,-1.92,43111.61,636.24,0.26,41708.75,533.68,0.41,16758.07,139.14,-1.72,17604.64,360.54,3.07,51151.53
1394600,1384.81,438.49,1.00,1,1,1,1165.23,0.37,63558.22,921.26,0.37,14238.97,163.55,0.32,17761.88,170.53,-2.97,8746.58,1300.25,-3.12,45049.72
1408600,1392.07,441.36,1.00,1,1,1,557.07,0.38,43442.09,430.19,-2.93,96256.44,142.06,1.84,15114.96,587.44,3.05,30346.57,1774.53,3.09,34712.15
1422600,1373.03,436.00,1.00,1,1,1,1412.68,-2.87,140548.13,666.59,-3.14,18637.67,620.74,-3.05,43644.49,1209.91,3.04,44464.51,2012.56,3.10,17139.06
1458400,1358.87,441.30,1.00,2,2,2,422.28,2.78,30748.15,729.09,-3.09,1973.72,1446.65,-3.09,23089.87,2050.22,2.98,23619.02,1991.37,3.10,594.41
1472900,1336.40,434.21,1.00,2,2,2,1625.19,-2.84,90938.22,2788.28,-3.07,142033.04,2212.62,3.07,55147.79,3343.20,3.03,89644.97,1890.14,3.06,8793.13
1487400,1278.23,435.39,1.00,2,2,2,4012.71,3.12,174308.96,4336.58,3.04,115073.62,4672.01,3.02,169911.85,3774.11,3.01,30272.26,1864.31,3.03,4442.61
1508200,1184.18,450.40,1.00,3,3,3,4578.84,2.98,39323.24,6273.88,2.95,95602.06,6544.89,3.01,90061.11,3805.51,3.02,2723.46,1934.23,3.04,3414.59
1522800,1060.21,477.76,1.00,1,1,1,8695.24,2.92,283098.54,9013.65,3.00,189522.04,6559.61,2.96,22184.86,4265.80,3.07,33690.30,1769.36,2.99,13104.13
1539800,902.15,490.26,1.00,1,1,1,9326.77,3.06,82110.07,6884.22,2.98,125701.86,6089.86,3.00,31040.27,3762.04,3.05,29833.24,1887.01,3.02,8005.24
1554100,847.59,512.76,1.00,1,1,1,4126.57,2.75,387864.13,2813.57,3.00,284772.48,3839.54,3.13,163030.52,3110.55,3.03,45883.18,1886.04,3.04,1800.53
1568000,823.55,501.11,1.00,1,1,1,1921.89,-2.69,229315.27,1263.41,-2.04,192886.08,923.47,-2.94,211755.93,2711.91,3.04,28724.87,1801.99,3.05,6289.82
1582400,831.39,480.88,1.00,1,1,1,1506.79,-1.20,162783.91,832.65,-0.84,85610.31,414.52,-2.18,47529.22,1506.99,2.99,83931.36,1908.41,3.09,9013.65
1604400,843.67,478.45,1.00,1,1,1,568.97,-0.20,58831.36,115.41,2.03,42933.38,219.91,-2.41,9386.50,538.87,2.96,44019.97,1815.38,3.09,4235.79
1632800,828.80,486.09,1.00,1,1,1,588.70,2.67,40367.52,824.51,2.82,26309.69,343.10,1.83,17017.22,163.18,-2.64,14953.32,1666.71,3.07,5521.71
1646700,810.63,489.60,1.00,1,1,1,1331.73,2.95,56410.54,577.23,1.79,51668.21,395.40,2.31,13106.53,101.82,-1.29,12399.76,1497.33,3.08,12352.00
1682400,822.44,514.01,1.00,1,1,1,759.42,1.12,47454.70,357.44,1.08,10847.22,189.92,1.82,6876.37,163.52,-2.70,4994.78,1234.98,3.12,7454.88
1696500,819.05,505.28,1.00,1,1,1,663.61,-1.94,100842.81,486.78,-1.37,56406.44,224.10,-0.22,25073.44,229.93,-2.58,4988.73,907.07,3.10,23290.00
1710800,825.18,500.45,1.00,1,1,1,545.35,-0.67,50707.53,724.91,-1.14,19158.50,721.05,-1.91,54419.52,227.90,-2.70,1851.51,832.41,3.13,5510.39
1726300,828.02,485.63,1.00,1,1,1,973.93,-1.38,42945.95,970.26,-2.10,52359.86,714.20,-1.70,9510.28,349.82,-2.85,8350.40,772.56,3.08,4573.66
1748000,806.90,469.33,1.00,1,1,1,1229.14,-2.48,54111.49,861.33,-2.09,5062.43,591.90,-2.31,18790.94,944.18,-2.92,27451.04,777.41,3.00,2892.90
1761500,813.08,459.25,1.00,2,2,2,875.68,-1.02,105935.76,289.10,2.79,63969.25,1036.53,-2.98,50653.94,1360.48,-3.12,35083.21,807.31,3.04,3328.42
1775500,799.45,472.09,1.00,2,2,2,1337.55,2.39,156754.94,1841.14,2.84,110890.02,1642.17,2.97,52791.98,1582.50,3.07,18508.61,806.00,3.12,4389.14
1790300,762.51,475.19,1.00,3,3,3,2504.95,3.06,113461.10,2657.35,2.99,59656.88,2711.16,2.90,72989.93,1663.94,3.02,8228.96,755.68,3.13,3448.17
1812300,702.80,486.99,1.00,1,1,1,2766.38,2.95,17861.81,3411.43,2.93,35291.45,2593.21,2.93,6320.08,1518.97,2.93,9033.93,918.85,-3.04,8634.65
1826300,642.51,501.32,1.00,1,1,1,4426.66,2.91,118972.50,2546.53,2.87,62812.35,2212.25,2.91,27337.36,1495.87,2.94,1856.57,966.13,-3.01,3994.12
1855500,596.73,516.16,1.00,1,1,1,1648.09,2.83,95445.01,1227.65,2.88,45168.07,1421.57,2.89,27104.42,1403.16,3.05,6167.08,928.97,-3.01,1300.31
1870100,590.59,515.33,1.00,1,1,1,424.05,-3.01,87612.53,101.63,-2.78,78541.01,515.79,3.11,63337.93,1178.01,3.04,15426.98,872.56,-3.06,4823.85
1891800,593.28,514.86,1.00,1,1,1,125.51,-0.17,25114.65,467.68,-0.86,23560.02,380.45,-1.56,30157.83,907.14,3.13,13184.75,760.37,-3.08,5218.22
1905900,601.47,502.60,1.00,1,1,1,1045.78,-0.98,68323.50,828.43,-1.41,34969.12,354.72,-1.49,2606.98,637.03,-2.79,27400.84,541.76,-3.06,15521.31
1920400,597.06,491.47,1.00,1,1,1,825.70,-1.95,61465.37,463.80,-2.28,44036.23,526.45,-2.09,21364.01,434.59,-2.22,24617.15,183.54,-2.49,27589.52
1935300,592.55,492.29,1.00,1,1,1,307.26,2.96,55183.00,654.12,-2.98,28277.05,862.05,-2.51,29365.10,358.62,-1.83,11474.91,397.42,-0.35,34924.18
1949800,578.08,488.38,1.00,1,1,1,1034.04,-2.88,52945.99,1196.41,-2.58,44490.44,577.09,-2.56,19784.12,412.81,-1.65,6120.94,1033.93,-0.13,44913.42
1971700,555.64,469.19,1.00,1,1,1,1348.41,-2.43,27740.53,586.85,-2.29,30011.85,391.56,-2.08,13246.56,469.83,-0.86,15656.57,1553.75,-0.08,23904.18
2000000,558.71,466.18,1.00,1,1,1,152.06,-0.77,48423.13,512.90,-0.18,33811.90,400.87,-1.26,11283.22,1060.31,-0.32,24700.38,1757.39,-0.12,7581.74
2014600,577.28,465.25,1.00,1,1,1,1273.55,-0.05,79725.77,895.26,-0.34,27164.84,1053.62,-0.24,62318.42,1761.31,-0.20,49302.46,1705.27,-0.14,4033.23
2035500,588.72,455.72,1.00,2,2,2,712.53,-0.69,39432.01,1527.01,-0.25,30570.93,2551.93,-0.14,72091.15,2637.88,-0.10,43354.34,1727.22,-0.13,1269.58
2063700,649.86,446.43,1.00,2,2,2,2192.82,-0.15,57644.13,3959.26,-0.10,87240.94,3500.43,-0.11,33829.72,3517.37,-0.01,32514.00,1665.79,-0.08,3686.01
2077800,755.31,438.47,1.00,1,1,1,7500.00,-0.08,377018.61,6113.21,-0.06,153588.17,5296.33,-0.02,129859.82,3571.88,-0.03,5462.72,1679.43,-0.05,4049.16
2101200,878.73,433.24,1.00,1,1,1,5278.92,-0.04,95333.05,6808.08,0.03,38105.40,6970.23,0.03,73087.47,3248.71,-0.04,13998.85,1765.02,-0.03,3824.18
2115800,1013.91,445.98,1.00,1,1,1,9300.10,0.09,283078.78,8144.93,0.12,103706.40,4575.45,0.03,164027.04,3291.49,-0.02,6582.29,1709.68,-0.05,4197.14
2130200,1113.10,462.58,1.00,1,1,1,6984.06,0.17,165779.50,2602.60,0.04,385773.86,2989.15,0.04,110167.19,3138.47,0.03,15540.23,1523.07,-0.01,13801.61
2158800,1125.72,450.75,1.00,1,1,1,604.77,-0.75,231978.96,410.01,-1.54,92238.15,1241.26,0.01,61142.69,2417.41,0.08,25641.00,1194.06,0.04,11715.57
2179900,1113.80,442.22,1.00,1,1,1,694.74,-2.52,47680.17,418.23,-2.89,24575.04,120.04,-3.08,64509.11,1832.33,0.16,28735.71,656.83,0.18,26101.06
2194300,1111.34,447.05,1.00,1,1,1,376.34,2.04,58212.34,777.95,2.04,55500.03,433.90,2.50,24426.21,654.38,0.19,81828.87,269.87,0.51,28559.07
2208400,1103.73,461.97,1.00,1,1,1,1188.11,2.04,57572.08,772.46,1.93,6074.77,625.37,0.93,53802.76,490.77,3.09,80648.87,207.58,2.08,24159.59
2222400,1103.67,467.35,1.00,1,1,1,384.44,1.58,61488.45,1010.28,0.35,91106.75,264.54,1.89,37200.31,1466.55,3.00,69924.02,507.23,2.93,28617.96
2244400,1137.83,474.61,1.00,1,1,1,1587.47,0.21,70817.38,128.20,-1.06,45410.13,859.64,3.07,36234.82,2404.80,2.97,42709.25,859.03,3.01,16191.41
2258900,1105.94,463.26,1.00,2,2,2,2334.65,-2.80,269918.63,2382.80,-3.06,168198.19,2344.27,3.07,102389.74,3192.76,3.03,55796.00,1181.38,3.11,23320.14
2287200,1036.16,466.70,1.00,2,2,2,2468.86,3.09,33317.29,4409.28,3.05,74302.27,4648.44,3.07,81419.71,3406.65,3.07,8407.57,1409.89,-3.14,8183.27
2301600,918.53,481.25,1.00,1,1,1,8231.04,3.02,400817.52,7449.03,3.01,211586.89,5759.38,3.07,77149.73,3055.38,3.13,28571.41,1517.94,-3.13,7574.52
2322400,776.23,501.21,1.00,1,1,1,6908.05,3.00,63877.72,7409.10,3.09,27615.67,6572.35,3.07,39103.27,3293.60,-3.13,12056.06,1541.65,3.10,3804.72
2336600,659.60,495.46,1.00,1,1,1,8223.60,-3.09,136261.35,5517.18,-3.12,137248.91,3726.34,-3.11,203801.71,2709.46,-3.13,41137.06,1564.76,3.09,2140.13
2350600,620.67,498.35,1.00,1,1,1,2787.94,3.07,390536.98,1242.69,-2.75,313145.94,2002.32,-2.92,128827.77,2288.48,-3.13,30073.15,1442.09,-3.13,10730.67
2386500,602.30,471.74,1.00,1,1,1,900.56,-2.18,68478.30,642.85,-1.47,34020.50,455.31,-1.97,49481.55,1591.04,-3.00,20532.06,1321.49,-3.04,4881.46
2400500,623.77,466.42,1.00,1,1,1,1579.67,-0.24,148320.12,1011.75,-0.36,66390.48,529.48,-0.75,40583.42,835.92,-2.82,55955.33,1438.12,-2.89,17329.05
2429700,643.22,456.36,1.00,1,1,1,749.76,-0.48,29722.88,713.34,-0.12,12364.16,796.49,-0.43,11523.22,190.81,-2.19,23694.98,1502.39,-2.70,9755.57
2451600,659.96,462.06,1.00,1,1,1,807.54,0.33,27965.08,548.32,-0.58,15126.92,346.77,-0.24,21030.01,335.99,-0.79,16280.69,2288.48,-3.13,50950.21
2465800,659.74,445.46,1.00,1,1,1,1169.03,-1.58,114654.57,329.02,-2.90,56992.89,224.23,1.64,32873.68,731.56,-0.44,30418.97,1591.04,-3.00,51908.53
2480500,650.72,459.83,1.00,1,1,1,1153.96,2.13,151560.98,1075.30,2.18,68385.14,49.74,-1.60,18623.95,954.20,-0.81,26068.32,835.92,-2.82,53290.79
2494500,642.20,470.86,1.00,2,2,2,995.25,2.23,13523.75,257.75,-0.11,89907.42,652.55,-0.45,45275.42,1495.84,-1.29,55728.81,190.81,-2.19,49420.95
2516200,659.87,458.85,1.00,3,3,3,984.21,-0.60,90079.90,1949.76,-0.67,80035.73,1786.38,-0.94,57620.35,49.74,-1.60,66755.37,335.99,-0.79,16430.74
2530900,697.99,426.99,1.00,1,1,1,3380.06,-0.70,163444.69,3766.56,-1.01,138349.68,3200.65,-1.30,112391.19,652.55,-0.45,43119.44,731.56,-0.44,29384.32
2545400,718.81,366.00,1.00,1,1,1,4444.82,-1.24,161749.10,5462.87,-1.57,210798.13,3766.56,-1.01,80885.40,1786.38,-0.94,86231.84,954.20,-0.81,26427.88
2559700,697.59,269.66,1.00,1,1,1,6898.06,-1.79,270129.82,6898.06,-1.79,136002.86,5462.87,-1.57,213746.36,3200.65,-1.30,115535.00,1495.84,-1.29,54559.67
