@RELATION gaze_labels

%@METADATA width_px 1920
%@METADATA height_px 1080
%@METADATA width_mm 540.00
%@METADATA height_mm 254.00
%@METADATA distance_mm 620.00


@ATTRIBUTE time INTEGER
@ATTRIBUTE x NUMERIC
@ATTRIBUTE y NUMERIC
@ATTRIBUTE confidence NUMERIC
@ATTRIBUTE handlabeller1 INTEGER
@ATTRIBUTE handlabeller2 INTEGER
@ATTRIBUTE handlabeller_final INTEGER
@ATTRIBUTE speed_1 numeric
@ATTRIBUTE direction_1 numeric
@ATTRIBUTE acceleration_1 numeric
@ATTRIBUTE speed_2 numeric
@ATTRIBUTE direction_2 numeric
@ATTRIBUTE acceleration_2 numeric
@ATTRIBUTE speed_4 numeric
@ATTRIBUTE direction_4 numeric
@ATTRIBUTE acceleration_4 numeric
@ATTRIBUTE speed_8 numeric
@ATTRIBUTE direction_8 numeric
@ATTRIBUTE acceleration_8 numeric
@ATTRIBUTE speed_16 numeric
@ATTRIBUTE direction_16 numeric
@ATTRIBUTE acceleration_16 numeric

%The number after speed, direction denotes the step size that was used for the calculation.
%Acceleration was calculated between two adjacent samples of the already low pass filtered velocity

@DATA
0,265.30,365.04,1.00,1,1,1,0.00,0.00,0.00,2895.49,-0.50,0.00,1494.92,-0.28,0.00,832.05,-0.01,0.00,498.20,0.00,0.00
14900,303.18,344.38,1.00,1,1,1,2895.49,-0.50,194327.92,1494.92,-0.28,98679.05,800.65,0.41,68251.78,323.17,0.33,36126.04,32.46,0.62,31681.38
43100,327.15,346.99,1.00,1,1,1,855.33,0.11,79687.52,800.65,0.41,36062.11,832.05,-0.01,12023.20,107.35,0.48,7714.10,88.68,-2.58,4294.48
64200,339.39,360.08,1.00,1,1,1,849.15,0.82,28095.50,468.31,0.84,20123.31,323.17,0.33,25510.81,129.70,0.76,1883.35,359.98,-0.29,20079.13
93000,342.68,364.46,1.00,1,1,1,190.14,0.93,22931.34,228.70,-2.50,24093.64,107.35,0.48,7553.39,498.20,0.00,14354.98,1466.26,0.09,39555.87
107500,331.46,354.15,1.00,1,1,1,1050.83,-2.40,85398.08,540.91,-2.10,23543.05,129.70,0.76,2740.60,32.46,0.62,32555.35,2543.82,0.19,75628.19
122100,334.68,350.90,1.00,1,1,1,312.96,-0.79,75873.71,561.03,0.70,74412.74,21.35,0.66,7429.69,88.68,-2.58,8294.83,3066.85,0.17,35982.79
143400,346.85,367.15,1.00,1,1,1,952.82,0.93,49082.08,481.02,1.01,8335.39,392.02,-2.87,19337.02,359.98,-0.29,19890.60,3056.47,0.11,9236.71
157500,343.77,365.30,1.00,1,1,1,254.52,-2.60,84557.41,1573.64,-2.68,141911.51,329.26,-2.61,7825.13,1466.26,0.09,80794.97,1674.82,0.09,98026.94
171500,307.32,347.32,1.00,2,2,2,2902.96,-2.68,189239.89,1284.46,-2.40,34822.78,737.47,-0.48,68188.01,2543.82,0.19,78329.20,1549.52,0.18,13719.12
186400,316.40,340.22,1.00,2,2,2,773.59,-0.66,222338.53,2259.23,-0.02,221928.23,2914.62,0.08,155968.32,3066.85,0.17,35258.30,1597.14,0.22,4692.25
207600,388.85,345.30,1.00,3,3,3,3425.98,0.07,136700.10,6138.09,0.19,186677.53,4912.18,0.20,96423.99,3056.47,0.11,9280.28,1518.91,0.24,4067.94
222000,531.13,380.74,1.00,1,1,1,10182.01,0.24,474561.40,7187.37,0.25,79389.80,5600.20,0.19,47861.72,2967.03,0.11,6212.15,1699.11,0.20,13221.39
250800,689.32,423.58,1.00,1,1,1,5690.61,0.26,156043.75,5218.02,0.19,69688.23,5048.05,0.18,19336.29,3195.78,0.18,10862.24,2011.21,0.15,11281.56
272100,787.76,430.54,1.00,1,1,1,4633.31,0.07,68124.67,2599.00,-0.09,132184.29,3011.26,0.13,95980.36,3272.00,0.22,7891.71,2266.59,0.10,13103.31
286800,782.50,415.18,1.00,1,1,1,1104.44,-1.90,351353.66,946.49,-2.39,224993.70,1117.84,0.08,128959.06,2728.93,0.31,40410.19,2745.08,0.06,33199.54
301200,767.59,411.79,1.00,1,1,1,1062.29,-2.92,73333.84,849.39,2.53,78455.95,333.18,2.29,93242.65,1922.20,0.28,56180.61,3017.91,0.04,19242.79
316100,762.08,429.40,1.00,1,1,1,1238.49,1.87,105121.68,1178.97,1.35,78095.00,801.95,1.95,33551.29,1427.55,0.07,40282.92,2867.84,0.06,10338.94
330200,775.06,445.15,1.00,1,1,1,1447.60,0.88,91631.16,961.29,1.53,20689.59,833.90,0.99,53518.04,1462.63,-0.06,14347.96,2801.48,0.07,5311.19
351500,763.37,463.40,1.00,2,2,2,1017.93,2.14,70084.50,701.50,0.49,40294.06,1743.59,0.07,66005.40,2441.99,-0.00,46325.78,2569.96,0.07,10870.69
366000,797.22,456.97,1.00,2,2,2,2376.43,-0.19,218177.46,3955.77,-0.23,238758.61,2612.63,-0.13,66433.48,3081.53,-0.02,44245.10,2089.42,0.04,33539.95
380100,873.40,437.12,1.00,2,2,2,5583.76,-0.25,228133.46,4074.87,-0.20,13690.36,4733.10,-0.13,150392.60,2622.65,-0.08,34522.72,1620.54,-0.04,34660.47
416300,998.23,416.93,1.00,1,1,1,3493.16,-0.16,58893.26,5194.29,-0.09,33991.79,5296.92,-0.13,15575.54,2464.81,-0.12,5145.89,1339.82,-0.10,8108.73
430200,1132.69,414.88,1.00,1,1,1,9673.95,-0.02,448778.55,7524.41,-0.06,167889.80,3201.75,-0.13,150734.06,2561.81,-0.16,10981.94,1359.51,-0.07,2947.57
444300,1208.47,403.25,1.00,1,1,1,5437.89,-0.15,308583.38,1221.23,-0.31,450016.18,2301.14,-0.10,64051.58,2334.42,-0.15,16366.09,1412.16,-0.07,3741.45
480000,1190.68,396.55,1.00,1,1,1,532.64,-2.78,165488.61,663.74,-3.00,51613.33,395.30,-0.56,54724.03,1784.48,-0.11,15555.81,1466.41,-0.10,2049.76
493900,1175.87,398.69,1.00,1,1,1,1076.28,3.00,47594.60,1146.23,3.08,37006.45,652.23,3.13,72759.87,1216.93,-0.13,40926.85,1391.69,-0.11,5406.07
507900,1158.77,398.65,1.00,1,1,1,1221.68,-3.14,15782.03,668.95,2.86,36592.65,447.38,2.82,18831.52,326.49,-0.61,67055.94,1399.03,-0.16,4827.32
522100,1157.73,403.88,1.00,1,1,1,375.03,1.77,85011.66,235.52,0.96,54866.50,123.01,-2.46,27840.95,296.63,-2.69,37815.32,1313.37,-0.14,6309.67
543700,1163.63,405.54,1.00,1,1,1,283.73,0.27,20924.59,432.48,-0.71,23650.54,246.66,-0.72,13601.84,83.95,-1.79,11720.43,1020.80,-0.06,14088.88
558500,1169.71,393.66,1.00,1,1,1,901.41,-1.10,60133.37,641.03,-1.17,21717.50,354.33,-0.99,9076.46,167.61,0.04,13871.71,732.40,-0.03,19579.90
573200,1170.93,388.09,1.00,1,1,1,387.96,-1.36,36436.69,316.06,-1.49,24142.85,487.65,-0.67,12782.96,134.21,-0.00,2308.63,134.85,0.02,40664.95
587100,1170.41,384.65,1.00,1,1,1,250.19,-1.72,12786.26,500.36,-0.12,38665.52,390.44,0.19,27100.77,209.13,-0.01,5390.30,370.33,2.92,36134.04
608300,1188.37,386.03,1.00,1,1,1,849.35,0.08,44213.85,658.85,0.47,17331.67,161.72,0.97,14071.45,177.09,0.48,4640.20,743.56,2.83,17739.35
637200,1199.87,399.54,1.00,1,1,1,614.09,0.87,20860.67,376.05,2.26,28620.37,325.96,0.83,5801.89,285.46,0.43,3772.57,1108.71,2.84,12636.70
651500,1178.04,398.57,1.00,1,1,1,1528.40,-3.10,139729.36,437.25,2.81,16079.83,397.34,1.64,20545.07,193.62,1.56,18793.21,1271.38,2.89,12033.36
666200,1187.87,403.63,1.00,1,1,1,752.12,0.48,151972.50,572.52,1.16,50901.59,202.78,1.01,17882.16,541.30,2.57,31847.45,1234.55,2.96,6767.78
687100,1186.16,417.26,1.00,1,1,1,657.43,1.70,38816.62,575.52,0.35,21688.42,286.68,1.95,11211.95,1417.79,2.78,42829.28,1366.20,3.07,9517.82
701200,1206.80,410.52,1.00,2,2,2,1539.69,-0.32,135793.49,522.05,-3.04,77253.09,1337.47,2.87,84143.67,2523.29,2.86,79210.54,1426.48,3.10,4813.68
715900,1171.20,415.72,1.00,2,2,2,2446.91,3.00,270260.92,3525.28,2.99,205684.16,2976.70,2.93,111770.11,2682.81,2.90,12509.05,1455.69,3.04,5502.96
730400,1105.11,426.51,1.00,2,2,2,4618.74,2.98,149832.11,4973.97,2.90,102819.81,5091.18,2.90,145997.14,2631.70,2.97,14107.82,1514.43,3.01,5710.47
751700,998.24,458.06,1.00,1,1,1,5231.21,2.85,40766.02,6405.22,2.86,67960.82,4758.47,2.94,17861.47,2760.62,3.11,17780.50,1584.60,3.00,3381.68
765600,888.33,488.48,1.00,1,1,1,8204.85,2.87,214082.07,4582.16,2.97,138004.42,3622.85,3.00,83813.95,2883.22,3.14,10789.59,1549.79,2.99,2518.87
794100,806.70,490.59,1.00,1,1,1,2865.03,3.12,191890.31,1791.57,-2.92,105355.24,2667.19,-3.04,42723.23,2712.94,3.11,6632.18,1387.25,2.99,5716.80
814800,802.33,469.15,1.00,1,1,1,1056.76,-1.77,138907.15,1572.25,-2.30,50723.25,1732.44,-2.69,57475.97,2418.96,3.09,14389.58,1356.45,3.01,2098.07
843300,755.23,432.84,1.00,1,1,1,2086.63,-2.48,51254.77,1762.34,-2.47,12175.62,1162.47,-2.50,22118.34,1789.52,-3.13,22561.42,1454.58,3.09,5317.23
866100,731.36,413.14,1.00,1,1,1,1357.47,-2.45,32074.25,784.82,-3.09,52946.18,1197.63,-2.91,21092.90,813.25,-2.96,43810.82,1704.88,3.13,11365.65
879900,726.55,431.22,1.00,1,1,1,1355.76,1.83,165487.94,1457.43,2.13,92969.45,665.37,2.59,62462.63,273.61,-2.36,43960.52,1769.53,3.14,4720.47
894000,709.93,447.70,1.00,1,1,1,1659.81,2.36,59738.12,905.52,1.89,43561.85,1087.92,1.02,90422.23,182.85,-2.80,9418.52,1701.80,3.12,5474.76
908000,718.55,455.38,1.00,1,1,1,824.48,0.73,135610.51,1994.70,0.32,156754.65,932.92,0.54,36065.47,65.29,2.28,12193.36,1498.86,3.14,14724.53
922100,763.22,465.07,1.00,1,1,1,3241.98,0.21,181304.55,1664.78,0.11,35545.92,834.20,0.18,23557.14,277.55,3.08,16798.32,1214.25,-3.04,22702.42
943700,777.64,461.76,1.00,1,1,1,684.73,-0.23,122143.54,256.35,-0.45,67291.25,427.12,-0.47,25713.47,699.01,-3.01,19879.47,1017.03,-2.99,9465.53
973300,775.05,459.37,1.00,1,1,1,119.22,-2.40,25623.37,810.76,-2.49,32255.50,1067.78,-2.52,44647.05,890.71,-3.08,6741.25,940.18,-3.02,2765.05
988000,749.07,440.00,1.00,2,2,2,2204.44,-2.50,141898.42,3202.44,-2.65,163580.91,1966.19,-2.86,69613.46,1184.03,3.12,20789.58,723.88,3.07,18536.00
1002200,693.65,415.32,1.00,2,2,2,4272.07,-2.72,153253.71,3500.02,-2.97,78001.06,3003.38,-3.04,79375.09,1651.63,-3.08,34040.31,690.91,2.90,8500.84
1023400,627.08,418.31,1.00,1,1,1,3143.28,3.10,95645.72,3204.40,2.92,63517.30,3151.85,3.04,29291.25,1843.00,-3.08,9026.97,639.06,2.98,3376.79
1037900,581.98,440.17,1.00,1,1,1,3456.01,2.69,94227.34,3108.69,2.66,57287.51,2666.62,2.94,39512.15,1865.97,-3.04,4757.64,353.35,3.02,19756.57
1052100,547.99,459.60,1.00,1,1,1,2757.61,2.62,51362.72,2008.47,2.97,94762.81,1823.34,2.92,59462.22,1399.93,3.10,36600.87,32.57,1.60,24645.01
1067000,524.37,450.04,1.00,1,1,1,1709.55,-2.76,145432.85,1097.86,-2.76,81423.12,751.00,-3.04,76196.33,1033.20,2.86,31151.15,355.29,-0.14,24315.43
1089100,510.22,444.65,1.00,1,1,1,685.55,-2.78,46346.31,460.30,-1.06,56463.87,134.96,-1.75,32811.30,639.11,2.69,18964.38,648.80,-0.14,13281.01
1103800,532.73,435.31,1.00,1,1,1,1658.26,-0.39,150157.61,816.70,0.12,52102.53,132.81,1.28,18189.00,155.53,0.91,46820.86,799.38,-0.17,10350.32
1133200,545.99,448.84,1.00,1,1,1,644.40,0.80,52352.11,431.50,1.73,31981.63,333.18,0.64,8175.70,979.25,0.04,30170.35,907.87,-0.07,4686.74
1168800,528.25,462.99,1.00,2,2,2,637.44,2.47,26721.02,358.81,2.20,5545.10,658.68,0.38,9762.30,1961.56,-0.00,27638.30,1067.35,0.03,5343.77
1183200,535.40,463.32,1.00,2,2,2,497.12,0.05,73823.65,1652.29,-0.02,131392.28,1863.33,0.10,86357.78,2734.95,-0.03,53809.71,1348.35,0.05,19548.35
1211400,598.62,461.41,1.00,3,3,3,2242.83,-0.03,61970.70,4262.92,0.01,92636.13,4469.39,-0.04,93506.77,2791.28,-0.04,2249.57,1457.66,-0.03,5643.22
1226100,718.26,465.73,1.00,1,1,1,8144.37,0.04,401928.22,7840.86,-0.05,244527.00,5707.76,-0.07,84738.48,3041.93,-0.06,17692.75,1530.42,-0.06,5410.81
1247000,877.45,448.43,1.00,1,1,1,7661.53,-0.11,59211.95,7482.63,-0.12,33284.38,6439.39,-0.10,36499.94,3470.44,-0.07,20614.38,1634.60,-0.01,6149.34
1261600,981.85,432.77,1.00,1,1,1,7230.13,-0.15,36070.61,4778.10,-0.22,189250.30,4802.10,-0.15,113377.48,3309.02,-0.05,12583.54,1765.97,0.04,10459.64
1276200,1013.64,418.11,1.00,1,1,1,2398.09,-0.43,340611.29,1493.27,-0.29,225401.94,2279.51,-0.15,172780.22,3121.14,-0.08,15132.01,1610.14,0.04,10673.10
1290200,1022.72,420.41,1.00,1,1,1,669.38,0.25,137440.62,377.21,0.67,94012.23,916.27,0.08,100240.66,2177.97,-0.10,67478.86,1639.32,0.02,2729.80
1312100,1024.23,426.55,1.00,1,1,1,288.77,1.33,27023.05,717.86,0.54,15876.93,381.39,0.21,24646.30,1223.11,-0.02,44086.04,1795.38,-0.06,9597.94
1339900,1053.34,438.73,1.00,1,1,1,1135.12,0.40,35654.09,443.80,-0.13,16537.34,268.68,0.52,5395.25,636.18,0.37,24336.62,1984.21,-0.08,6946.32
1354200,1042.76,424.19,1.00,1,1,1,1257.59,-2.20,161148.50,351.93,-2.56,52239.93,435.09,0.59,11782.17,308.42,0.95,29055.32,2031.38,-0.04,6641.25
1375900,1042.75,431.77,1.00,1,1,1,349.60,1.57,71602.16,652.60,1.15,44609.28,461.77,1.11,10589.29,315.20,0.98,487.45,1814.64,-0.06,10098.20
1390000,1052.33,445.50,1.00,1,1,1,1187.15,0.96,65442.68,1446.69,0.95,57907.75,464.97,1.69,18969.56,124.02,0.30,16434.69,1510.35,-0.05,21620.29
1404400,1066.64,465.38,1.00,1,1,1,1700.89,0.95,35704.80,549.14,2.58,109380.16,444.37,1.35,11031.09,404.46,-0.43,22459.75,1259.95,-0.06,17434.94
1418500,1039.10,453.86,1.00,1,1,1,2117.00,-2.75,260693.29,514.50,-2.82,32255.73,271.65,-2.26,49519.00,961.84,0.10,45808.73,1093.96,-0.07,11798.22
1440200,1049.14,459.62,1.00,2,2,2,533.51,0.52,121990.46,605.87,-1.48,32338.23,917.63,-0.96,40749.66,1474.87,0.01,24142.94,1117.35,-0.11,2399.37
1455000,1041.14,431.84,1.00,2,2,2,1953.46,-1.85,159863.84,2321.02,-0.69,131134.76,1788.51,-0.12,92093.96,1771.29,-0.07,21550.33,1115.09,-0.09,1572.31
1469100,1100.78,416.80,1.00,2,2,2,4361.59,-0.25,343129.22,3236.62,0.04,153716.36,2437.87,-0.12,46053.85,1889.64,-0.19,17766.05,1077.11,-0.11,3244.42
1498100,1180.53,437.52,1.00,1,1,1,2841.27,0.25,79822.97,2718.62,0.10,18710.64,3125.00,-0.02,25499.05,1843.24,-0.18,1618.48,1022.36,-0.09,2020.38
1533600,1275.33,433.47,1.00,1,1,1,2673.04,-0.04,23440.62,3037.07,-0.07,15983.23,2777.75,-0.03,9817.48,1976.04,-0.23,4674.43,1010.04,-0.19,2755.80
1547900,1331.42,427.18,1.00,1,1,1,3946.69,-0.11,90436.35,3043.12,-0.27,42594.52,1892.28,-0.23,70218.86,1944.35,-0.11,17075.06,971.63,-0.25,4806.53
1562600,1360.41,410.01,1.00,1,1,1,2291.99,-0.53,141601.49,943.22,-0.78,154235.01,1492.41,-0.47,38039.14,1597.19,-0.05,24560.95,751.49,-0.28,15079.63
1598500,1365.37,393.64,1.00,1,1,1,476.48,-1.28,54793.14,719.63,-0.96,7529.87,677.84,-0.65,23245.71,1101.92,-0.24,15380.56,321.26,-0.17,12075.17
1612900,1381.05,380.27,1.00,1,1,1,1430.60,-0.71,73691.39,315.89,0.11,44019.17,231.46,-0.47,31377.27,618.90,-0.73,43483.29,355.25,3.06,46930.19
1627500,1374.48,394.66,1.00,1,1,1,1083.61,2.00,168202.51,744.17,1.77,56988.35,129.49,3.04,24340.40,373.34,-1.48,29453.44,955.13,2.98,41223.37
1642200,1376.84,401.67,1.00,1,1,1,502.64,1.25,54091.71,490.47,-3.13,55272.32,612.80,-2.99,33234.24,526.40,-3.05,43940.12,1431.61,2.97,32418.72
1663000,1357.07,394.49,1.00,1,1,1,1011.03,-2.79,66412.24,1256.47,-2.48,44103.35,678.88,-2.64,11257.20,1795.98,2.95,62403.25,1935.25,3.09,25917.41
1677500,1341.91,374.32,1.00,2,2,2,1740.00,-2.21,72465.11,1027.08,-2.36,18444.01,1428.91,3.13,62309.05,3163.48,2.95,94319.25,2434.09,3.08,34429.47
1691500,1336.37,373.79,1.00,2,2,2,397.88,-3.05,107229.53,2201.00,2.67,151375.92,3452.68,2.95,147193.28,4458.70,3.01,93951.78,2675.45,3.08,17253.02
1706500,1284.97,403.15,1.00,2,2,2,3946.23,2.62,241874.47,5744.66,2.83,239305.98,5298.04,2.91,123477.14,4935.70,3.02,31918.06,2840.57,3.10,11347.82
1727900,1137.07,437.09,1.00,2,2,2,7090.61,2.92,163737.48,7159.88,2.96,75576.32,7647.46,2.96,110809.65,5420.78,3.04,23764.68,3002.43,3.08,7942.49
1755900,937.33,468.35,1.00,1,1,1,7220.48,2.99,18566.58,9348.28,3.03,81249.28,7595.94,3.00,9981.25,5395.97,3.01,7222.99,2762.58,3.05,9011.24
1770200,744.00,480.26,1.00,1,1,1,13544.93,3.08,446985.72,8221.89,3.05,79744.16,7074.28,3.08,56225.62,5423.51,3.01,3246.16,2739.58,3.07,4325.97
1791500,645.79,494.39,1.00,1,1,1,4658.40,3.00,418309.91,4437.79,-3.07,183224.55,5578.07,3.12,70970.60,5073.06,3.08,23795.99,2489.86,3.06,11897.88
1806000,585.51,469.29,1.00,1,1,1,4503.47,-2.75,168105.81,2403.03,-2.88,146544.54,2771.28,-3.10,194474.75,4014.97,3.13,74150.21,2334.22,3.03,11557.28
1820100,579.32,476.93,1.00,1,1,1,697.54,2.25,309100.19,720.69,3.00,124845.09,1975.35,-2.76,79774.31,2448.43,-3.11,111581.10,2324.96,3.01,3759.01
1834900,564.89,472.18,1.00,1,1,1,1026.85,-2.82,68655.97,1669.10,-2.61,80695.19,1028.45,-2.85,64682.41,1288.67,-3.01,79325.66,2365.84,3.01,2890.46
1856000,527.78,446.37,1.00,1,1,1,2142.15,-2.53,56622.87,1257.09,-2.72,20908.37,499.58,-2.70,25587.32,409.66,-2.77,42438.04,2265.50,3.08,8373.61
1884600,508.00,446.35,1.00,1,1,1,691.65,-3.14,56732.64,169.15,0.99,49053.96,375.90,-2.57,4773.40,152.41,0.28,19637.56,1873.91,3.14,14373.58
1920800,533.79,455.54,1.00,1,1,1,756.33,0.34,39420.20,507.65,0.21,11194.44,531.71,0.41,24988.32,129.91,-0.18,1871.85,1289.30,-3.06,16592.39
1935300,533.17,451.73,1.00,1,1,1,266.19,-1.73,63108.24,1136.13,0.28,43501.91,1083.36,0.29,38564.16,93.34,-0.12,2561.04,732.73,-3.03,38428.80
1963300,580.18,468.94,1.00,1,1,1,1787.93,0.35,69018.15,1681.02,0.31,19510.87,907.44,0.25,6425.31,181.74,0.11,3331.63,480.41,-3.04,9015.00
1984300,611.62,476.84,1.00,1,1,1,1543.62,0.25,14289.09,633.69,0.18,50300.62,663.28,0.37,12414.51,253.25,-0.18,4523.08,410.38,3.07,4955.85
1998500,602.14,472.86,1.00,1,1,1,724.07,-2.74,159298.73,1069.86,-2.93,119946.95,445.22,-2.41,76833.10,156.02,-1.22,15527.25,497.71,3.11,6258.93
2013200,581.41,470.22,1.00,1,1,1,1421.08,-3.02,50953.46,1680.71,-2.65,48380.63,1277.77,-2.61,57540.59,96.78,2.91,15235.31,481.83,-3.14,1668.34
2027700,558.79,449.85,1.00,1,1,1,2099.92,-2.41,85206.82,1568.02,-2.40,29148.51,1094.75,-2.58,12901.28,611.98,3.00,35561.97,377.49,2.95,9132.64
2042600,547.36,439.15,1.00,2,2,2,1050.51,-2.39,70455.25,636.57,-2.42,62523.29,977.14,-2.90,23429.60,1217.51,3.13,41324.73,302.68,2.48,11681.56
2064100,541.41,434.52,1.00,2,2,2,350.67,-2.48,32650.53,891.29,2.63,42371.96,995.85,2.65,32810.96,1358.80,3.09,7103.42,304.86,2.65,2342.49
2078300,519.68,454.86,1.00,2,2,2,2095.76,2.39,145793.65,2142.90,2.28,94109.94,1455.21,2.71,32693.52,1192.28,3.13,12400.70,421.55,2.85,9718.42
2092100,502.11,479.86,1.00,1,1,1,2214.53,2.18,33208.46,2165.20,2.75,72557.99,1946.41,2.75,35882.00,1035.61,3.01,14795.07,434.80,3.04,5908.75
2106900,462.36,478.27,1.00,1,1,1,2688.52,-3.10,161055.62,2103.08,3.11,50817.63,1409.59,2.99,45142.92,891.16,2.63,26818.19,175.28,-2.82,19216.44
2128300,426.03,482.50,1.00,1,1,1,1709.02,3.03,48357.54,1054.36,-3.02,50172.11,1154.24,-3.02,20148.65,731.30,2.51,8737.66,463.70,-0.27,28821.63
2157400,409.49,471.89,1.00,1,1,1,675.05,-2.57,43351.63,471.33,-2.42,24711.81,450.43,2.41,31723.11,742.47,2.85,8584.37,1192.61,-0.07,25535.93
2171900,410.67,468.85,1.00,1,1,1,224.89,-1.20,46014.39,1380.30,0.86,127487.32,424.36,0.44,50197.41,278.59,3.12,33119.54,1717.91,-0.03,36433.61
2186500,435.74,502.30,1.00,1,1,1,2863.22,0.93,204705.34,1488.89,0.55,31145.69,243.13,1.09,18789.36,734.20,-0.16,69243.55,1780.17,0.04,9457.53
2208100,456.63,496.99,1.00,1,1,1,997.87,-0.25,122458.17,680.85,-2.43,100179.31,805.59,0.23,31215.30,1944.29,-0.15,56024.59,1910.62,0.04,6054.86
2223100,416.81,486.09,1.00,2,2,2,2752.45,-2.87,243585.86,591.03,-1.27,46994.20,2116.62,-0.30,98437.36,3587.48,-0.05,110797.86,1930.91,0.02,3533.35
2237000,461.76,480.70,1.00,2,2,2,3256.52,-0.12,424304.18,5365.20,-0.16,368909.65,3563.97,-0.21,105452.85,4468.00,-0.06,63355.92,1841.01,-0.08,14993.59
2251500,567.24,461.85,1.00,2,2,2,7390.23,-0.18,285742.74,5466.52,-0.16,6988.67,6535.36,-0.08,209626.06,4021.15,-0.07,30944.08,1870.28,-0.09,2248.82
2286900,731.07,437.36,1.00,1,1,1,4679.31,-0.15,76724.76,7221.65,-0.05,53403.47,7511.09,-0.08,27563.10,4205.88,-0.06,5276.04,1987.82,-0.12,3570.61
2300900,923.59,444.84,1.00,1,1,1,13761.59,0.04,657527.58,11058.13,-0.01,274840.20,5310.79,-0.01,160778.91,4382.98,-0.03,15021.08,2081.68,-0.09,7946.53
2316100,1053.93,432.60,1.00,1,1,1,8613.10,-0.09,351743.50,3449.41,0.08,502060.87,4925.93,0.05,32218.57,3795.52,-0.08,40695.23,2114.99,-0.07,3244.50
2351100,1096.19,458.74,1.00,1,1,1,1419.68,0.55,215136.59,1369.45,0.39,62364.75,2273.83,0.11,75941.56,2871.11,-0.08,26412.44,2066.82,-0.11,2959.89
2365200,1116.22,457.92,1.00,1,1,1,1421.98,-0.04,59065.03,236.53,0.84,82371.13,28.22,0.14,159264.55,2038.10,-0.08,59088.31,1933.74,-0.16,11520.66
2379200,1100.63,463.69,1.00,1,1,1,1187.56,2.79,184131.54,2252.92,-2.75,176322.90,1040.54,-2.62,76194.31,721.41,-0.24,95058.71,2055.70,-0.12,10391.15
2394100,1056.11,432.90,1.00,1,1,1,3632.56,-2.54,208511.96,2010.21,-2.59,27766.32,1611.15,-2.70,38891.14,63.61,-1.06,45590.41,1859.30,-0.13,13217.70
2415900,1037.81,425.00,1.00,1,1,1,914.37,-2.73,125771.85,1102.32,-2.61,41671.79,1024.04,-2.53,28542.86,287.83,-2.38,12792.18,1507.65,-0.13,16131.45
2430100,1021.89,412.81,1.00,1,1,1,1412.08,-2.49,40162.98,200.73,-2.04,66138.30,114.95,-1.27,70115.42,720.11,-2.59,31232.46,1066.43,-0.06,31694.49
2458500,1033.92,417.39,1.00,1,1,1,453.03,0.36,65167.74,787.36,0.28,32972.19,376.00,0.18,13375.54,628.45,-2.53,3557.90,485.63,-0.09,20463.28
2479200,1059.02,423.56,1.00,1,1,1,1249.17,0.24,38717.76,998.00,0.38,10960.92,136.58,-0.89,16092.16,253.51,-2.42,18232.11,59.21,-0.14,20603.87
2493700,1066.58,430.32,1.00,1,1,1,698.93,0.73,49116.51,1259.43,-2.58,155060.42,135.27,-2.50,13525.02,183.02,-2.08,7043.99,86.21,-2.49,9296.41
2507700,1028.56,404.57,1.00,1,1,1,3279.35,-2.55,283790.47,1531.47,-2.71,23256.17,544.25,-2.68,29419.06,183.91,0.20,23789.77,93.22,-2.42,709.22
2522100,1027.02,412.25,1.00,1,1,1,543.58,1.77,244790.39,97.40,1.87,107438.40,779.79,-2.55,17448.31,273.86,0.36,6730.32,148.89,-2.03,4993.42
2543800,1027.53,407.93,1.00,1,1,1,200.13,-1.45,34250.68,283.18,-1.75,17154.79,324.78,0.57,50898.90,101.09,0.47,8010.62,72.07,-0.56,7294.27
2557800,1025.18,402.31,1.00,1,1,1,435.70,-1.97,19953.58,581.98,0.44,55776.29,571.74,0.41,18356.38,117.51,0.94,3770.16,79.83,-0.46,792.94
2586600,1050.12,418.43,1.00,1,1,1,1031.19,0.57,49032.44,1097.67,0.56,18227.18,633.50,0.46,2463.01,473.92,0.48,12920.94,90.47,-0.12,1052.52
2608500,1072.39,431.77,1.00,1,1,1,1185.47,0.54,7258.18,696.22,0.49,18509.25,835.35,0.68,11678.93,328.67,0.19,8441.08,82.24,-2.60,7457.99
2622100,1071.88,430.14,1.00,1,1,1,125.14,-1.88,94241.94,450.87,1.24,35086.40,623.59,0.43,20346.04,288.93,0.25,3276.93,156.41,-2.76,5607.78
2636900,1076.54,443.88,1.00,1,1,1,980.15,1.24,74679.94,567.29,0.37,29792.01,155.24,-0.86,40523.25,214.23,0.32,5156.80,230.78,-2.69,5107.47
2666300,1095.23,439.29,1.00,1,1,1,654.70,-0.24,38474.44,429.82,-1.39,26366.16,110.41,-1.19,2120.40,55.97,-1.50,7973.60,27.41,0.31,8773.58
2687500,1080.41,422.48,1.00,1,1,1,1057.22,-2.29,69770.62,542.78,-2.37,22144.71,364.46,-2.07,14416.59,419.31,-2.71,19013.05,139.86,-0.07,5419.19
2716200,1075.73,420.49,1.00,1,1,1,176.98,-2.74,31386.01,508.15,-2.74,6697.86,630.19,-2.55,12208.55,388.42,-2.74,1123.77,225.38,-0.12,2992.77
2730500,1060.33,413.87,1.00,1,1,1,1172.80,-2.74,69638.15,776.46,-2.72,18780.84,896.59,-2.88,25584.00,537.10,-2.60,11349.07,216.13,-0.04,1353.82
2751500,1050.75,409.22,1.00,1,1,1,506.89,-2.69,31753.58,1373.86,-2.95,30591.38,966.52,-2.91,3487.14,446.22,-2.64,4453.64,140.29,-0.65,6159.63
2766200,1012.20,404.39,1.00,2,2,2,2642.58,-3.02,147524.23,1227.22,-3.05,13486.92,902.88,-2.90,4361.45,118.27,-2.24,23177.76,192.34,-1.69,11678.47
2780500,1015.31,405.97,1.00,2,2,2,243.46,0.47,200899.71,324.59,-2.63,65759.05,221.13,-3.00,47776.85,217.84,-0.82,16187.30,207.62,-1.58,1849.49
2794600,1004.17,399.87,1.00,1,1,1,900.52,-2.64,81126.76,599.35,0.06,63983.28,906.16,0.08,79926.33,257.42,-0.44,6884.61,259.53,-1.60,3690.82
2816100,1036.61,407.17,1.00,1,1,1,1546.62,0.22,112788.90,1867.58,0.14,59133.00,1246.18,-0.07,17603.53,277.94,-0.45,969.07,307.93,-1.86,4076.15
2830200,1070.00,409.20,1.00,1,1,1,2372.27,0.06,62488.54,2065.64,-0.12,38950.88,1343.35,-0.00,9586.39,426.79,-0.51,10657.22,221.80,-1.79,6262.61
2844500,1094.85,400.10,1.00,1,1,1,1850.44,-0.35,70110.75,782.94,-0.44,93968.70,751.18,-0.29,46005.67,473.98,-0.60,4308.56,211.14,-1.73,1161.84
2858600,1090.14,399.78,1.00,1,1,1,334.30,-3.07,153209.50,379.61,-2.63,74581.35,444.55,-1.70,57555.07,523.64,-0.47,5760.35,146.44,-1.70,4604.34
2880400,1082.93,393.48,1.00,1,1,1,439.26,-2.42,12231.86,700.47,-2.34,16248.66,511.62,-2.20,11271.79,445.17,-1.02,12554.11,284.72,-2.98,12900.14
2909300,1065.37,374.34,1.00,1,1,1,898.98,-2.31,16088.06,664.95,-2.00,8098.24,454.55,-1.99,4058.36,340.95,-1.63,8865.66,603.15,3.01,11762.60
2923200,1071.03,367.63,1.00,1,1,1,631.32,-0.87,74153.93,382.19,-0.87,44024.07,545.25,-1.89,7470.85,320.52,-2.23,14053.70,887.81,3.03,20489.31
2944800,1074.17,364.01,1.00,1,1,1,221.88,-0.86,18956.46,415.34,-1.67,14498.93,217.00,-1.46,16660.20,291.51,-2.50,3976.51,978.52,2.98,4632.63
2958500,1069.60,353.04,1.00,1,1,1,867.06,-1.97,57894.45,283.29,-2.70,26541.79,86.28,-2.43,13322.24,717.91,3.12,38108.25,1143.22,3.04,12840.24
2973000,1066.94,360.60,1.00,1,1,1,552.98,1.91,91760.28,398.37,1.81,36705.99,331.98,2.68,21350.97,1618.25,2.91,63906.52,1202.71,3.05,4159.85
2986900,1066.89,364.02,1.00,1,1,1,246.05,1.59,23671.60,489.59,2.31,16887.34,1375.98,2.73,75151.73,2034.67,2.93,30049.56,1287.58,2.99,7996.92
3008500,1055.26,373.47,1.00,2,2,2,693.70,2.46,26287.11,2025.28,2.82,74815.17,3000.39,2.86,76148.60,2405.41,2.92,17230.26,1354.83,2.93,4651.98
3037100,970.47,396.28,1.00,2,2,2,3069.97,2.88,85760.36,5152.14,2.90,109703.02,3295.53,2.92,12254.19,2443.16,2.91,1515.44,1349.76,2.90,1659.06
3051200,841.71,426.37,1.00,1,1,1,9377.60,2.91,447527.61,4585.18,2.96,45634.05,3843.24,2.93,38975.42,2326.31,2.91,8363.78,1316.96,2.85,4955.03
3087100,744.92,437.38,1.00,1,1,1,2713.51,3.03,186348.22,2722.21,2.98,51931.25,3538.76,2.98,9687.69,2277.80,2.88,2378.77,1308.09,2.94,3248.49
3100800,708.42,447.89,1.00,1,1,1,2772.92,2.86,33737.43,1720.46,3.04,73761.78,1671.43,3.01,136477.04,2472.40,2.85,15443.29,1302.14,2.96,1452.12
3115800,695.79,442.24,1.00,1,1,1,922.69,-2.72,143465.22,185.44,-1.10,121839.31,725.78,2.64,68683.05,2069.86,2.82,27284.98,1230.03,2.93,5214.62
3130100,710.90,443.06,1.00,1,1,1,1058.38,0.05,136225.93,537.77,1.15,46814.44,703.17,2.16,23756.07,1039.13,2.76,72285.69,1162.59,2.94,4772.97
3151800,703.72,459.90,1.00,1,1,1,843.64,1.97,72017.57,1431.54,2.15,56594.56,763.02,1.67,16596.52,474.83,2.99,27018.42,1264.38,2.93,4744.06
3165800,682.93,485.83,1.00,1,1,1,2374.08,2.25,112717.60,1198.17,1.97,23895.33,609.23,1.90,15635.39,147.13,-2.56,27062.83,1146.09,2.96,8884.45
3179700,690.83,490.74,1.00,1,1,1,669.12,0.56,182892.74,394.05,-0.13,103282.17,365.92,-2.70,53597.49,125.42,-0.75,15417.25,689.37,3.11,34215.42
3201300,696.81,484.08,1.00,1,1,1,414.35,-0.84,33466.59,896.32,-1.86,48011.78,638.77,-1.41,29647.57,86.17,-1.04,2269.77,152.98,-0.99,36434.88
3229900,677.90,447.65,1.00,1,1,1,1435.42,-2.05,47075.40,1118.72,-1.70,9711.20,804.93,-1.28,6672.17,150.29,-2.48,5705.62,821.12,-0.25,25037.19
3244400,690.79,436.25,1.00,1,1,1,1186.91,-0.72,112084.47,1249.45,-0.52,91020.65,714.29,-1.19,7794.85,425.75,-0.97,30498.45,1098.03,-0.26,19108.68
3258400,708.83,430.01,1.00,1,1,1,1363.55,-0.33,37513.12,763.17,-0.16,42731.93,139.29,-0.11,47192.81,845.30,-0.82,30692.75,946.54,-0.22,11157.76
3279800,717.47,431.96,1.00,1,1,1,413.49,0.22,48376.50,764.12,2.49,69248.31,413.19,-0.02,12838.96,1362.33,-0.51,28512.78,920.17,-0.23,1288.17
3294500,686.84,446.66,1.00,2,2,2,2310.88,2.69,180103.65,132.54,1.63,46607.76,1094.22,-0.40,49428.72,2264.94,-0.23,70156.83,960.42,-0.31,5472.80
3308400,717.23,435.74,1.00,2,2,2,2323.06,-0.35,332937.98,3451.23,-0.47,253244.94,2414.80,-0.28,95964.69,2445.78,-0.21,13344.35,1031.73,-0.35,5925.20
3322700,773.69,402.73,1.00,3,3,3,4573.37,-0.53,162835.52,4397.43,-0.31,79679.90,4431.84,-0.23,141534.94,1749.37,-0.19,48798.70,1188.56,-0.29,11961.41
3343900,866.13,388.84,1.00,1,1,1,4409.21,-0.15,80334.54,5334.46,-0.11,62862.73,4496.17,-0.23,3137.31,1827.79,-0.20,3751.98,1362.33,-0.51,15870.05
3357900,960.35,382.27,1.00,1,1,1,6746.20,-0.07,169786.77,4657.07,-0.13,49249.97,2270.88,-0.11,161102.18,2019.16,-0.24,15165.82,2264.94,-0.23,73664.67
3372100,996.26,371.16,1.00,1,1,1,2647.58,-0.30,296639.00,97.49,-0.24,321132.71,1363.59,-0.07,64109.14,1645.17,-0.21,26596.77,2445.78,-0.21,13062.42
3407500,965.05,381.14,1.00,1,1,1,925.75,2.83,100940.38,524.58,2.74,17540.48,73.86,-0.90,37148.64,1632.37,-0.06,7400.12,1749.37,-0.19,19712.47
3421900,972.23,381.40,1.00,1,1,1,498.88,0.04,97596.42,126.06,-1.89,38139.16,181.58,2.73,17306.46,1363.59,-0.07,18729.03,1827.79,-0.20,5523.75
3435900,963.91,377.75,1.00,1,1,1,648.65,-2.73,80531.50,161.49,-0.38,14245.22,961.98,0.09,80312.75,73.86,-0.90,93932.98,2019.16,-0.24,15165.82
3471700,979.71,378.44,1.00,1,1,1,441.57,0.04,29952.74,1530.55,0.13,38876.46,161.49,-0.38,22933.07,181.58,2.73,6961.26,1645.17,-0.21,10549.56
3486600,1040.83,388.00,1.00,1,1,1,4152.24,0.16,249243.44,4152.24,0.16,175994.38,1530.55,0.13,93407.88,961.98,0.09,75461.65,1632.37,-0.06,17581.50
