@RELATION gaze_labels

%@METADATA width_px 1920
%@METADATA height_px 1080
%@METADATA width_mm 540.00
%@METADATA height_mm 254.00
%@METADATA distance_mm 620.00


@ATTRIBUTE time INTEGER
@ATTRIBUTE x NUMERIC
@ATTRIBUTE y NUMERIC
@ATTRIBUTE confidence NUMERIC
@ATTRIBUTE handlabeller1 INTEGER
@ATTRIBUTE handlabeller2 INTEGER
@ATTRIBUTE handlabeller_final INTEGER
@ATTRIBUTE speed_1 numeric
@ATTRIBUTE direction_1 numeric
@ATTRIBUTE acceleration_1 numeric
@ATTRIBUTE speed_2 numeric
@ATTRIBUTE direction_2 numeric
@ATTRIBUTE acceleration_2 numeric
@ATTRIBUTE speed_4 numeric
@ATTRIBUTE direction_4 numeric
@ATTRIBUTE acceleration_4 numeric
@ATTRIBUTE speed_8 numeric
@ATTRIBUTE direction_8 numeric
@ATTRIBUTE acceleration_8 numeric
@ATTRIBUTE speed_16 numeric
@ATTRIBUTE direction_16 numeric
@ATTRIBUTE acceleration_16 numeric

%The number after speed, direction denotes the step size that was used for the calculation.
%Acceleration was calculated between two adjacent samples of the already low pass filtered velocity

@DATA
0,372.73,452.90,1.00,1,1,1,0.00,0.00,0.00,534.08,-2.29,0.00,151.57,2.89,0.00,286.73,1.31,0.00,156.36,1.89,0.00
29200,362.51,441.12,1.00,1,1,1,534.08,-2.29,18290.55,151.57,2.89,16625.16,1102.11,1.21,38657.85,703.36,1.26,14289.63,130.16,2.11,1386.16
43100,366.40,454.52,1.00,1,1,1,1003.54,1.29,108292.01,1102.11,1.21,81209.31,286.73,1.31,58805.65,162.39,2.59,49162.14,148.26,-2.61,14132.07
64400,376.17,477.43,1.00,1,1,1,1169.46,1.17,9900.76,554.46,1.07,26211.46,703.36,1.26,19589.55,209.42,-2.61,9171.90,408.10,-0.55,23274.89
92400,379.48,478.52,1.00,1,1,1,124.38,0.32,38976.34,374.17,1.39,8234.42,162.39,2.59,24405.49,156.36,1.89,10229.69,1284.08,-0.24,32297.56
106500,379.02,492.92,1.00,1,1,1,1022.01,1.60,70499.85,830.04,-2.55,79712.66,209.42,-2.61,13855.42,130.16,2.11,2870.63,2362.00,-0.09,78689.05
128600,354.55,461.75,1.00,1,1,1,1793.41,-2.24,120323.12,632.91,-2.23,13759.10,192.05,-3.13,4746.96,148.26,-2.61,8888.50,3490.33,-0.00,52231.02
157100,359.44,467.58,1.00,1,1,1,267.16,0.87,72296.44,447.66,1.04,37838.93,550.76,-2.24,15995.64,408.10,-0.55,17394.92,3985.56,-0.00,17376.32
171600,364.27,478.36,1.00,1,1,1,814.68,1.15,38793.45,405.54,-2.26,58657.19,274.12,-2.01,20020.59,1284.08,-0.24,62367.70,1547.02,-0.01,168175.82
185700,352.08,458.62,1.00,2,2,2,1645.61,-2.12,174150.62,1144.77,-2.05,53364.68,1165.56,-0.32,87139.40,2362.00,-0.09,78689.05,1574.42,0.04,4905.05
207200,345.39,442.24,1.00,2,2,2,822.72,-1.96,39308.32,2227.90,-0.18,129631.57,3089.96,-0.22,89947.50,3490.33,-0.00,53688.63,1505.78,0.01,3561.28
221700,430.92,443.92,1.00,3,3,3,5899.70,0.02,432490.05,7388.99,-0.03,358424.83,5605.37,0.01,185744.43,3985.56,-0.00,34153.46,1541.25,0.01,2447.24
236100,558.82,435.08,1.00,1,1,1,8902.58,-0.07,213240.63,9780.08,0.07,176373.36,8342.49,0.04,190459.84,3662.06,-0.06,27097.30,1609.70,-0.00,5081.86
251300,719.76,463.37,1.00,1,1,1,10750.67,0.17,197763.94,9306.47,0.09,35394.16,6842.68,0.05,98878.23,3272.12,-0.00,28856.82,1731.51,0.01,8091.76
265700,833.07,460.94,1.00,1,1,1,7870.70,-0.02,235653.80,4410.16,0.02,341542.24,4292.92,0.05,177071.81,3377.59,0.04,11578.16,1813.87,0.05,7776.14
287000,877.17,466.77,1.00,1,1,1,2088.18,0.13,273033.90,338.30,-1.04,199859.82,1483.46,-0.04,132376.57,2867.66,0.10,25397.19,1897.55,0.05,3929.30
301500,839.15,450.46,1.00,1,1,1,2852.73,-2.74,337643.06,638.97,-2.87,54841.10,43.47,-3.09,105292.56,1993.44,0.15,60855.03,1913.04,0.02,4467.65
336800,846.49,458.30,1.00,1,1,1,304.15,0.82,88774.74,288.64,2.33,15970.77,538.09,2.73,14151.38,1123.49,0.21,24773.33,2084.05,0.03,4929.69
350600,829.39,460.74,1.00,1,1,1,1252.21,3.00,104956.09,940.48,1.87,50299.16,338.82,1.48,39156.79,319.44,0.59,60534.72,2424.76,0.02,24825.10
364600,838.82,483.29,1.00,1,1,1,1746.09,1.17,170792.62,698.02,0.92,55674.20,846.51,0.90,42294.52,187.40,1.62,19663.64,2369.32,-0.01,5681.07
379500,841.62,476.78,1.00,1,1,1,475.82,-1.16,141260.03,1362.32,0.33,58672.17,793.44,0.55,19517.40,410.33,0.68,22490.55,2070.78,0.00,20097.73
393800,876.48,496.10,1.00,1,1,1,2787.12,0.51,200966.67,934.21,0.33,29937.96,591.27,0.27,19513.14,839.73,0.17,36478.78,1595.03,-0.03,33636.13
414600,872.69,487.26,1.00,1,1,1,462.38,-1.98,152172.19,75.59,-1.79,46911.28,687.38,0.24,4699.02,1473.05,-0.03,32331.78,1224.82,-0.03,17800.80
429600,875.88,493.46,1.00,2,2,2,464.88,1.10,61778.94,403.51,-0.00,28432.56,1045.75,-0.19,34009.39,1950.52,-0.14,34274.90,1156.77,-0.03,4539.66
443500,884.35,487.24,1.00,2,2,2,756.44,-0.63,68232.60,1792.54,-0.16,100402.80,2156.13,-0.19,79884.04,2169.89,-0.11,16542.39,1280.38,0.04,10833.35
479900,964.87,478.97,1.00,1,1,1,2223.71,-0.10,44442.32,3167.69,-0.21,37904.87,2939.66,-0.20,21528.19,2043.97,-0.15,4119.45,1405.92,0.03,3485.14
493800,1040.23,454.23,1.00,1,1,1,5706.14,-0.32,256490.87,4293.23,-0.22,81015.22,3145.06,-0.16,17395.21,2138.93,-0.11,8771.19,1370.35,0.03,2568.74
522600,1143.84,439.25,1.00,1,1,1,3634.92,-0.14,76970.09,3130.69,-0.11,42829.92,3137.49,-0.13,2715.22,2220.85,-0.10,2899.05,982.58,0.06,13516.59
543900,1196.20,437.66,1.00,1,1,1,2459.40,-0.03,57424.41,1837.43,0.11,65217.76,2136.55,-0.03,48677.25,2144.09,-0.06,5774.28,428.66,0.23,26501.47
558600,1209.61,446.25,1.00,1,1,1,1083.75,0.57,114315.72,603.80,0.74,94981.44,1274.18,0.21,64666.45,1984.92,-0.03,11524.25,227.83,2.96,43833.01
572900,1209.16,449.43,1.00,1,1,1,224.53,1.71,70720.92,636.40,0.62,5764.25,686.61,0.81,56422.96,1273.62,0.10,51939.01,574.82,3.06,24375.98
587500,1224.63,456.86,1.00,1,1,1,1175.78,0.45,77294.95,772.35,0.88,15548.92,707.65,0.54,13003.23,437.16,1.72,93687.70,681.14,-3.07,9781.84
602000,1223.56,466.68,1.00,1,1,1,681.16,1.68,79028.58,768.06,0.49,20087.16,413.29,1.08,28446.25,1645.21,2.85,103950.26,712.22,-3.03,2992.26
622900,1248.56,469.77,1.00,2,2,2,1205.20,0.12,65823.88,184.98,1.89,36277.71,1285.46,2.69,65196.59,2840.32,2.99,59053.51,1029.33,3.13,15940.77
636900,1221.53,472.81,1.00,2,2,2,1943.00,3.03,223408.54,2763.42,2.87,190376.16,2999.55,2.99,129362.28,3559.86,3.04,52661.99,1296.38,3.06,19889.85
665800,1134.23,501.11,1.00,2,2,2,3175.58,2.83,46024.72,5011.15,3.01,79660.29,5606.08,3.05,90718.40,3845.56,3.10,12665.24,1692.95,3.00,14104.63
687500,970.23,506.61,1.00,1,1,1,7561.87,3.11,211731.87,9056.41,3.12,189584.35,6542.48,3.09,44038.90,3814.68,-3.14,8437.96,1841.83,3.01,6894.86
701900,807.38,508.46,1.00,1,1,1,11310.00,3.13,260673.25,9237.62,-3.12,27966.43,7043.36,-3.10,59437.14,4132.27,3.12,23229.15,1895.47,3.03,4958.91
716800,699.61,502.05,1.00,1,1,1,7245.72,-3.08,276143.08,4691.70,-2.93,316510.53,5084.05,-3.00,137092.13,3793.31,3.12,22754.85,1765.80,3.05,8860.08
731700,670.57,479.62,1.00,1,1,1,2462.31,-2.48,361910.91,1612.46,-2.23,242273.61,2260.21,-2.94,189976.20,3259.21,3.13,35861.13,1776.26,3.07,2738.47
747300,669.30,463.32,1.00,1,1,1,1048.43,-1.65,123276.15,150.49,0.42,111974.02,580.64,-2.63,110054.55,2051.75,3.13,77401.55,1686.86,3.11,7489.44
761800,674.71,481.46,1.00,1,1,1,1305.96,1.28,161471.95,555.57,1.74,37149.00,378.34,1.94,50857.50,1065.26,-3.14,68058.86,1727.98,3.10,3283.70
783400,665.91,483.08,1.00,1,1,1,414.37,2.96,65368.80,610.11,2.09,9655.19,554.30,2.10,8834.00,290.35,-3.14,35875.23,1765.48,3.12,2457.98
811400,659.74,507.76,1.00,1,1,1,908.53,1.82,29567.67,583.69,2.29,4347.44,465.88,2.55,8663.54,115.12,2.09,9085.14,1756.76,-3.12,2573.82
847900,641.17,511.46,1.00,1,1,1,518.77,2.95,22785.90,466.89,3.14,12201.22,234.87,2.31,6695.00,108.54,1.25,2483.49,1425.30,3.11,9392.33
863200,635.55,507.89,1.00,1,1,1,434.82,-2.58,23757.43,280.28,-0.89,44419.14,113.87,-1.48,21755.25,144.72,0.45,6841.65,1115.29,3.05,20856.48
891600,648.85,501.92,1.00,1,1,1,513.29,-0.42,29421.86,642.39,-0.41,14631.99,571.18,-0.71,17456.57,43.67,2.99,6424.78,818.83,2.98,10681.45
905800,660.68,497.05,1.00,1,1,1,900.81,-0.39,27330.52,936.80,-0.65,24526.59,820.56,-0.24,28732.01,397.87,-2.86,25256.84,709.04,2.86,10142.34
927100,675.38,481.86,1.00,2,2,2,992.31,-0.80,18630.95,1050.93,-0.11,25139.27,313.48,-1.07,30681.26,728.95,3.04,18233.86,677.61,2.76,3398.63
941700,698.16,492.76,1.00,2,2,2,1730.14,0.45,116421.64,593.06,3.00,112594.74,959.57,-3.03,76443.99,1183.37,2.95,31721.78,634.84,2.90,6843.13
955900,658.46,484.20,1.00,2,2,2,2860.46,-2.93,321208.58,3436.59,-3.12,200919.24,2229.17,2.86,97943.60,1469.42,2.94,20155.84,597.53,2.69,9294.59
970600,598.88,490.19,1.00,1,1,1,4073.37,3.04,109695.56,3547.19,2.84,77255.23,3617.82,2.94,95538.11,1438.61,2.92,2763.99,578.82,2.85,6219.98
991800,536.78,521.75,1.00,1,1,1,3285.92,2.67,73534.98,3892.19,2.77,20618.62,2836.23,2.87,38128.70,1526.62,2.85,6389.21,551.08,2.82,1520.19
1006300,469.41,540.64,1.00,1,1,1,4825.11,2.87,119061.35,2246.84,2.91,116927.37,1857.10,2.79,68616.29,1580.83,2.97,13593.28,577.21,2.83,1851.24
1034900,442.56,544.12,1.00,1,1,1,946.81,3.01,136034.61,398.77,2.96,64642.31,947.06,2.83,31874.31,1268.07,2.68,18072.04,654.27,2.80,2785.31
1055900,449.95,544.17,1.00,1,1,1,352.05,0.01,61738.14,664.35,0.00,50425.02,156.21,-1.01,51001.62,869.83,2.58,19649.05,632.01,2.95,4712.13
1070200,466.01,544.22,1.00,1,1,1,1122.98,0.00,53911.30,1035.39,-0.49,38462.40,892.56,0.37,61246.50,423.45,2.42,31943.58,661.15,2.82,5930.35
1084300,475.89,530.32,1.00,1,1,1,1209.29,-0.95,76255.60,1259.69,0.60,85315.83,642.10,0.38,17788.51,131.00,1.50,25533.22,667.27,2.98,7588.92
1098900,495.90,564.55,1.00,1,1,1,2715.76,1.04,232651.93,880.90,1.17,48097.69,479.59,0.60,13874.49,232.12,0.71,11458.41,541.00,2.84,10595.00
1120600,488.47,559.72,1.00,1,1,1,408.35,-2.56,142221.78,149.38,-2.57,46453.41,396.56,1.73,21823.19,144.72,-0.43,9986.36,387.52,2.60,8668.75
1134500,491.42,561.68,1.00,1,1,1,254.92,0.59,47716.77,415.52,3.06,22299.69,319.24,3.06,32106.08,135.88,-0.01,4232.30,242.31,2.48,10774.17
1162900,470.95,561.10,1.00,1,1,1,721.18,-3.11,33348.32,467.61,2.92,2854.09,335.11,-2.19,11350.11,130.63,-0.26,1169.49,68.92,1.46,7537.43
1184100,468.79,566.73,1.00,1,1,1,284.65,1.94,32161.86,532.54,-1.59,36629.41,197.80,-1.80,8020.99,159.60,-1.66,8863.88,40.86,0.44,2793.97
1212500,470.53,534.69,1.00,1,1,1,1129.99,-1.52,49422.45,689.16,-0.89,15574.85,523.34,-0.96,14745.48,41.15,-0.87,4704.49,13.75,-0.96,1435.84
1226700,487.27,543.92,1.00,1,1,1,1346.26,0.50,147920.88,789.51,-0.36,27959.14,426.16,-0.89,7222.60,98.98,2.68,9696.69,139.98,-2.61,9976.54
1247700,496.51,524.82,1.00,1,1,1,1010.47,-1.12,82189.66,197.97,-0.88,29772.32,383.86,0.72,27811.60,10.24,1.05,4765.46,116.48,2.92,4618.03
1275800,493.46,536.43,1.00,1,1,1,427.05,1.83,50957.85,700.16,1.69,31081.79,330.43,1.99,15190.16,145.90,-2.28,5550.36,176.91,3.05,2250.17
1290200,492.95,554.36,1.00,1,1,1,1246.18,1.60,58048.81,1045.96,2.06,32525.93,576.12,2.15,17713.88,135.02,2.82,10909.38,315.60,1.82,21309.12
1311700,475.74,569.53,1.00,1,1,1,1066.92,2.42,43549.53,633.91,2.77,32579.71,640.61,2.83,18922.80,414.70,-2.79,14932.53,580.00,1.76,12347.21
1326000,471.78,562.55,1.00,1,1,1,561.56,-2.09,91170.74,1021.29,-2.40,65351.41,662.22,-2.82,28637.77,399.16,2.91,16579.83,886.51,1.63,22412.18
1340800,453.89,549.39,1.00,1,1,1,1500.58,-2.51,68537.73,1010.10,-2.30,6607.45,1029.15,-2.35,35908.50,474.36,2.57,11047.88,931.00,1.66,3376.71
1354900,452.30,540.80,1.00,1,1,1,619.37,-1.75,80264.72,1037.33,-2.31,2061.11,608.88,-2.47,30544.65,781.78,1.85,37582.29,1126.32,1.58,14883.13
1376100,429.19,522.36,1.00,1,1,1,1394.94,-2.47,47746.57,324.74,-2.90,37208.43,364.38,2.11,35440.17,1301.18,1.68,25785.51,986.88,1.57,6621.38
1390500,441.07,538.06,1.00,2,2,2,1367.82,0.92,190365.98,1715.74,1.30,131568.88,1741.28,1.45,102022.11,1883.68,1.63,40732.96,1141.95,1.50,11800.43
1404500,442.05,569.36,1.00,2,2,2,2236.18,1.54,97936.74,4109.82,1.36,171307.58,3359.24,1.44,115593.10,2068.71,1.60,14041.14,1127.94,1.53,2561.82
1418600,465.54,650.93,1.00,2,2,2,6020.40,1.29,276063.97,4682.40,1.48,54935.04,3726.28,1.52,34015.02,2207.52,1.52,15291.45,1052.33,1.56,5873.09
1440200,457.82,735.77,1.00,3,3,3,3944.12,1.66,127152.30,3566.62,1.63,59329.05,3482.60,1.56,12698.93,2209.26,1.38,14551.15,958.17,1.55,4409.60
1469600,454.64,832.50,1.00,1,1,1,3291.85,1.60,23294.30,2527.32,1.69,35818.27,2587.64,1.56,30441.81,2255.09,1.32,4569.24,983.30,1.50,1835.66
1483500,445.10,844.46,1.00,1,1,1,1100.85,2.24,179661.43,946.61,1.08,131778.06,1287.47,1.26,101520.70,1885.77,1.35,26848.82,991.54,1.46,2770.28
1497900,467.28,856.12,1.00,1,1,1,1739.88,0.48,154651.89,1276.56,-0.27,98085.42,1058.09,0.26,79218.88,1280.06,1.44,43051.36,1013.16,1.43,2435.03
1519000,488.78,832.38,1.00,1,1,1,1517.92,-0.83,94954.28,1494.92,-0.12,14337.65,810.37,0.23,11851.68,721.10,1.37,26675.58,896.82,1.19,12358.62
1533100,519.53,849.92,1.00,1,1,1,2510.79,0.52,187125.82,746.43,0.97,93837.48,362.51,0.63,35271.52,340.53,0.84,32681.98,664.64,0.67,32229.26
1561700,506.87,858.63,1.00,1,1,1,537.27,2.54,97445.90,560.05,2.27,28260.02,271.22,1.81,12614.41,275.79,0.44,4765.63,721.51,-0.03,16920.21
1597000,496.37,877.20,1.00,1,1,1,604.47,2.09,7513.26,481.95,-3.07,13549.70,322.04,2.30,4313.69,174.30,0.21,3208.00,964.14,-0.47,12243.26
1611600,482.89,856.80,1.00,1,1,1,1674.81,-2.15,138548.35,24.60,3.04,31352.15,186.91,2.77,12097.91,395.72,-0.82,23352.77,1254.74,-0.72,27345.24
1647000,495.15,877.32,1.00,2,2,2,675.21,1.03,66370.88,218.15,0.92,6554.12,185.45,-1.49,8932.67,1114.24,-1.11,21012.45,1436.19,-0.89,8249.33
1661600,489.50,865.48,1.00,2,2,2,898.75,-2.02,107689.91,517.94,-1.41,46998.29,1155.79,-0.96,68512.75,2073.38,-1.06,65919.30,1382.56,-0.95,7421.31
1675700,497.57,862.66,1.00,2,2,2,606.52,-0.34,80673.00,3349.91,-1.07,203303.01,3617.93,-1.07,175376.36,3080.24,-0.98,72827.88,1358.98,-1.03,7557.84
1689700,534.86,782.99,1.00,2,2,2,6282.62,-1.13,419626.21,6100.28,-1.05,196568.24,5506.97,-1.03,135661.65,3278.78,-0.95,15688.90,1258.72,-1.08,8688.52
1711900,607.97,671.40,1.00,1,1,1,6009.41,-0.99,41201.70,7170.77,-1.01,49471.02,6647.52,-0.96,54198.32,3516.08,-1.02,15130.56,1244.25,-1.17,4915.19
1726200,674.02,561.32,1.00,1,1,1,8977.29,-1.03,208533.19,7408.39,-0.87,72265.90,5857.46,-0.95,55628.62,3061.06,-1.06,33463.66,1378.90,-1.15,9646.57
1740100,742.35,511.43,1.00,1,1,1,6086.23,-0.63,296362.97,4193.80,-0.81,232797.40,3422.29,-0.97,175287.13,2983.50,-1.10,9256.73,1558.19,-1.12,13102.82
1754000,754.78,477.23,1.00,1,1,1,2618.11,-1.22,300452.54,620.64,-2.03,289764.34,1068.83,-1.23,173164.15,2257.91,-1.13,52622.95,1484.94,-1.08,7284.11
1775800,732.46,491.61,1.00,1,1,1,1217.87,2.57,168006.93,1041.28,3.05,45929.68,738.86,-2.62,54238.05,1412.41,-1.23,39512.75,1608.33,-1.11,6048.02
1804800,702.11,482.15,1.00,1,1,1,1096.10,-2.84,33994.64,963.94,-2.91,11361.39,890.14,-3.12,14931.94,621.83,-1.49,28538.53,1617.02,-1.04,3744.74
1818900,691.99,482.21,1.00,1,1,1,718.03,3.13,33074.27,701.94,-2.88,18704.80,733.01,-2.98,13784.48,451.68,-2.55,39982.47,2983.50,-1.10,97324.96
1839900,678.33,475.70,1.00,1,1,1,720.52,-2.70,15352.37,459.53,3.13,13701.32,355.46,-2.73,18970.81,443.03,-3.09,11434.07,2257.91,-1.13,34831.38
1854100,675.81,482.36,1.00,1,1,1,501.57,1.93,64202.67,138.74,-0.72,40274.09,115.26,-2.02,19597.79,261.83,-2.46,19588.46,1412.41,-1.23,60660.42
1868600,681.33,473.07,1.00,1,1,1,744.81,-1.03,85643.75,509.87,-0.48,25963.47,158.01,-0.16,15238.68,309.32,-0.83,28840.99,621.83,-1.49,57077.06
1882800,688.78,475.58,1.00,1,1,1,554.01,0.32,58444.13,200.14,0.15,25884.12,375.76,-0.59,17035.70,115.26,-2.02,20245.48,451.68,-2.55,39700.90
1904100,688.35,474.12,1.00,1,1,1,71.41,-1.86,28066.92,302.42,-0.70,10633.77,641.99,-0.46,12849.01,158.01,-0.16,10373.75,443.03,-3.09,11273.03
1932900,700.39,465.84,1.00,1,1,1,507.24,-0.60,17004.47,937.75,-0.54,22258.40,302.42,-0.70,12327.20,375.76,-0.59,8399.55,261.83,-2.46,9658.20
1962000,734.99,446.32,1.00,1,1,1,1365.27,-0.51,29594.72,1365.27,-0.51,14720.69,937.75,-0.54,22028.94,641.99,-0.46,9404.95,309.32,-0.83,14370.94
