@RELATION gaze_labels

%@METADATA width_px 1920
%@METADATA height_px 1080
%@METADATA width_mm 540.00
%@METADATA height_mm 254.00
%@METADATA distance_mm 620.00


@ATTRIBUTE time INTEGER
@ATTRIBUTE x NUMERIC
@ATTRIBUTE y NUMERIC
@ATTRIBUTE confidence NUMERIC
@ATTRIBUTE handlabeller1 INTEGER
@ATTRIBUTE handlabeller2 INTEGER
@ATTRIBUTE handlabeller_final INTEGER
@ATTRIBUTE speed_1 numeric
@ATTRIBUTE direction_1 numeric
@ATTRIBUTE acceleration_1 numeric
@ATTRIBUTE speed_2 numeric
@ATTRIBUTE direction_2 numeric
@ATTRIBUTE acceleration_2 numeric
@ATTRIBUTE speed_4 numeric
@ATTRIBUTE direction_4 numeric
@ATTRIBUTE acceleration_4 numeric
@ATTRIBUTE speed_8 numeric
@ATTRIBUTE direction_8 numeric
@ATTRIBUTE acceleration_8 numeric
@ATTRIBUTE speed_16 numeric
@ATTRIBUTE direction_16 numeric
@ATTRIBUTE acceleration_16 numeric

%The number after speed, direction denotes the step size that was used for the calculation.
%Acceleration was calculated between two adjacent samples of the already low pass filtered velocity

@DATA
0,251.84,505.90,1.00,1,1,1,0.00,0.00,0.00,1257.87,-2.11,0.00,787.70,-1.83,0.00,366.11,-0.59,0.00,74.52,-2.94,0.00
36100,228.45,466.98,1.00,1,1,1,1257.87,-2.11,34844.17,787.70,-1.83,15160.48,1104.46,0.45,47785.91,603.09,0.49,14885.03,423.84,0.73,13562.64
50000,241.76,467.83,1.00,1,1,1,959.62,0.06,141631.73,1104.46,0.45,124105.86,366.11,-0.59,69915.47,224.19,1.03,30743.33,804.37,0.27,33321.52
78200,270.27,487.30,1.00,1,1,1,1224.32,0.60,22402.71,892.42,0.42,7623.17,603.09,0.49,19054.95,313.57,2.29,11515.08,1182.45,0.05,15474.36
99500,282.16,485.70,1.00,1,1,1,562.98,-0.13,41757.42,51.53,1.74,41381.06,224.19,1.03,20062.55,74.52,-2.94,13325.69,1674.41,-0.02,23581.47
114100,269.95,489.12,1.00,1,1,1,868.02,2.87,97786.22,1108.23,-3.05,75695.79,313.57,2.29,22241.45,423.84,0.73,33535.02,2016.58,-0.08,24358.52
128000,250.70,482.86,1.00,1,1,1,1456.56,-2.83,63154.92,655.27,2.34,61883.18,712.26,2.74,32458.47,804.37,0.27,33321.52,1975.31,-0.11,6255.41
142500,256.94,502.43,1.00,1,1,1,1416.71,1.26,176339.36,648.76,2.05,13023.92,298.63,1.23,52254.64,1182.45,0.05,30094.97,1665.93,-0.32,33435.67
163900,239.87,503.48,1.00,2,2,2,799.31,3.08,83600.23,453.56,0.39,38498.65,1452.13,0.17,62219.66,1674.41,-0.02,23471.28,855.61,-0.27,37970.06
192500,277.88,511.15,1.00,2,2,2,1355.70,0.20,74753.92,2900.12,-0.01,87080.73,2226.35,-0.03,29854.37,2016.58,-0.08,12434.77,820.57,-0.09,5476.77
206300,362.82,501.73,1.00,3,3,3,6193.25,-0.11,356477.75,4788.40,-0.09,138324.29,3588.37,-0.08,99195.51,1975.31,-0.11,6300.74,1010.81,-0.03,14290.94
228000,447.19,496.00,1.00,1,1,1,3896.76,-0.07,106266.62,4401.66,-0.13,20217.13,4388.72,-0.16,39240.83,1665.93,-0.32,22341.80,1403.91,-0.08,18307.87
242800,522.04,480.21,1.00,1,1,1,5168.56,-0.21,95838.64,3930.07,-0.25,46487.71,2718.80,-0.29,117328.31,1908.41,-0.25,18463.18,1809.54,-0.08,27409.09
256900,557.10,467.36,1.00,1,1,1,2648.37,-0.35,182644.48,1094.13,-1.25,245542.18,1335.16,-0.99,134722.99,1440.71,-0.32,34303.50,2245.54,-0.10,31038.65
271200,531.73,450.69,1.00,1,1,1,2122.99,-2.56,298487.68,2124.34,-2.53,146114.67,732.43,-1.93,75396.11,1287.48,-0.22,14265.73,2431.33,-0.09,13137.99
292800,494.61,423.64,1.00,1,1,1,2126.22,-2.51,4755.28,832.00,-2.63,60121.36,1102.84,-2.89,42052.10,1652.95,-0.17,17270.63,2382.37,-0.12,3917.99
307500,505.44,435.82,1.00,1,1,1,1108.80,0.84,218927.79,718.47,2.34,64639.77,251.70,0.37,92050.65,1937.70,-0.13,20174.39,2556.58,-0.10,12364.25
335500,473.19,445.60,1.00,2,2,2,1203.38,2.85,69571.22,1045.38,0.45,51499.93,2401.59,0.17,76987.44,2454.48,-0.12,18469.55,2570.29,-0.08,1441.79
356900,551.84,458.49,1.00,2,2,2,3724.08,0.16,225854.00,5796.70,0.05,226881.06,3453.05,0.02,53076.43,2798.42,-0.07,16983.18,2238.04,-0.08,15527.68
371300,680.50,455.09,1.00,2,2,2,8937.86,-0.03,369879.88,6372.27,-0.06,60524.08,5949.86,-0.05,174749.15,3055.77,-0.02,20909.39,1948.96,-0.09,20198.76
399600,823.41,441.64,1.00,1,1,1,5072.25,-0.09,137530.35,6118.46,-0.13,16979.96,5178.90,-0.09,28456.60,3129.39,-0.02,2617.60,1633.45,-0.12,11227.89
414100,940.25,421.83,1.00,1,1,1,8172.66,-0.17,216338.40,4163.70,-0.13,134826.06,3665.12,-0.12,104811.50,3601.58,0.00,32894.49,1415.58,-0.11,15028.31
449500,1029.34,414.06,1.00,1,1,1,2526.33,-0.09,159839.34,1561.00,-0.11,73539.05,2757.89,-0.07,26086.82,3168.16,-0.02,12464.51,1473.92,-0.07,2272.55
464000,1017.66,413.17,1.00,1,1,1,808.12,-3.07,229398.41,576.78,0.84,90621.53,1489.47,0.20,95177.71,2227.69,-0.04,64946.14,1752.93,0.02,21844.49
478500,1040.48,426.54,1.00,1,1,1,1824.41,0.53,177609.42,1634.41,0.62,74471.05,605.48,1.04,81018.24,1299.79,-0.10,64319.60,1928.23,-0.02,12859.90
500000,1065.65,447.21,1.00,1,1,1,1514.70,0.69,18862.81,644.81,1.18,53191.06,473.19,1.18,7040.26,328.68,-0.07,45176.87,2414.45,-0.05,22811.95
513900,1049.12,447.67,1.00,1,1,1,1189.68,3.11,182427.77,1316.40,-2.98,125466.50,507.09,-3.06,60176.66,356.76,3.07,49312.10,2462.76,-0.07,5120.32
528000,1029.30,441.13,1.00,1,1,1,1480.53,-2.82,38462.23,1659.31,-2.62,44588.56,1264.99,-2.78,56054.84,240.80,0.66,39689.26,2210.49,-0.05,18030.31
542400,1008.18,424.00,1.00,1,1,1,1888.15,-2.46,50553.56,1259.56,-2.63,27774.77,1120.79,-2.71,11757.74,560.79,-0.00,27755.53,1710.99,-0.05,34688.04
564300,989.51,418.60,1.00,1,1,1,887.50,-2.86,51375.28,710.85,-2.87,27241.95,214.74,-0.42,58118.40,1079.18,-0.23,24997.56,1292.21,0.02,19757.79
578500,983.43,417.23,1.00,2,2,2,439.00,-2.92,31692.63,1354.57,0.28,145450.53,1350.62,0.02,81660.92,1705.16,-0.16,44605.77,1039.82,0.01,17793.16
606700,1044.75,434.30,1.00,2,2,2,2257.41,0.27,95601.46,2820.39,0.06,54008.14,2860.33,-0.03,53646.07,2192.21,-0.07,18332.42,996.96,-0.03,1949.99
628700,1124.71,426.41,1.00,1,1,1,3652.11,-0.10,79512.26,4676.10,-0.13,90161.77,3877.61,-0.03,46241.65,2099.92,-0.03,5486.20,875.04,-0.08,5993.75
643800,1216.81,412.09,1.00,1,1,1,6172.46,-0.15,167830.98,5719.32,-0.10,69659.44,4591.89,-0.05,47704.84,2297.21,0.03,15881.12,875.34,-0.15,4159.35
658100,1291.98,409.23,1.00,1,1,1,5260.45,-0.04,78781.59,4527.92,0.06,101591.95,3093.96,-0.06,104804.88,2288.36,-0.00,5385.55,939.98,-0.17,4622.47
672000,1344.26,419.91,1.00,1,1,1,3838.62,0.20,128169.98,967.68,0.14,256416.34,1625.11,0.16,111513.11,1894.51,-0.11,32905.89,964.26,-0.10,4631.41
694000,1326.37,414.13,1.00,1,1,1,854.34,-2.83,213120.12,693.19,2.78,73173.42,350.07,0.33,58231.85,1205.66,-0.12,31311.72,907.93,0.05,6915.36
708500,1320.61,428.89,1.00,1,1,1,1092.99,1.94,92848.79,459.11,2.96,17661.86,873.11,-2.90,84299.87,678.67,-0.03,36773.02,641.29,0.26,21527.94
722700,1313.41,416.47,1.00,1,1,1,1011.04,-2.10,133515.82,1365.61,-2.51,77394.78,386.82,-2.88,34255.92,168.12,-0.26,36380.25,362.06,0.70,24527.77
736700,1289.44,406.27,1.00,1,1,1,1860.52,-2.74,86701.28,387.58,-2.58,69947.40,263.31,-1.91,22967.34,128.55,-2.67,19823.18,347.32,2.59,41071.06
772600,1297.03,406.19,1.00,1,1,1,211.29,-0.01,57264.78,490.54,0.13,23906.37,173.24,-1.44,3737.52,284.72,2.60,6759.98,797.44,2.92,13441.23
786700,1313.76,409.47,1.00,1,1,1,1209.29,0.19,71156.79,650.95,-0.17,16603.89,361.57,0.11,28238.28,957.83,2.88,48840.81,1040.89,3.01,18353.98
800900,1315.18,403.04,1.00,1,1,1,464.03,-1.35,90505.16,232.85,0.08,30213.31,412.67,1.85,41659.19,1638.04,2.86,47915.89,1167.22,3.03,8962.33
836700,1325.37,410.35,1.00,2,2,2,350.41,0.62,19077.47,870.06,2.24,28448.22,1912.08,2.74,47010.21,2086.05,2.90,12658.03,1345.98,3.12,5919.43
851100,1288.14,437.34,1.00,1,1,1,3193.07,2.51,230574.91,5645.33,2.77,341391.99,3346.69,2.82,100542.47,2819.11,2.96,52057.38,1289.58,3.12,3927.32
865100,1175.89,468.33,1.00,1,1,1,8317.85,2.87,388808.59,8067.42,2.92,187280.82,5902.31,2.93,186331.64,2761.51,3.04,15479.34,1300.09,-3.10,5760.52
879200,1066.96,487.05,1.00,1,1,1,7838.51,2.97,66150.97,6212.15,3.05,146999.64,6081.61,3.04,46849.10,2505.54,3.02,18553.90,1355.43,-3.14,5581.83
900300,958.11,488.07,1.00,1,1,1,5158.92,3.13,135906.25,4624.75,-3.08,84470.01,3964.62,-3.07,108288.97,2931.78,3.09,22335.01,1229.16,3.10,6464.50
914900,902.16,477.00,1.00,1,1,1,3906.51,-2.95,106365.60,1814.15,-2.33,241678.60,1766.08,-2.78,159492.68,2443.35,-3.10,37644.84,1315.50,3.07,6458.18
929300,922.04,449.78,1.00,1,1,1,2340.06,-0.94,370375.14,2347.13,-0.47,232261.25,928.37,-1.70,108066.92,1753.98,-2.92,54405.95,1297.45,3.07,1253.84
943200,961.34,446.81,1.00,1,1,1,2835.37,-0.08,159336.88,992.06,-0.64,99247.15,849.54,-0.97,45864.77,1220.22,-2.72,43352.18,1207.33,3.02,7852.92
964800,950.25,428.71,1.00,1,1,1,982.65,-2.12,157324.55,655.67,-2.28,56645.65,491.19,-1.32,19544.38,565.09,-2.17,36856.52,1246.62,3.08,3627.76
993800,939.83,421.55,1.00,1,1,1,436.08,-2.54,21063.64,575.13,-2.42,4142.07,784.74,-2.63,27934.09,345.02,-1.14,16844.65,1060.96,-3.11,7506.19
1008000,931.58,412.32,1.00,1,1,1,871.73,-2.30,32387.27,1156.03,-2.98,51811.00,491.11,-2.95,24900.71,87.06,-1.30,18266.81,729.58,-2.89,27015.17
1022400,907.19,416.31,1.00,1,1,1,1716.51,2.98,100580.68,595.42,2.71,51287.78,314.48,2.58,23491.34,88.18,3.12,9767.52,448.48,-2.59,22809.12
1043900,912.14,421.21,1.00,1,1,1,324.05,0.78,89537.00,628.26,0.80,46586.29,318.17,1.81,11148.30,130.36,0.21,10099.80,191.16,-1.43,19095.20
1057800,922.75,432.20,1.00,1,1,1,1098.90,0.80,55753.62,482.08,0.85,10715.14,584.62,0.66,38731.92,195.11,0.15,4709.71,243.72,-0.41,15618.31
1086500,925.73,436.60,1.00,1,1,1,185.40,0.98,31945.31,561.13,0.55,5962.43,758.97,0.20,12210.19,165.46,-0.02,1501.76,135.66,-0.12,4193.35
1108200,946.79,447.09,1.00,1,1,1,1084.16,0.46,42728.38,1256.09,-0.08,40114.37,512.71,-0.13,14704.96,208.75,-0.14,2223.82,46.69,-0.21,4113.93
1122100,970.30,433.02,1.00,1,1,1,1971.50,-0.54,119466.96,732.72,-0.73,57971.89,480.92,-0.65,18476.93,319.65,0.13,9421.62,144.65,0.35,7780.27
1151000,970.15,426.17,1.00,1,1,1,236.98,-1.59,64558.16,479.72,-2.07,26863.85,387.58,-1.64,14672.22,295.93,0.25,1528.70,43.05,2.33,5761.52
1172600,958.81,411.70,1.00,1,1,1,851.52,-2.24,31336.65,599.30,-2.62,14655.24,64.45,-2.28,15634.55,245.76,0.20,2427.46,139.72,2.89,4893.93
1201100,944.14,411.18,1.00,1,1,1,515.10,-3.11,22891.17,431.95,1.14,34495.69,229.76,1.37,10098.29,187.82,-0.12,3118.05,328.92,-3.09,7005.04
1215200,966.41,428.45,1.00,1,1,1,1999.02,0.66,172736.81,1274.74,0.85,61680.22,427.57,1.37,14029.02,161.26,0.47,7344.92,619.37,-3.07,20614.78
1236800,974.02,445.51,1.00,1,1,1,864.48,1.15,60306.72,451.38,1.64,46591.14,713.13,0.79,19707.55,275.18,3.02,19402.45,767.16,-2.99,7254.68
1250900,965.35,444.53,1.00,1,1,1,619.06,-3.03,91732.94,97.09,-0.75,37329.46,482.58,0.54,19431.10,487.72,2.98,15114.11,735.76,-3.00,2273.17
1264900,976.02,443.64,1.00,2,2,2,764.76,-0.08,98381.68,969.04,-0.00,64297.79,786.18,-2.82,90129.98,1069.55,3.14,42372.14,938.86,-2.95,14791.92
1279400,992.96,444.42,1.00,2,2,2,1170.02,0.05,29176.06,1573.05,-2.87,173713.90,1210.21,-2.86,29419.65,1743.68,-3.06,47222.17,956.94,-3.02,4330.44
1294700,930.90,430.93,1.00,2,2,2,4151.37,-2.93,346959.06,2898.87,-2.94,87199.19,2648.82,-2.95,94630.33,2098.95,-2.98,25334.92,912.85,-3.04,3086.26
1315700,889.94,423.01,1.00,1,1,1,1986.64,-2.95,103129.38,3558.83,-2.99,32367.70,3521.54,-3.01,42245.78,1859.05,-2.99,11556.02,800.10,-3.12,6421.71
1330200,806.06,411.52,1.00,1,1,1,5838.71,-3.01,265974.96,4063.22,-3.05,38448.66,3003.30,-3.00,35749.27,2161.42,-2.98,20912.02,714.13,-3.10,5994.82
1358200,717.98,407.18,1.00,1,1,1,3149.58,-3.09,96954.82,2603.95,-3.02,52236.86,2404.50,-3.05,21796.52,2174.11,-2.99,745.59,780.73,-3.03,3134.19
1379500,678.64,395.87,1.00,1,1,1,1921.53,-2.86,63485.37,462.62,-3.02,100531.59,1755.81,-3.02,30595.51,1531.65,-3.00,30167.81,769.51,-2.95,3043.29
1394500,701.30,405.18,1.00,1,1,1,1633.23,0.39,236629.07,304.16,-2.98,10611.91,536.12,-2.85,81999.48,1124.52,-3.04,27444.21,796.19,-2.96,1910.15
1408300,669.99,394.48,1.00,1,1,1,2397.64,-2.81,291963.34,646.63,-2.70,26434.34,383.27,0.07,66252.32,395.58,-3.01,52846.91,756.96,-3.01,3937.37
1422800,684.78,397.32,1.00,1,1,1,1038.16,0.19,236467.44,926.53,0.10,106915.90,449.15,0.07,4544.86,291.80,-0.07,47163.66,781.97,-2.99,1925.20
1444700,703.56,397.73,1.00,1,1,1,858.01,0.02,10955.51,1293.62,0.21,17772.32,1243.87,0.12,36327.55,557.73,0.09,12487.35,615.76,-3.06,7916.02
1458600,730.02,407.19,1.00,1,1,1,2021.73,0.34,89047.52,1651.13,0.14,27037.08,1105.39,0.10,10083.11,278.99,-0.05,20418.56,598.33,-3.09,1821.48
1473100,750.02,404.07,1.00,1,1,1,1396.12,-0.16,71614.71,898.73,-0.11,55709.53,703.59,0.09,27716.19,649.14,0.22,26706.97,306.24,-3.13,20167.59
1487100,755.49,404.47,1.00,1,1,1,391.65,0.07,72758.05,167.22,-0.16,52271.86,149.52,-0.35,40830.93,437.55,0.16,15293.31,79.29,-2.67,16977.68
1522700,758.21,402.75,1.00,1,1,1,90.48,-0.57,9089.33,287.89,-3.05,12693.29,193.06,0.78,5219.18,277.55,0.44,5254.26,207.19,0.01,7872.30
1537300,741.09,403.21,1.00,1,1,1,1172.84,3.11,85711.60,421.81,1.35,39576.89,41.06,1.56,11418.69,129.96,2.79,26041.58,117.03,-0.27,6822.74
1551700,760.86,414.69,1.00,1,1,1,1587.25,0.53,184553.84,312.58,0.35,25294.25,259.44,2.43,16303.84,233.85,2.98,7601.73,189.24,0.34,7970.72
1586500,755.52,408.55,1.00,1,1,1,233.82,-2.29,52016.12,365.82,3.06,19045.38,412.30,2.79,5549.86,357.71,-3.01,4305.89,111.05,0.64,2566.09
1601000,742.88,416.07,1.00,1,1,1,1014.16,2.61,68908.88,1565.64,3.01,82789.87,576.55,-3.05,18727.79,150.25,-2.83,14585.30,37.77,2.35,8415.42
1615200,710.95,414.30,1.00,1,1,1,2251.84,-3.09,107018.32,883.54,-2.95,54891.38,917.35,-2.94,24623.34,72.39,-2.41,6270.92,94.29,-2.79,6061.75
1636200,712.36,410.08,1.00,1,1,1,211.86,-1.25,110319.91,619.28,-2.23,27802.20,319.64,-1.82,39504.41,280.27,-3.09,10874.45,81.79,-2.58,1047.88
1651300,697.29,396.60,1.00,1,1,1,1338.94,-2.41,84108.99,1000.63,-0.50,83244.66,449.34,-0.67,28536.27,310.52,2.94,5433.13,62.15,-3.10,2762.61
1665200,737.83,396.18,1.00,1,1,1,2917.30,-0.01,288427.91,1295.69,-0.01,45256.38,154.74,0.28,27462.50,337.08,-2.93,9896.22,41.50,2.07,4133.42
1679200,733.43,396.37,1.00,1,1,1,314.52,3.10,230833.21,811.19,2.37,140202.03,329.50,0.96,16423.68,129.01,-1.99,20096.16,144.80,0.47,10845.16
1694200,720.98,412.59,1.00,1,1,1,1363.49,2.23,79078.45,600.55,2.36,14053.68,546.49,2.92,49150.06,177.34,-0.87,11181.80,108.90,0.03,4343.52
1729400,712.09,417.65,1.00,1,1,1,290.69,2.62,31285.86,522.43,-2.88,16036.34,377.64,3.11,5391.51,278.83,0.18,6937.91,181.14,0.33,2369.31
1744400,695.64,405.82,1.00,1,1,1,1350.86,-2.52,83868.09,756.72,-1.97,39998.26,272.51,-1.23,36075.81,157.34,0.86,12305.12,152.61,0.18,2513.27
1758500,703.51,397.37,1.00,1,1,1,818.52,-0.82,118105.25,1041.29,-0.43,90133.57,434.19,-0.52,20410.99,357.77,0.52,15292.56,117.74,0.01,2964.18
1779400,728.81,390.73,1.00,1,1,1,1251.98,-0.26,34020.28,944.62,0.19,29201.71,902.34,0.13,29412.65,478.35,0.04,10977.12,43.36,-1.66,6193.97
1794000,736.43,403.73,1.00,1,1,1,1031.64,1.04,95245.11,1141.77,0.76,41968.41,1222.78,0.32,25819.75,647.61,0.08,11690.86,44.93,-2.38,2141.94
1808000,752.56,413.15,1.00,1,1,1,1334.11,0.53,47589.81,1584.43,0.41,45726.76,1056.94,0.37,12658.27,596.97,0.20,6258.51,117.74,2.98,6943.15
1822600,777.97,421.84,1.00,1,1,1,1839.47,0.33,40685.32,1108.32,0.06,45292.34,908.25,0.31,11092.81,284.43,0.37,21982.20,72.64,1.96,6929.61
1844300,792.71,415.69,1.00,1,1,1,735.95,-0.40,63486.67,535.51,0.13,26503.12,394.97,0.30,23653.19,107.73,2.83,17235.93,98.83,0.59,5069.07
1872700,804.57,425.31,1.00,1,1,1,537.98,0.68,23769.04,168.63,2.06,21658.61,310.67,-2.91,24830.05,303.12,-2.81,7960.56,103.30,0.48,438.12
1902400,788.12,424.35,1.00,1,1,1,554.84,-3.08,35025.97,1135.61,-2.96,36944.68,778.38,-2.91,15747.81,297.30,-2.94,1248.52,136.61,0.57,1186.26
1924000,747.31,414.61,1.00,1,1,1,1942.56,-2.91,64794.13,1651.33,-2.79,26009.96,1321.58,-2.83,25456.84,298.75,-3.07,1870.92,101.36,1.13,3387.16
1952000,711.12,396.44,1.00,1,1,1,1446.33,-2.68,22472.21,1569.31,-2.71,5610.38,1066.69,-2.89,9561.76,278.69,2.83,3985.36,97.15,1.83,2449.64
1966300,686.99,386.88,1.00,1,1,1,1814.41,-2.76,27613.45,345.98,2.65,97175.60,295.64,2.99,56105.92,394.68,3.03,9392.42,76.11,0.17,9005.86
1987200,700.41,402.24,1.00,1,1,1,975.60,0.85,130079.98,1379.81,0.69,73807.50,780.86,0.75,47435.62,386.22,3.07,741.94,297.30,-2.94,17864.86
2001700,724.60,418.06,1.00,1,1,1,1993.22,0.58,74919.30,1931.71,0.54,41743.50,995.33,0.71,15067.43,227.87,2.80,12225.35,298.75,-3.07,2787.03
2015500,747.30,430.34,1.00,1,1,1,1870.52,0.50,14678.20,605.76,0.74,97307.76,628.84,0.71,26562.08,192.74,1.15,22465.34,278.69,2.83,8086.23
2036600,740.26,432.26,1.00,1,1,1,346.02,2.88,101149.59,464.45,-3.04,48253.87,167.17,2.37,31509.21,583.82,0.28,22846.59,394.68,3.03,6365.48
2051200,730.81,428.61,1.00,1,1,1,693.65,-2.77,31714.39,833.24,-2.86,26360.07,438.05,-2.73,27733.76,628.84,0.71,18165.57,386.22,3.07,1062.09
2065800,716.89,425.50,1.00,1,1,1,977.34,-2.92,21165.43,465.46,-2.35,33121.88,534.38,-0.92,52494.30,167.17,2.37,45537.29,227.87,2.80,12141.61
2080300,721.29,418.98,1.00,1,1,1,542.79,-0.98,88253.54,1588.99,-0.40,125015.20,465.46,-2.35,45310.37,438.05,-2.73,27925.03,192.74,1.15,21380.81
2094600,758.99,407.57,1.00,1,1,1,2754.37,-0.29,164919.02,2754.37,-0.29,83032.14,1588.99,-0.40,126763.67,534.38,-0.92,53595.57,583.82,0.28,33710.71
