@RELATION gaze_labels

%@METADATA width_px 1920
%@METADATA height_px 1080
%@METADATA width_mm 540.00
%@METADATA height_mm 254.00
%@METADATA distance_mm 620.00


@ATTRIBUTE time INTEGER
@ATTRIBUTE x NUMERIC
@ATTRIBUTE y NUMERIC
@ATTRIBUTE confidence NUMERIC
@ATTRIBUTE handlabeller1 INTEGER
@ATTRIBUTE handlabeller2 INTEGER
@ATTRIBUTE handlabeller_final INTEGER
@ATTRIBUTE speed_1 numeric
@ATTRIBUTE direction_1 numeric
@ATTRIBUTE acceleration_1 numeric
@ATTRIBUTE speed_2 numeric
@ATTRIBUTE direction_2 numeric
@ATTRIBUTE acceleration_2 numeric
@ATTRIBUTE speed_4 numeric
@ATTRIBUTE direction_4 numeric
@ATTRIBUTE acceleration_4 numeric
@ATTRIBUTE speed_8 numeric
@ATTRIBUTE direction_8 numeric
@ATTRIBUTE acceleration_8 numeric
@ATTRIBUTE speed_16 numeric
@ATTRIBUTE direction_16 numeric
@ATTRIBUTE acceleration_16 numeric

%The number after speed, direction denotes the step size that was used for the calculation.
%Acceleration was calculated between two adjacent samples of the already low pass filtered velocity

@DATA
0,253.08,418.77,1.00,1,1,1,0.00,0.00,0.00,5056.79,0.79,0.00,1723.00,0.71,0.00,975.51,0.43,0.00,755.45,0.57,0.00
14300,304.07,470.04,1.00,1,1,1,5056.79,0.79,353621.66,1723.00,0.71,233731.48,354.63,-0.60,116565.36,653.17,0.37,22788.97,198.97,0.07,41125.85
50800,319.62,475.63,1.00,1,1,1,452.75,0.34,127447.48,354.63,-0.60,45668.07,975.51,0.43,23300.25,827.28,0.26,5241.21,37.67,1.85,5756.35
65100,318.92,459.84,1.00,1,1,1,1105.46,-1.62,94009.10,576.17,-0.82,17003.43,653.17,0.37,22788.97,1003.97,0.59,24144.39,337.18,1.52,21105.97
94300,336.64,457.23,1.00,1,1,1,613.57,-0.15,41398.61,1216.70,0.65,44340.23,827.28,0.26,6551.51,755.45,0.57,8535.00,518.78,0.86,11195.22
109700,362.14,492.65,1.00,1,1,1,2833.77,0.95,169420.72,1610.91,0.65,25598.53,1003.97,0.59,22419.79,198.97,0.07,38188.29,653.67,0.22,25240.87
130900,383.60,492.88,1.00,1,1,1,1012.56,0.01,112147.58,744.85,0.47,41898.91,489.91,0.98,27350.29,37.67,1.85,9910.69,1205.01,0.05,27047.40
145200,385.73,504.60,1.00,1,1,1,832.80,1.39,82751.15,1070.27,-2.83,126534.75,518.58,-2.49,69624.31,337.18,1.52,21105.97,1857.95,-0.01,46006.23
159400,354.54,483.63,1.00,1,1,1,2646.65,-2.55,231115.79,2072.44,-2.57,75811.38,1040.58,-2.96,44049.42,518.78,0.86,23021.16,1501.88,0.22,36680.17
173900,335.74,472.36,1.00,1,1,1,1511.39,-2.60,78617.53,1029.30,-3.07,87320.97,1002.87,3.08,17224.77,653.67,0.22,26807.54,1285.27,0.17,15584.46
194900,318.10,480.84,1.00,1,1,1,932.00,2.69,60296.96,1090.70,1.95,59770.61,547.42,0.78,68035.74,1205.01,0.05,27304.99,1348.04,0.19,3114.93
209600,321.26,508.50,1.00,2,2,2,1894.03,1.46,123513.19,1743.68,0.46,135180.39,1505.04,0.33,70582.55,1857.95,-0.01,44754.36,1294.99,0.21,4048.26
237700,385.14,513.65,1.00,2,2,2,2280.55,0.08,94981.38,2730.87,0.04,47354.67,3020.96,0.08,57121.64,2399.81,0.10,20927.71,1170.92,0.21,4416.26
259600,457.67,514.42,1.00,3,3,3,3312.45,0.01,47923.23,4735.69,-0.07,93577.67,4189.14,-0.02,55850.09,2439.95,0.18,9261.54,947.18,0.06,12295.15
273800,555.61,500.86,1.00,1,1,1,6963.05,-0.14,261920.06,6718.39,-0.06,139740.41,4793.58,0.01,43786.69,2691.55,0.17,17786.15,971.50,0.05,1946.80
288600,652.15,502.60,1.00,1,1,1,6523.60,0.02,76771.82,4918.16,0.12,140869.18,3714.29,0.10,77141.38,2528.12,0.08,20107.58,1239.97,0.02,18255.31
302700,696.68,518.22,1.00,1,1,1,3347.36,0.34,248705.67,1609.78,0.69,259884.48,2335.74,0.31,107210.57,1949.67,0.05,41364.34,1707.28,0.06,33351.34
324200,696.35,539.08,1.00,1,1,1,970.07,1.59,147782.50,829.46,1.38,51456.66,729.03,0.82,80608.57,1236.72,-0.02,33448.38,2173.19,0.06,21671.41
339900,702.46,548.53,1.00,1,1,1,717.29,1.00,34848.29,398.99,-2.99,65881.64,392.54,2.88,62208.87,760.86,0.06,30635.07,2483.12,0.03,20073.90
353800,684.68,537.26,1.00,1,1,1,1514.97,-2.58,157349.07,996.56,-2.59,46573.02,543.23,-2.57,29164.32,682.88,0.10,6009.51,2475.44,-0.00,6459.16
382200,666.57,526.42,1.00,1,1,1,742.95,-2.60,27200.63,630.09,-2.45,13484.55,527.51,-2.15,7898.91,1157.90,-0.01,17065.29,2370.96,-0.01,3721.74
418000,653.55,511.42,1.00,2,2,2,554.82,-2.29,7714.48,418.64,-1.11,18794.04,846.46,-0.31,30973.18,1975.85,-0.08,23033.83,2192.90,0.00,5068.73
432200,675.94,507.70,1.00,2,2,2,1598.63,-0.16,137121.49,3674.52,0.02,247453.62,2385.34,-0.04,111597.24,2351.74,-0.11,26781.39,1968.94,0.07,18392.05
446900,759.73,513.21,1.00,3,3,3,5712.02,0.07,283788.27,4595.33,0.04,62897.04,4861.13,0.00,168743.58,2445.68,-0.07,8305.97,1662.22,0.08,20882.13
481900,904.17,516.18,1.00,1,1,1,4127.87,0.02,45692.60,5550.07,-0.00,27909.67,5418.36,-0.00,15943.46,2746.06,-0.05,8825.75,1352.73,0.03,9056.55
496700,1036.12,512.17,1.00,1,1,1,8919.43,-0.03,324427.29,6843.08,-0.05,89549.69,4228.77,-0.02,80588.36,3256.16,0.01,36449.22,1383.16,-0.03,6245.34
510900,1102.36,506.07,1.00,1,1,1,4684.87,-0.09,299517.29,2364.95,-0.08,315481.85,3303.67,-0.05,65515.15,3313.79,0.07,14331.88,1427.60,-0.07,4496.73
531900,1119.09,505.38,1.00,1,1,1,797.04,-0.04,185192.60,412.64,-0.01,93029.06,1278.53,0.07,97081.93,2704.30,0.07,29025.17,1474.00,-0.04,2875.04
546400,1117.01,505.93,1.00,1,1,1,148.20,2.88,64978.63,430.14,1.70,43842.10,891.22,0.69,52197.44,1598.43,0.07,76268.39,1572.45,0.02,9470.29
560500,1117.51,517.58,1.00,1,1,1,826.43,1.53,57243.74,1650.74,0.89,98560.78,868.58,0.71,2199.85,678.54,0.13,65397.18,1713.89,0.06,10755.78
574500,1146.25,541.95,1.00,1,1,1,2691.43,0.70,158230.94,1413.06,0.50,45333.94,381.87,1.02,36971.78,342.84,0.27,24452.60,1652.40,0.05,4401.60
595700,1161.13,541.47,1.00,1,1,1,702.50,-0.03,104761.33,333.47,-2.48,82222.10,206.15,0.44,11160.91,288.07,0.33,2730.23,1276.53,0.11,18064.34
625300,1132.87,531.55,1.00,1,1,1,1011.92,-2.80,56966.73,764.68,-2.61,14739.73,292.17,-1.43,13650.42,319.50,0.77,4641.08,568.32,0.32,24714.13
639500,1132.22,524.57,1.00,1,1,1,493.77,-1.66,64939.44,733.72,-0.64,87941.73,289.08,-1.70,5580.50,232.32,0.71,6248.57,344.65,2.56,58264.48
653800,1149.61,519.02,1.00,1,1,1,1276.85,-0.31,88584.48,744.55,-0.22,21481.45,280.96,0.36,34109.79,60.37,-1.35,18608.64,955.68,2.87,44503.69
675300,1158.20,518.65,1.00,1,1,1,400.06,-0.04,41717.41,525.52,1.56,46429.12,281.41,0.95,7669.10,214.13,2.78,11745.87,1232.33,2.94,13298.68
689600,1149.81,537.84,1.00,1,1,1,1464.62,1.98,117459.33,902.30,2.21,40579.63,224.78,1.67,13023.90,574.61,2.69,25301.97,1135.29,2.94,6812.83
703900,1142.75,539.32,1.00,1,1,1,504.12,2.93,86834.54,162.06,-1.93,69840.22,656.62,2.23,33592.34,1157.63,2.90,42473.06,1098.78,2.96,2745.02
718400,1148.15,533.47,1.00,1,1,1,548.94,-0.82,69192.25,463.74,2.25,38872.33,1211.72,2.83,52800.70,2047.97,2.95,61606.05,1171.18,3.01,6700.81
740300,1132.20,552.49,1.00,2,2,2,1133.62,2.27,76809.85,1904.83,2.78,69549.65,1978.77,2.98,36754.38,2474.89,2.99,19950.92,1257.17,3.05,4332.57
768600,1058.81,567.53,1.00,2,2,2,2647.26,2.94,66954.11,2923.26,3.05,42317.25,3334.01,2.99,47889.38,2199.68,3.04,10692.52,1226.05,3.01,2009.51
803700,947.72,570.33,1.00,1,1,1,3165.75,3.12,20756.74,4839.52,3.07,54661.63,3707.78,3.06,12989.78,2101.62,3.03,2919.97,1273.83,3.02,1429.52
818200,819.37,584.59,1.00,1,1,1,8906.27,3.03,397134.21,4868.29,3.08,2762.03,3010.68,3.11,49285.44,2130.83,2.99,5291.81,1297.83,3.02,1663.28
846600,739.32,583.97,1.00,1,1,1,2818.84,-3.13,215360.57,1220.96,-3.02,129380.32,2261.70,3.07,26559.35,2147.33,3.07,5828.73,1400.95,3.06,3972.03
868400,758.50,577.41,1.00,1,1,1,930.06,-0.33,170148.62,835.93,-0.06,94013.86,611.48,3.04,75728.03,1829.48,3.10,14769.25,1351.42,3.07,2358.65
882700,769.45,582.31,1.00,1,1,1,838.82,0.42,45731.05,617.70,0.76,42866.39,427.53,-0.20,72585.47,1426.86,3.14,28523.41,1336.25,3.08,1461.37
897200,771.34,589.72,1.00,1,1,1,527.76,1.32,45340.45,170.79,-2.26,54317.31,62.14,1.18,28988.08,476.14,-2.86,67518.83,1258.59,3.06,5639.01
911100,766.36,578.57,1.00,1,1,1,878.79,-1.99,100846.68,408.80,-2.49,17664.08,436.35,-2.74,34714.65,235.26,-1.54,34264.40,1231.42,3.11,4732.08
932100,759.99,581.07,1.00,1,1,1,325.86,2.77,43973.05,666.85,-2.83,14889.87,463.15,-2.19,11540.30,134.90,-2.52,9281.69,997.55,3.13,11233.93
946600,743.83,571.31,1.00,1,1,1,1302.35,-2.60,78230.92,570.57,-1.93,37422.11,565.43,-2.38,9722.05,311.45,-2.70,12449.74,658.20,3.11,23429.77
960600,754.20,565.88,1.00,1,1,1,836.75,-0.48,134132.86,634.44,-1.77,8299.00,343.90,-2.41,15845.67,246.85,-2.45,6807.06,24.20,0.58,48441.56
974700,740.24,553.85,1.00,1,1,1,1307.02,-2.43,127147.12,314.71,2.93,50441.60,188.24,-2.62,11655.59,171.56,-2.61,5824.03,566.05,0.04,38682.19
989800,745.22,567.82,1.00,1,1,1,982.39,1.23,146676.81,368.30,2.11,18198.23,126.63,3.02,7644.60,99.20,-2.22,5812.41,781.41,-0.01,14432.16
1010900,733.34,565.26,1.00,1,1,1,575.87,-2.93,65203.86,25.54,-2.54,17572.18,163.61,1.19,10976.06,107.74,0.26,9289.23,1031.36,-0.06,12106.97
1040500,744.16,567.09,1.00,1,1,1,370.48,0.17,31963.27,269.49,0.06,9852.99,72.56,0.30,4419.14,513.24,0.31,13703.77,1156.33,-0.12,4632.08
1054800,745.15,566.00,1.00,1,1,1,102.93,-0.83,22811.62,207.79,0.35,6383.51,343.07,0.38,18938.79,1039.63,0.23,37041.43,1077.08,-0.15,6131.16
1076900,751.27,569.66,1.00,1,1,1,322.60,0.54,14404.74,460.44,0.60,11966.55,1285.05,0.26,42776.67,1381.60,0.03,18695.31,1129.70,-0.18,2878.92
1090800,758.82,575.38,1.00,2,2,2,681.29,0.65,26059.64,2647.78,0.25,159810.58,1994.74,0.16,52299.81,1997.31,-0.01,44575.47,1130.37,-0.14,3486.63
1105700,825.18,588.42,1.00,2,2,2,4538.90,0.19,264277.78,3299.16,0.11,51644.50,2606.02,0.03,45785.89,2363.34,-0.05,25210.90,978.85,-0.13,10196.70
1134500,902.13,591.17,1.00,2,2,2,2673.43,0.04,67540.13,2629.48,-0.07,29838.42,3431.29,-0.04,29490.99,2047.55,-0.11,11878.00,996.58,-0.07,2174.39
1170200,994.33,576.00,1.00,1,1,1,2617.39,-0.16,14794.42,3605.69,-0.16,28384.51,3172.52,-0.13,11179.90,2120.47,-0.15,3090.77,1084.36,-0.12,2906.39
1184500,1080.06,562.17,1.00,1,1,1,6072.99,-0.16,241651.48,4426.55,-0.21,59228.33,2186.64,-0.30,75513.47,1995.30,-0.16,8871.88,1115.54,-0.17,4127.56
1198700,1117.61,549.23,1.00,1,1,1,2796.84,-0.33,236031.49,941.77,-0.86,261975.06,1677.63,-0.47,42563.37,1407.28,-0.25,42964.06,1129.99,-0.16,1312.02
1234300,1110.56,526.54,1.00,1,1,1,667.44,-1.87,80208.90,670.14,-1.74,20504.70,565.43,-1.16,36287.45,1040.18,-0.35,10840.01,1112.47,-0.13,898.04
1248800,1111.83,516.16,1.00,1,1,1,721.23,-1.45,20410.24,481.19,-2.77,40673.07,639.72,-2.69,57590.10,778.36,-0.47,19485.25,1071.80,-0.08,5137.93
1262800,1097.77,521.59,1.00,1,1,1,1076.42,2.77,110883.79,1248.50,2.94,63124.04,728.58,3.03,27992.49,388.76,-1.54,48834.91,1080.61,-0.03,3292.83
1284300,1068.43,525.15,1.00,1,1,1,1374.82,3.02,19712.93,977.66,2.85,13318.03,310.74,2.67,20990.56,358.24,-2.39,14261.58,935.94,-0.11,7538.27
1299600,1063.28,531.83,1.00,1,1,1,550.91,2.23,69498.92,865.16,0.01,119141.42,340.68,-2.39,24440.70,197.94,-2.91,13802.08,707.89,-0.18,15404.61
1313700,1093.86,525.32,1.00,1,1,1,2217.53,-0.21,188751.40,1117.88,-0.94,66208.58,283.69,-0.75,32562.56,255.56,2.27,17249.49,326.36,-0.32,27469.86
1327500,1081.62,506.60,1.00,1,1,1,1621.41,-2.15,230800.87,627.94,-2.45,90245.62,391.37,-0.46,10369.94,293.97,1.50,15117.41,247.70,-2.66,38379.01
1341700,1080.36,514.07,1.00,1,1,1,533.51,1.74,144045.77,403.68,1.29,69619.37,251.02,1.86,41704.38,455.12,0.49,27458.76,613.05,-3.03,27634.27
1363600,1085.67,520.60,1.00,1,1,1,384.30,0.89,18363.87,617.00,1.31,9758.19,757.52,1.25,26030.76,402.90,0.35,3556.25,891.30,3.11,13613.87
1392200,1088.25,544.21,1.00,1,1,1,830.61,1.46,19203.64,1050.14,1.24,15296.90,712.77,0.74,13144.60,160.28,2.01,15585.22,1060.73,3.12,5933.96
1407300,1100.65,563.98,1.00,1,1,1,1545.10,1.01,58030.33,1074.66,0.30,63426.78,558.46,0.77,10325.17,471.01,2.81,24999.60,1073.16,3.14,1669.91
1429900,1126.91,556.32,1.00,2,2,2,1210.54,-0.28,74451.69,566.87,-0.60,37625.94,71.97,2.65,25861.22,924.95,3.04,21222.45,969.26,-3.10,5010.47
1444400,1117.99,552.08,1.00,2,2,2,680.88,-2.70,122610.90,1493.13,-2.92,132620.94,1376.45,-2.75,91855.49,1457.55,3.08,36839.59,991.21,-3.05,3686.44
1459400,1083.98,546.48,1.00,2,2,2,2298.30,-2.98,110310.49,3583.95,-2.92,139387.82,2725.18,-3.00,95573.88,1868.51,-3.07,30958.79,1130.78,-3.07,9393.19
1473400,1016.65,529.01,1.00,2,2,2,4968.20,-2.89,191958.87,3586.92,-3.02,26821.61,3351.63,-3.08,47845.39,2082.43,-3.02,17238.95,1108.80,-3.10,3203.41
1501800,932.97,528.41,1.00,2,2,2,2946.68,-3.13,78526.36,3260.45,3.11,21953.96,3178.89,-3.06,6283.95,2141.52,-3.02,2132.90,1098.30,-3.08,809.50
1523700,852.76,534.97,1.00,1,1,1,3674.74,3.06,35821.00,2840.18,-3.11,21573.78,2632.05,-3.11,25853.81,2153.65,-3.01,1373.05,1022.23,-3.06,3613.06
1552100,790.19,523.46,1.00,1,1,1,2239.98,-2.96,57065.37,1915.32,-2.99,34047.05,1724.65,-3.05,32334.64,2048.03,-3.01,3726.30,1043.47,-2.99,2711.04
1566400,771.96,522.29,1.00,1,1,1,1277.40,-3.08,68731.59,632.48,-2.78,91116.02,1154.29,-2.84,44868.95,1661.18,-3.02,27106.06,1113.06,-2.93,6921.51
1602200,760.57,512.21,1.00,1,1,1,424.93,-2.42,27295.05,576.02,-2.41,6327.15,752.15,-2.71,11689.97,1284.54,-2.98,10659.88,1197.50,-2.95,2511.58
1616600,750.39,503.03,1.00,1,1,1,951.65,-2.41,36579.87,967.35,-2.64,29640.35,678.20,-2.61,7371.00,630.22,-2.73,47920.66,1239.35,-2.98,3736.02
1630700,736.38,498.99,1.00,1,1,1,1034.41,-2.86,32098.72,852.40,-2.79,12749.00,636.27,-2.67,4268.28,213.30,-2.10,33657.26,1149.60,-3.03,7434.13
1652200,721.86,492.70,1.00,1,1,1,735.93,-2.73,14822.71,376.09,-2.74,22200.75,204.20,-0.62,35060.00,210.16,-1.63,4658.95,905.64,-3.06,11437.03
1666800,723.88,493.67,1.00,1,1,1,153.94,0.45,60942.86,1330.09,0.07,115735.74,583.82,-0.05,29139.45,190.61,-1.81,2815.16,637.68,-3.03,18411.66
1681900,761.28,495.33,1.00,1,1,1,2478.66,0.04,154829.59,1727.54,0.07,26321.48,821.89,-0.02,15853.06,166.50,-2.54,8629.49,340.69,-2.71,21958.59
1696200,774.57,497.00,1.00,1,1,1,936.63,0.12,108172.84,329.13,-0.36,100319.31,391.63,-0.27,31683.36,102.22,2.74,9856.68,168.04,-1.54,22073.63
1711100,770.26,491.93,1.00,1,1,1,446.32,-2.27,87313.23,464.65,-2.63,48383.46,395.36,-2.95,51456.97,110.09,0.92,11243.16,257.35,-0.61,13834.41
1746800,754.11,485.41,1.00,1,1,1,487.96,-2.76,6371.76,796.45,-3.08,12045.88,659.15,2.99,8817.24,126.50,0.76,703.51,395.32,-0.13,5756.48
1761100,730.52,489.48,1.00,1,1,1,1673.94,2.97,89845.15,1276.01,2.59,54320.92,523.64,2.83,11678.86,27.27,-2.13,10702.92,451.57,-0.03,4975.68
1775700,722.75,504.82,1.00,1,1,1,1178.06,2.04,92854.35,530.99,1.54,76186.84,419.00,2.26,19402.20,193.13,-0.91,12709.83,526.95,0.08,6292.43
1789900,731.05,504.76,1.00,1,1,1,584.19,-0.01,108183.35,410.02,0.10,44152.79,444.32,0.09,53740.12,443.59,-0.20,22746.41,548.20,0.08,1497.53
1810900,737.12,506.21,1.00,2,2,2,297.24,0.24,14485.68,858.55,-0.43,25863.00,1171.80,-0.41,38507.76,838.27,0.10,20632.20,451.37,-0.03,5249.35
1825900,759.20,492.00,1.00,1,1,1,1750.72,-0.57,104001.40,2178.44,-0.52,88393.34,1631.67,-0.24,34150.51,995.60,0.06,10733.73,302.41,-0.20,10828.79
1839700,791.63,475.16,1.00,1,1,1,2648.13,-0.48,66627.63,2651.53,-0.17,69673.71,1734.51,-0.07,22789.95,1073.39,0.04,5872.25,235.14,-0.40,6218.17
1853900,832.40,479.60,1.00,1,1,1,2888.02,0.11,114045.43,1695.54,0.26,92841.91,1383.61,0.05,28030.80,917.01,0.01,11232.12,264.78,-0.22,3839.08
1889500,873.15,497.17,1.00,1,1,1,1246.50,0.41,48756.92,895.70,0.34,22641.31,1130.78,0.33,11931.67,758.14,-0.13,5479.60,357.76,-0.01,3172.46
1918000,886.43,499.00,1.00,1,1,1,470.65,0.14,28167.44,585.41,0.52,11723.52,590.87,0.40,19056.70,554.51,-0.17,7200.41,379.75,-0.18,2270.94
1939800,898.76,511.70,1.00,1,1,1,811.68,0.80,24197.88,214.01,0.70,17309.48,107.85,-2.28,31607.27,297.51,-0.15,11792.60,265.07,-0.48,6832.88
1968300,894.64,505.97,1.00,1,1,1,247.52,-2.20,37093.95,902.72,-2.54,39152.77,438.85,-2.47,11708.55,122.35,-0.30,6221.04,161.30,-1.04,5422.87
1983100,866.59,489.49,1.00,1,1,1,2197.88,-2.61,133370.88,1350.90,-2.46,30768.40,893.59,-2.46,30733.11,112.03,-2.30,13358.96,198.78,-1.78,9099.73
2004300,856.73,475.50,1.00,1,1,1,807.30,-2.18,70759.74,890.57,-2.36,22427.20,819.88,-2.47,3532.09,339.27,-2.51,10884.91,246.52,-2.22,5079.59
2018600,844.24,467.13,1.00,1,1,1,1051.51,-2.55,29037.66,144.94,-2.56,52385.87,118.29,-2.33,49152.54,789.15,-2.74,32530.03,284.76,-2.53,6288.00
2032600,853.31,473.24,1.00,1,1,1,781.06,0.59,130898.16,857.45,0.78,71431.91,206.47,-2.61,7013.89,1130.91,-2.83,25276.16,391.72,-2.56,7673.68
2046700,861.39,484.06,1.00,2,2,2,957.57,0.93,24080.08,255.50,-2.64,78409.73,767.03,3.14,42450.20,1042.36,-2.84,6285.04,576.34,-2.68,13695.23
2068300,845.33,468.82,1.00,2,2,2,1024.72,-2.38,91439.36,1896.49,-2.89,76423.41,1524.11,-3.03,35546.83,1066.98,-2.83,1193.58,533.41,-2.74,2532.46
2082800,795.00,467.33,1.00,1,1,1,3472.55,-3.11,192637.50,3139.68,-3.07,90444.83,1793.00,-2.86,26296.90,943.76,-2.80,8707.07,527.24,-2.61,4596.56
2096800,756.11,462.07,1.00,1,1,1,2803.54,-3.01,53161.92,1708.58,-2.83,109119.80,1767.58,-2.85,2385.81,982.42,-2.68,9128.73,572.45,-2.57,3722.84
2126300,724.15,444.87,1.00,1,1,1,1230.08,-2.65,57888.11,1101.79,-2.50,25690.00,1142.55,-2.62,23937.77,1093.33,-2.72,4021.27,448.91,-2.59,4204.86
2147400,711.37,428.80,1.00,1,1,1,973.21,-2.24,24154.84,669.21,-1.89,31956.34,750.17,-2.08,29898.92,749.79,-2.85,17178.65,463.20,-2.68,2186.84
2161900,716.66,422.26,1.00,1,1,1,580.94,-0.89,70320.12,846.19,-0.88,51760.19,408.56,-1.80,25792.01,290.12,-2.27,36604.99,388.89,-2.67,5139.31
2176400,727.03,409.91,1.00,1,1,1,1111.51,-0.87,36604.75,113.31,-1.11,50787.54,492.75,0.27,53579.62,288.02,-1.55,13966.62,245.95,-2.38,11654.04
2190500,718.10,419.35,1.00,1,1,1,921.39,2.33,144114.11,873.96,1.07,66897.72,820.30,0.25,23250.81,226.96,-0.85,13138.92,1093.33,-2.72,61369.71
2212200,742.14,437.31,1.00,1,1,1,1382.85,0.64,80565.55,1452.33,0.31,46755.67,388.58,0.22,19913.83,158.89,-0.64,3647.18,749.79,-2.85,16703.67
2226700,768.19,435.32,1.00,1,1,1,1801.54,-0.08,81711.51,594.68,-0.95,96020.19,304.65,-0.09,9258.82,156.16,-0.34,3225.72,290.12,-2.27,36604.99
2255200,756.94,416.45,1.00,1,1,1,770.82,-2.11,79056.06,415.00,-2.37,23569.44,276.29,-1.99,16614.44,389.99,0.12,9128.59,288.02,-1.55,7105.83
2291700,748.81,416.57,1.00,1,1,1,222.94,3.13,18821.70,506.18,-3.04,8550.69,381.03,-2.49,5254.29,304.65,-0.09,3082.55,226.96,-0.85,5075.58
2305700,731.52,413.76,1.00,1,1,1,1250.68,-2.98,73704.77,331.00,-2.86,13568.43,393.46,0.05,52879.17,276.29,-1.99,33822.25,158.89,-0.64,5653.13
2319800,739.88,413.95,1.00,1,1,1,592.92,0.02,130478.70,1318.26,0.07,116542.94,331.00,-2.86,51028.05,381.03,-2.49,13601.53,156.16,-0.34,3317.23
2354800,796.08,418.43,1.00,1,1,1,1610.80,0.08,29125.61,1610.80,0.08,8363.97,1318.26,0.07,46950.16,393.46,0.05,21151.67,389.99,0.12,7433.28
