@RELATION gaze_labels

%@METADATA width_px 1920
%@METADATA height_px 1080
%@METADATA width_mm 540.00
%@METADATA height_mm 254.00
%@METADATA distance_mm 620.00


@ATTRIBUTE time INTEGER
@ATTRIBUTE x NUMERIC
@ATTRIBUTE y NUMERIC
@ATTRIBUTE confidence NUMERIC
@ATTRIBUTE handlabeller1 INTEGER
@ATTRIBUTE handlabeller2 INTEGER
@ATTRIBUTE handlabeller_final INTEGER
@ATTRIBUTE speed_1 numeric
@ATTRIBUTE direction_1 numeric
@ATTRIBUTE acceleration_1 numeric
@ATTRIBUTE speed_2 numeric
@ATTRIBUTE direction_2 numeric
@ATTRIBUTE acceleration_2 numeric
@ATTRIBUTE speed_4 numeric
@ATTRIBUTE direction_4 numeric
@ATTRIBUTE acceleration_4 numeric
@ATTRIBUTE speed_8 numeric
@ATTRIBUTE direction_8 numeric
@ATTRIBUTE acceleration_8 numeric
@ATTRIBUTE speed_16 numeric
@ATTRIBUTE direction_16 numeric
@ATTRIBUTE acceleration_16 numeric

%The number after speed, direction denotes the step size that was used for the calculation.
%Acceleration was calculated between two adjacent samples of the already low pass filtered velocity

@DATA
0,267.74,399.94,1.00,1,1,1,0.00,0.00,0.00,2540.41,-2.30,0.00,1263.62,-2.27,0.00,344.94,0.56,0.00,160.82,0.64,0.00
14100,243.84,373.26,1.00,1,1,1,2540.41,-2.30,180170.68,1263.62,-2.27,90643.96,630.07,0.70,133861.01,637.60,0.53,20778.11,386.58,0.72,16073.68
28000,244.99,372.84,1.00,1,1,1,88.04,-0.35,185219.38,630.07,0.70,135787.06,344.94,0.56,21048.07,550.63,0.84,14479.54,530.95,0.76,10459.58
49600,260.95,387.67,1.00,1,1,1,1008.44,0.75,44972.91,1577.56,0.75,43932.03,637.60,0.53,13563.49,406.52,0.56,8983.32,452.73,0.74,3646.66
64000,286.45,411.65,1.00,1,1,1,2431.26,0.75,98808.82,657.25,0.40,68646.50,550.63,0.84,13976.78,160.82,0.64,17117.91,317.32,0.61,10035.12
92400,286.90,398.52,1.00,1,1,1,462.59,-1.54,97129.48,200.41,-2.80,30190.32,406.52,0.56,6832.39,386.58,0.72,7980.24,808.30,0.38,17767.90
114600,276.88,408.29,1.00,1,1,1,630.16,2.37,45763.23,220.95,1.00,17963.85,39.39,1.15,16865.10,530.95,0.76,6549.02,1224.30,0.21,20196.76
142600,292.93,407.83,1.00,1,1,1,573.19,-0.03,40040.80,307.65,0.54,5194.13,220.14,1.16,6455.45,452.73,0.74,2813.14,1563.25,0.10,13175.94
156600,287.94,414.99,1.00,1,1,1,622.86,2.18,76319.88,225.42,1.33,15489.51,515.71,0.68,24064.06,317.32,0.61,10321.83,933.27,0.10,44999.25
192400,295.65,418.73,1.00,1,1,1,239.33,0.45,19592.70,694.33,0.73,14631.36,522.56,0.90,3272.08,808.30,0.38,14095.20,943.79,0.16,1490.97
206400,313.76,437.98,1.00,2,2,2,1888.27,0.82,119055.23,1098.75,0.75,28931.68,649.82,0.57,16564.41,1224.30,0.21,32026.30,921.65,0.14,2165.85
220400,318.09,439.77,1.00,2,2,2,334.36,0.39,113517.91,617.51,0.26,44664.88,1844.53,0.24,89033.04,1563.25,0.10,26351.89,944.03,0.12,1848.62
235700,331.23,442.69,1.00,3,3,3,880.04,0.22,36195.52,2567.48,0.08,128339.87,2345.17,0.06,40791.26,1803.69,0.05,16560.48,815.62,0.08,8690.72
256400,410.22,447.14,1.00,1,1,1,3822.03,0.06,142849.39,3815.76,0.04,60657.88,3028.22,-0.05,35922.41,1730.82,0.01,5083.66,891.69,0.15,4629.45
270400,463.55,447.53,1.00,1,1,1,3809.23,0.01,13407.35,3643.51,-0.16,52791.05,3350.04,-0.06,23307.01,1578.83,-0.11,17812.47,1013.01,0.13,8824.06
285600,515.31,430.56,1.00,1,1,1,3583.73,-0.32,79804.82,2861.63,-0.22,53203.18,1713.41,-0.19,109505.85,1658.23,-0.07,6942.95,1068.71,0.15,4049.81
300000,546.21,429.01,1.00,1,1,1,2147.96,-0.05,112081.28,589.59,-0.31,157998.64,1040.10,-0.43,51565.95,1447.85,-0.04,14834.19,1057.73,0.10,4228.09
335500,543.31,421.52,1.00,1,1,1,226.21,-1.94,62794.66,346.83,-2.02,20402.73,517.16,-0.16,15730.61,1030.73,-0.05,11751.61,1022.61,0.09,993.87
349700,538.68,413.50,1.00,1,1,1,651.98,-2.09,30271.76,432.65,0.22,49557.80,57.17,1.30,36192.65,794.74,-0.00,16843.13,801.79,0.06,15681.47
363700,555.21,424.23,1.00,1,1,1,1407.26,0.58,143574.63,620.98,1.16,35980.55,366.53,0.92,22446.51,580.48,0.29,20983.77,1005.15,0.03,14670.38
385200,547.50,433.70,1.00,1,1,1,567.89,2.25,73145.25,449.61,1.42,10279.56,799.97,0.71,20821.07,353.00,0.31,10584.85,1396.61,-0.01,18325.84
399500,557.56,440.15,1.00,1,1,1,835.45,0.57,74235.27,1146.63,0.42,68748.11,769.27,0.65,3780.99,351.37,0.51,5003.54,1562.04,0.01,11662.04
413900,577.60,447.02,1.00,1,1,1,1470.96,0.33,47840.02,1382.42,0.37,16913.45,780.04,0.23,22875.49,275.11,1.07,13009.66,1776.21,-0.02,15210.08
428200,594.57,454.43,1.00,1,1,1,1295.57,0.41,14579.42,532.62,-0.11,65765.89,381.79,0.20,27869.66,466.69,0.33,22552.33,1747.72,-0.01,2656.17
449800,596.61,445.00,1.00,1,1,1,446.74,-1.36,67202.51,218.99,-2.29,31630.02,179.94,2.79,25150.88,1349.86,0.03,42346.94,1645.89,0.04,6058.97
478800,587.24,446.13,1.00,1,1,1,325.52,3.02,21820.83,569.11,2.92,17342.51,338.51,-0.16,17799.71,2002.76,0.03,22514.52,1773.39,0.07,4739.28
514800,560.56,453.30,1.00,2,2,2,767.33,2.88,12431.50,817.62,0.07,38107.59,1755.35,-0.03,39444.88,2557.03,-0.03,15773.11,1762.83,0.09,756.26
529200,628.34,449.07,1.00,2,2,2,4716.01,-0.06,379869.24,6946.14,-0.07,426228.21,3376.74,0.01,112884.47,2696.29,-0.06,11290.62,1653.63,0.08,7686.35
543800,761.51,439.34,1.00,3,3,3,9145.89,-0.07,303453.28,6343.63,0.00,53246.46,6018.99,-0.04,181651.38,2780.55,0.01,14312.34,1785.40,0.04,9766.65
572700,904.29,450.35,1.00,1,1,1,4954.82,0.08,149157.83,5490.10,-0.01,29781.33,5713.01,-0.05,10869.95,3096.29,0.03,11034.01,1695.36,-0.01,4549.54
594300,1038.74,435.43,1.00,1,1,1,6262.87,-0.11,77457.87,4969.50,-0.13,37734.09,4011.72,0.04,81083.79,3619.69,0.01,24337.54,1516.24,-0.02,8342.91
608200,1079.12,426.74,1.00,1,1,1,2971.35,-0.21,238878.79,1451.07,0.40,272659.68,2686.96,0.05,95395.70,2917.31,0.03,50749.91,1368.11,-0.06,11300.17
622300,1076.21,451.12,1.00,1,1,1,1741.32,1.69,276666.26,1160.56,1.66,110412.58,766.21,0.53,144295.45,2225.43,0.05,49212.52,1350.81,-0.03,2965.39
636800,1076.26,459.81,1.00,1,1,1,599.21,1.57,79245.58,288.06,1.05,64654.22,492.80,1.34,38316.75,1328.75,-0.09,64035.33,1694.96,-0.02,23783.81
658700,1081.39,460.24,1.00,1,1,1,235.02,0.08,28487.26,254.68,0.37,8409.03,447.08,0.21,23054.96,200.54,-0.00,51554.47,2284.25,-0.01,26924.98
686900,1088.14,464.46,1.00,1,1,1,282.34,0.56,4608.76,694.14,-0.07,16886.25,393.84,-0.98,16719.02,306.22,3.11,17968.73,2449.18,-0.00,5868.20
700900,1110.62,458.29,1.00,1,1,1,1664.72,-0.27,106281.85,1073.73,-1.39,80644.99,364.78,-2.08,28502.53,395.22,-2.78,11416.05,2094.56,-0.01,25393.49
715700,1093.59,434.02,1.00,1,1,1,2002.95,-2.18,203045.71,1356.23,-2.65,98000.64,1000.89,-2.54,46702.26,218.47,-0.80,35297.96,1772.13,-0.07,22882.25
737000,1067.35,435.36,1.00,1,1,1,1233.50,3.09,80041.90,1657.46,-3.04,30290.50,1413.06,-2.84,25803.14,938.40,-0.09,36947.84,1220.49,-0.08,25908.91
751000,1035.40,427.92,1.00,2,2,2,2343.28,-2.91,86212.83,1548.01,-3.05,7963.39,85.14,0.63,106696.21,1881.33,-0.07,67375.41,1078.97,-0.06,10186.91
765700,1023.11,431.32,1.00,2,2,2,867.60,2.87,111208.53,2168.15,0.15,252699.83,2305.56,0.09,151909.20,1963.10,-0.09,6663.19,955.63,-0.19,12090.59
780200,1098.02,437.27,1.00,2,2,2,5182.39,0.08,414141.06,5429.78,0.09,225344.72,4571.15,0.07,156325.60,2195.21,-0.05,17026.94,1037.65,-0.17,5802.14
801100,1214.53,448.81,1.00,1,1,1,5601.82,0.10,20688.55,6566.04,0.05,55775.93,4685.65,0.00,16075.20,2149.27,-0.08,3698.13,850.06,-0.19,9036.01
815500,1329.54,448.28,1.00,1,1,1,7987.02,-0.00,172455.72,4111.06,-0.10,178306.11,3801.84,-0.07,64351.06,2339.53,-0.06,13809.28,561.27,-0.11,20479.54
844100,1390.47,431.62,1.00,1,1,1,2208.42,-0.27,205663.22,1957.48,-0.33,78845.28,2083.73,-0.22,61878.17,1999.96,-0.11,12416.10,87.12,0.80,17898.48
865700,1422.39,416.10,1.00,1,1,1,1643.37,-0.45,30859.71,550.61,-1.09,74108.33,901.82,-0.52,57983.42,1733.79,-0.11,12325.80,408.73,2.64,20384.13
893800,1403.20,407.40,1.00,1,1,1,749.72,-2.72,78260.78,532.62,-2.72,28104.52,395.07,-1.87,32118.91,785.54,-0.30,34640.33,577.90,2.83,6804.96
907900,1401.87,406.91,1.00,1,1,1,100.19,-2.79,46085.58,552.89,-2.63,3681.14,226.73,-2.52,17979.15,392.78,-3.11,82590.77,492.71,2.83,6048.09
944500,1378.72,393.74,1.00,2,2,2,727.77,-2.62,17188.35,92.31,-0.74,16090.70,756.17,3.11,16207.67,1620.79,2.97,33837.18,475.36,2.88,778.26
958500,1405.34,403.77,1.00,2,2,2,2031.52,0.36,196623.04,1361.23,2.73,103510.48,1717.86,2.87,71360.41,2845.72,2.97,87495.52,636.17,2.97,11999.67
972800,1343.49,409.32,1.00,2,2,2,4342.02,3.05,435957.86,4291.60,2.86,206139.03,4162.93,2.82,171277.48,3540.25,2.98,48664.35,985.51,3.02,24602.64
993900,1259.49,446.33,1.00,1,1,1,4350.25,2.73,66771.70,6440.35,2.83,102010.42,6759.78,2.93,126284.39,3424.74,3.01,7557.15,1405.89,3.06,20080.36
1007700,1129.29,477.41,1.00,1,1,1,9700.45,2.91,396889.70,9858.20,2.97,259845.31,6969.72,2.96,21844.12,3917.67,2.99,36119.25,1686.62,3.07,20342.60
1022300,983.63,494.12,1.00,1,1,1,10041.89,3.03,84461.74,7723.06,3.09,162591.69,5735.25,3.07,95888.98,3599.68,3.01,22172.68,1934.35,3.08,17137.95
1037100,902.54,489.35,1.00,1,1,1,5488.41,-3.08,319648.00,2627.97,-2.93,353649.13,3803.70,-3.11,134899.26,3104.86,2.97,34638.33,1870.67,3.08,4376.61
1058300,891.18,474.02,1.00,1,1,1,899.81,-2.21,233928.52,804.25,-2.36,94153.87,1133.70,-2.90,127602.15,2671.19,3.05,23099.66,1659.61,3.05,10303.15
1072700,882.18,469.22,1.00,1,1,1,708.56,-2.65,27733.39,140.51,-0.23,61612.13,66.55,-0.59,81898.79,1779.32,-3.12,64556.47,1477.71,2.94,16822.37
1101000,897.03,472.66,1.00,1,1,1,538.53,0.23,43695.70,701.58,0.61,21780.08,194.17,2.52,9211.76,1028.01,-2.83,29857.57,1508.07,2.93,1437.49
1115600,906.87,486.43,1.00,1,1,1,1159.10,0.95,57155.41,580.90,2.63,74564.92,110.80,2.92,6956.70,410.18,-2.17,51148.27,1354.84,2.93,10521.52
1137100,878.73,482.92,1.00,1,1,1,1319.00,-3.02,105619.64,1020.93,-2.71,38423.89,907.10,-2.73,38175.45,233.09,-0.68,21210.52,1231.29,3.05,9262.81
1151400,873.68,471.14,1.00,1,1,1,896.33,-1.98,81200.66,1724.49,-2.37,58143.08,916.83,-2.26,29329.62,524.87,0.09,27398.83,849.41,-3.06,29294.92
1165400,843.60,449.05,1.00,1,1,1,2665.73,-2.51,139063.42,1071.04,-1.71,78587.63,757.23,-0.66,86205.51,443.92,0.41,12518.70,330.26,-2.86,37827.78
1179700,869.44,441.13,1.00,1,1,1,1889.87,-0.30,285721.19,2051.64,0.06,174269.26,1154.14,0.06,53711.87,182.17,0.30,18437.91,41.60,-1.75,21962.21
1201300,917.14,453.11,1.00,1,1,1,2277.10,0.25,54591.16,2006.00,0.36,28209.59,1366.57,0.41,22757.03,75.22,-0.38,6135.93,104.06,0.69,6408.36
1230300,964.58,476.49,1.00,1,1,1,1823.76,0.46,21561.71,1116.92,0.82,38803.42,848.16,0.69,20528.68,133.29,-2.40,6176.23,226.41,0.33,4613.11
1259700,961.60,500.84,1.00,1,1,1,834.48,1.69,59099.14,688.77,2.57,47970.86,396.96,2.39,33478.44,225.53,0.39,12032.86,354.10,0.12,4806.77
1280500,935.57,495.31,1.00,1,1,1,1279.22,-2.93,76316.28,2112.93,-2.84,84349.26,1104.78,-2.95,44663.77,258.76,0.85,5487.07,529.67,-0.08,9440.71
1295300,889.78,478.48,1.00,1,1,1,3296.44,-2.79,137722.06,1785.70,-2.67,31159.10,1030.13,-2.72,17072.60,241.09,1.58,12144.61,852.10,-0.06,21809.82
1330400,856.10,455.01,1.00,1,1,1,1169.60,-2.53,62262.85,326.06,-2.13,43168.45,508.49,-2.65,14938.85,138.51,2.31,4728.07,1003.77,0.01,4702.92
1345400,881.07,464.66,1.00,1,1,1,1784.83,0.37,195608.58,1667.58,0.45,130089.38,396.08,0.55,60283.14,309.98,-0.33,29118.92,1154.74,0.06,10796.30
1359700,900.15,476.14,1.00,1,1,1,1557.27,0.54,25646.67,1588.37,0.71,29808.41,1734.37,0.38,94088.94,946.90,-0.17,44977.54,1065.09,0.07,6320.75
1374800,916.62,494.94,1.00,2,2,2,1655.11,0.85,33411.93,1809.02,0.32,45285.11,1966.02,0.17,30368.65,1636.94,-0.05,46753.48,949.24,0.05,7856.06
1388600,949.76,492.65,1.00,2,2,2,2406.75,-0.07,139505.15,2568.37,-0.10,85821.51,2630.03,-0.02,57163.45,2374.32,0.06,55403.20,805.78,-0.06,12315.89
1409600,1005.52,485.69,1.00,2,2,2,2676.08,-0.12,14451.07,3416.83,-0.16,41306.65,2981.82,-0.12,21656.29,2338.33,0.02,3937.19,821.03,-0.17,4495.04
1424200,1069.75,472.73,1.00,1,1,1,4488.13,-0.20,125388.04,3316.29,-0.14,9634.43,2893.36,-0.07,11481.26,2179.19,-0.03,13790.08,856.72,-0.11,4046.64
1452700,1147.15,466.41,1.00,1,1,1,2724.63,-0.08,63542.71,2543.28,0.01,30919.97,2666.21,-0.06,8074.06,2114.84,-0.09,5062.59,1005.92,-0.04,5822.22
1474700,1198.18,474.07,1.00,1,1,1,2345.70,0.15,31535.21,1923.24,0.09,29328.21,1812.74,-0.04,38838.27,1810.02,-0.11,14021.51,1171.88,0.02,8007.73
1488800,1216.29,472.74,1.00,1,1,1,1287.65,-0.07,79881.41,588.28,-0.46,103165.05,1077.56,0.02,52483.18,1360.48,-0.13,31939.30,1035.04,-0.01,9997.60
1503500,1213.37,466.57,1.00,1,1,1,464.16,-2.01,103248.25,179.71,-1.48,35222.80,249.74,-0.90,64363.54,776.86,-0.06,40058.24,1057.69,-0.02,1748.08
1517300,1216.75,467.64,1.00,1,1,1,256.58,0.31,48245.31,257.97,-2.62,17762.48,335.43,-2.51,30897.77,313.52,0.03,33702.99,999.15,-0.07,5340.46
1531700,1207.06,462.95,1.00,1,1,1,747.26,-2.69,69572.52,543.22,-2.74,20040.56,277.17,-3.11,13187.94,102.49,-2.05,25993.80,919.19,-0.02,6310.96
1553000,1198.92,460.01,1.00,1,1,1,406.51,-2.80,16225.60,312.93,2.95,15679.73,313.69,-3.14,1760.37,173.13,-2.69,5123.24,682.70,-0.04,11124.92
1581500,1191.76,465.91,1.00,1,1,1,325.38,2.45,12950.69,237.78,2.31,6611.22,185.24,-3.03,4602.39,28.59,0.46,7077.69,418.38,-0.09,9319.36
1596000,1192.06,467.60,1.00,1,1,1,118.01,1.40,19748.70,134.80,-1.64,23807.41,76.57,3.02,7726.47,114.41,0.28,5961.00,84.36,-0.39,23365.21
1616600,1191.44,461.19,1.00,1,1,1,312.41,-1.67,20881.91,135.93,-1.60,274.67,329.17,0.10,19622.94,250.22,0.54,6926.81,99.38,-2.31,7301.13
1645700,1191.87,460.84,1.00,1,1,1,19.11,-0.68,10391.27,625.53,0.28,23330.72,448.56,0.13,4117.07,158.74,0.67,3253.83,192.57,-2.72,3749.05
1659700,1217.37,468.57,1.00,1,1,1,1903.03,0.29,135164.66,927.26,0.27,21552.72,633.72,0.43,17524.56,79.00,-0.42,10031.07,348.19,3.10,13948.22
1695500,1236.32,473.35,1.00,1,1,1,546.03,0.25,37928.83,652.37,0.56,9850.13,414.21,0.51,6236.63,144.90,-2.66,5681.74,728.52,3.08,10629.48
1710200,1245.30,486.04,1.00,1,1,1,1057.51,0.96,49961.72,564.62,2.93,76702.16,185.37,-2.62,40787.71,102.14,-2.53,3076.18,1063.97,3.03,22998.17
1724500,1220.32,476.83,1.00,1,1,1,1861.18,-2.79,195632.67,1387.03,-2.59,73643.61,1047.89,-2.89,60879.53,214.17,-2.75,8134.60,1329.41,3.02,18579.13
1745400,1203.59,460.65,1.00,1,1,1,1113.74,-2.37,45685.25,1509.20,-2.75,12226.83,1175.30,-2.67,13011.48,704.50,3.12,24672.03,1486.81,3.06,7916.07
1759800,1171.08,456.50,1.00,1,1,1,2276.08,-3.01,106685.51,930.83,-2.81,40498.75,991.05,-2.69,12837.56,1778.52,3.11,74595.39,1489.21,3.10,3873.16
1774200,1178.22,452.00,1.00,1,1,1,585.94,-0.56,191217.23,368.85,-2.35,43214.41,1308.04,3.04,48535.50,2655.91,3.10,60931.85,1539.74,3.09,3549.16
1788100,1163.73,449.09,1.00,2,2,2,1063.51,-2.94,110928.60,1593.81,2.90,103510.16,2431.11,3.01,80938.43,2981.60,3.07,24687.00,1596.82,3.08,4428.61
1823400,1102.06,470.67,1.00,2,2,2,1850.76,2.80,30626.62,3700.41,2.96,59815.56,4016.08,2.99,44930.13,3277.80,3.05,8508.49,1587.96,3.10,897.29
1837500,983.92,482.06,1.00,3,3,3,8417.43,3.05,470541.55,8138.96,3.02,315534.87,4564.48,2.98,38903.92,3054.27,3.07,16414.44,1560.10,3.11,2251.12
1852400,867.89,500.26,1.00,1,1,1,7882.47,2.99,48458.35,5723.92,3.01,162158.94,5645.19,3.05,76046.82,3147.26,3.07,6242.50,1423.29,-3.13,10230.28
1874400,774.68,510.80,1.00,1,1,1,4264.19,3.03,164857.79,3642.34,3.12,97349.36,3806.92,3.12,84668.66,2992.53,3.04,7813.67,1408.08,-3.13,694.51
1888300,737.18,503.68,1.00,1,1,1,2745.89,-2.95,131746.21,1586.71,-2.62,175185.36,2153.30,-3.03,122299.30,2704.34,3.09,22406.81,1335.19,3.12,6214.39
1902700,735.79,488.34,1.00,1,1,1,1069.25,-1.66,184674.24,716.08,-1.97,76474.38,758.06,-2.66,102303.67,1346.06,3.10,94349.78,1277.20,3.08,5390.08
1917300,729.03,484.58,1.00,1,1,1,530.23,-2.63,60720.34,80.08,1.35,54453.66,312.60,-0.74,62519.83,378.60,-2.85,68199.39,1266.16,3.04,3246.70
1931600,736.31,490.60,1.00,1,1,1,660.71,0.69,82938.40,664.56,0.23,44284.53,668.17,0.02,34454.64,256.00,-1.24,32477.45,1194.35,3.00,6122.91
1953000,752.11,490.04,1.00,1,1,1,739.08,-0.04,23485.05,1037.95,-0.02,19952.91,790.05,-0.03,5984.90,324.16,-0.63,8755.18,1181.29,3.06,3085.19
1982400,789.03,489.66,1.00,1,1,1,1255.61,-0.01,17588.60,877.34,-0.14,6717.32,542.71,-0.34,10824.11,192.87,-0.19,5812.54,782.30,3.06,13571.32
2017400,808.08,482.26,1.00,1,1,1,583.97,-0.37,21102.40,345.57,-1.65,26414.06,332.94,-0.56,6600.97,246.62,0.18,2765.04,130.95,-2.56,19540.67
2031800,787.64,472.65,1.00,1,1,1,1568.13,-2.70,139968.33,644.86,-2.72,39348.59,233.94,-2.79,35437.40,268.81,0.26,2071.23,643.89,-0.32,50872.91
2060900,782.46,470.82,1.00,1,1,1,188.73,-2.80,47438.41,486.69,2.68,17311.62,470.78,2.86,10821.12,70.14,1.94,9786.16,1194.68,-0.20,19263.53
2075600,768.56,482.15,1.00,1,1,1,1220.37,2.46,77128.40,679.43,2.00,29137.64,392.13,1.73,31644.07,288.38,2.87,17205.61,1579.03,-0.15,26638.08
2096300,772.42,492.67,1.00,1,1,1,541.43,1.22,56165.91,726.87,0.98,33405.91,726.44,2.42,23749.32,184.92,-0.15,22826.74,1727.84,-0.10,8014.12
2110300,782.71,503.03,1.00,1,1,1,1042.70,0.79,42492.60,927.70,2.81,94088.16,457.11,2.46,19306.41,1152.62,-0.14,69123.20,1792.93,-0.04,8820.41
2124400,747.81,501.27,1.00,2,2,2,2477.98,-3.09,235743.20,1102.81,-3.12,28132.44,992.51,-0.23,100565.01,2239.35,-0.13,77081.01,1710.26,-0.01,6776.58
2145700,743.67,502.34,1.00,2,2,2,200.71,2.89,107384.01,2496.84,-0.26,167603.16,2449.09,-0.29,68544.96,3192.05,-0.14,44752.45,1579.15,-0.01,6163.42
2160200,834.17,478.19,1.00,2,2,2,6459.42,-0.26,459318.80,5323.17,-0.24,194976.98,4351.41,-0.20,132902.97,3606.10,-0.13,28838.25,1516.26,-0.02,4527.44
2188900,966.91,447.15,1.00,1,1,1,4750.05,-0.23,59861.24,5680.99,-0.18,17127.98,6396.47,-0.18,71393.40,3712.99,-0.07,8150.46,1516.30,-0.03,440.38
2210300,1114.13,426.94,1.00,1,1,1,6943.94,-0.14,105528.73,7736.26,-0.12,97861.48,5744.04,-0.11,35555.92,3787.89,-0.04,6891.15,1674.38,-0.03,7387.66
2224200,1238.03,414.35,1.00,1,1,1,8959.11,-0.10,146341.61,5922.08,0.01,144516.64,5370.09,0.06,71739.15,3706.02,-0.03,5904.51,1773.37,-0.04,7205.53
2238500,1281.13,428.13,1.00,1,1,1,3164.59,0.31,432725.05,3115.46,0.61,264582.27,3215.21,0.30,166954.45,2853.98,-0.01,59746.33,1694.46,-0.09,8175.87
2253400,1312.76,466.22,1.00,1,1,1,3323.00,0.88,122531.99,1872.03,1.40,150824.34,1214.35,1.12,170435.96,1911.20,0.04,63813.71,1582.30,-0.15,10410.58
2267700,1290.27,482.02,1.00,1,1,1,1921.67,2.53,277623.38,1269.55,2.72,138510.13,940.46,2.32,86586.54,1119.19,0.19,57388.69,1572.20,-0.17,2257.24
2288400,1272.22,484.41,1.00,1,1,1,879.88,3.01,58546.30,1464.45,-2.95,40891.31,725.44,-3.01,38182.30,546.60,0.58,31367.50,1632.81,-0.17,2928.40
2302500,1240.25,472.30,1.00,1,1,1,2424.76,-2.78,120702.74,669.72,-2.23,75029.24,380.94,-2.22,37593.70,127.02,1.72,35977.60,1296.71,-0.15,23908.33
2338100,1251.86,458.08,1.00,1,1,1,515.57,-0.89,73988.43,685.95,-0.48,29168.18,476.07,-0.55,17933.64,384.50,-2.50,12863.11,1008.32,-0.09,8381.23
2352600,1270.66,456.30,1.00,1,1,1,1302.89,-0.09,69630.84,1351.43,0.06,57947.25,482.28,-0.57,793.08,459.31,-2.16,11083.50,483.86,0.06,36885.62
2381000,1309.74,461.27,1.00,1,1,1,1387.17,0.13,10850.73,259.39,-0.85,42527.92,395.08,-1.23,10388.36,431.29,-1.89,4311.45,245.37,2.77,25136.35
2395900,1278.11,447.89,1.00,1,1,1,2305.65,-2.74,245667.44,1599.31,-2.54,110824.44,532.12,-2.12,28121.71,326.96,-1.49,12378.38,736.96,3.06,33999.65
2417000,1262.27,428.70,1.00,1,1,1,1179.08,-2.26,65069.27,957.64,-2.35,32339.89,977.64,-2.49,24448.52,283.64,-1.01,7062.75,1279.20,-3.09,26406.91
2445300,1244.78,414.31,1.00,1,1,1,800.27,-2.45,14919.32,461.41,-2.33,17545.80,553.88,-2.34,15421.30,149.33,-2.10,8889.60,1498.07,-3.03,8256.91
2459700,1248.77,414.35,1.00,1,1,1,276.92,0.01,71573.51,12.40,-0.38,32369.35,200.59,-0.58,43376.92,987.94,-3.00,62688.02,1628.75,-2.99,10268.96
2481000,1245.19,414.15,1.00,2,2,2,168.16,-3.08,20890.21,750.81,0.21,34765.92,400.15,1.00,21046.01,1486.78,-3.14,24711.98,1517.53,-3.01,5374.97
2496200,1275.58,420.03,1.00,2,2,2,2036.19,0.19,144931.15,891.58,1.01,43186.22,1292.90,2.82,95005.82,2391.59,3.09,59962.98,1649.79,-3.06,10237.04
2509900,1258.81,436.02,1.00,2,2,2,1691.25,2.38,242047.37,3825.57,2.94,308253.11,2982.28,2.97,125264.35,3022.30,3.10,46158.74,1619.29,-3.07,2530.30
2524500,1169.40,441.19,1.00,3,3,3,6134.14,3.08,340212.78,5714.42,3.09,137135.12,5587.61,3.06,180419.23,3291.91,-3.12,22055.78,1669.55,-3.09,4079.18
2545500,1055.68,447.12,1.00,1,1,1,5422.65,3.09,33916.02,7031.70,3.12,63360.88,5684.68,-3.13,24367.05,3417.40,-3.13,6002.33,1596.70,-3.10,3613.65
2559800,921.26,447.40,1.00,1,1,1,9400.05,3.14,279260.23,5679.35,-3.07,103065.48,4879.38,-3.06,62558.39,3644.74,-3.14,16066.48,1707.91,-3.12,7993.00
2588400,812.60,430.63,1.00,1,1,1,3844.43,-2.99,196965.10,3434.79,-2.89,83205.70,3845.18,-3.01,36863.33,3315.12,-3.11,11955.91,1781.81,-3.14,2829.05
2609800,754.73,405.41,1.00,1,1,1,2949.51,-2.73,58188.59,1703.94,-2.74,82721.77,2113.22,-2.96,81199.80,2328.23,-3.12,46155.87,1740.56,3.14,2084.35
2623900,756.90,407.04,1.00,1,1,1,191.91,0.64,222450.87,447.14,1.25,143863.10,435.65,-2.80,119479.90,1713.57,-3.07,44316.05,1652.74,3.13,6311.12
2638000,758.76,417.36,1.00,1,1,1,744.06,1.39,43786.40,1141.55,0.45,63009.07,1128.22,0.43,110838.65,1050.37,-2.94,48641.37,1733.36,3.14,5852.47
2652500,786.31,421.21,1.00,1,1,1,1918.26,0.14,126081.21,1787.80,0.28,47492.38,905.73,0.39,15553.69,429.28,-2.80,43342.03,1632.84,-3.06,11904.42
2674200,820.92,435.40,1.00,1,1,1,1723.57,0.39,22744.78,722.59,0.31,49114.83,233.67,-0.02,32154.00,113.27,0.88,24426.70,1393.65,-3.02,11357.00
2688600,811.12,429.26,1.00,1,1,1,802.69,-2.58,174879.53,1751.11,-2.77,171722.39,422.97,-2.79,44884.91,139.69,0.73,2262.11,1047.07,-2.95,24889.99
2703000,773.95,417.03,1.00,1,1,1,2717.66,-2.82,135273.84,1878.82,-2.81,10271.38,936.14,-2.82,35660.88,152.65,0.18,5511.44,586.52,-2.76,33620.73
2717000,760.67,411.89,1.00,1,1,1,1017.02,-2.77,121631.16,282.04,-3.10,115027.06,510.56,-2.92,30763.94,225.78,-2.38,25948.97,285.46,-2.38,24127.33
2738200,764.03,416.60,1.00,1,1,1,272.89,0.95,59151.27,278.77,0.65,25263.10,98.08,0.59,28445.32,560.92,-2.60,16230.28,119.02,-1.35,11584.91
2767400,771.89,420.35,1.00,1,1,1,298.23,0.44,4975.30,389.31,0.28,5553.81,163.64,-1.64,8120.90,487.51,-2.54,2726.50,94.15,-1.48,957.91
2781900,780.36,421.36,1.00,1,1,1,588.41,0.12,22090.14,561.12,-2.04,60271.58,348.37,-2.17,15394.16,257.19,-2.04,19914.24,64.61,-0.95,3470.33
2816700,759.49,395.62,1.00,1,1,1,952.37,-2.25,41221.07,956.31,-2.41,13756.35,536.38,-2.17,5402.73,243.26,-1.78,1908.34,41.76,-0.23,1231.61
2830700,745.74,390.07,1.00,1,1,1,1058.98,-2.76,36699.67,520.29,-2.44,31184.08,580.33,-2.12,3803.58,282.44,-1.62,4193.56,61.60,-2.08,5939.52
2844700,748.38,386.19,1.00,1,1,1,334.86,-0.97,84041.21,390.54,-0.85,46844.83,371.46,-1.88,16922.86,275.65,-1.86,4865.21,120.55,-0.81,8389.39
2866100,754.87,379.68,1.00,1,1,1,429.44,-0.79,5500.53,383.31,-1.28,7776.66,372.65,-0.83,17374.65,137.43,-2.03,6646.45,266.26,-0.25,8234.05
2880700,752.29,372.96,1.00,1,1,1,492.73,-1.94,34499.65,351.38,-0.81,12051.75,168.07,-0.58,14669.58,317.69,0.52,30052.41,194.05,-0.27,4950.78
2895600,762.03,372.19,1.00,1,1,1,655.55,-0.08,62060.75,215.52,0.68,26645.54,334.84,0.95,24684.65,505.47,0.41,12930.84,144.94,-0.27,3295.95
2924300,759.59,378.88,1.00,1,1,1,248.31,1.92,27585.70,606.86,1.29,15591.38,824.55,0.77,17361.48,621.75,0.19,5971.95,66.12,-1.50,4796.81
2945400,770.36,401.24,1.00,1,1,1,1176.17,1.12,48278.07,1582.35,0.79,51708.17,876.44,0.76,2550.99,694.74,0.17,3513.45,97.70,-2.37,3531.07
2959400,798.78,418.24,1.00,1,1,1,2365.16,0.54,109062.15,1591.26,0.41,42747.85,1256.07,0.31,43016.03,487.00,0.34,16393.06,90.34,-0.17,11964.45
2973900,811.99,419.24,1.00,1,1,1,913.69,0.08,110409.82,1402.54,-0.39,81103.60,1295.02,-0.06,31908.32,384.90,0.64,11462.65,230.72,-0.04,9766.36
2988000,835.88,403.00,1.00,1,1,1,2049.03,-0.60,102888.17,1324.67,-0.51,12661.46,455.70,-0.85,73003.09,205.67,1.03,14844.79,301.05,0.12,5828.07
3009200,852.85,396.51,1.00,1,1,1,857.00,-0.37,58054.61,531.69,-2.77,80833.29,243.07,-1.98,19484.30,80.76,3.13,12081.10,694.74,0.17,18600.26
3023900,818.09,396.08,1.00,1,1,1,2364.82,-3.13,216136.99,1669.19,2.96,84818.85,967.18,-3.12,60810.94,211.99,-2.05,12944.95,487.00,0.34,15612.44
3037800,805.87,404.97,1.00,1,1,1,1087.03,2.51,117159.70,1563.78,3.02,10107.78,1428.92,3.09,33832.24,197.20,-1.43,8994.46,384.90,0.64,11957.44
3052800,773.22,401.52,1.00,1,1,1,2188.20,-3.04,104053.63,1261.71,-3.06,27402.71,426.80,-3.00,67583.20,43.67,-0.90,10740.14,205.67,1.03,13954.10
3074300,759.95,401.37,1.00,1,1,1,617.25,-3.13,73242.44,313.72,-0.72,69666.11,207.01,-1.03,25206.00,1428.92,3.09,67828.65,80.76,3.13,11912.52
3102400,784.93,391.27,1.00,1,1,1,958.80,-0.38,55045.63,916.44,-0.25,23245.84,674.74,-0.06,20729.66,426.80,-3.00,36076.44,211.99,-2.05,6771.91
3138000,816.59,387.21,1.00,1,1,1,896.50,-0.13,6888.44,1113.23,0.11,11441.05,916.44,-0.25,7904.96,207.01,-1.03,15222.72,197.20,-1.43,3511.88
3152500,840.37,397.39,1.00,1,1,1,1784.02,0.40,76485.37,1784.02,0.40,54348.89,1113.23,0.11,28089.76,674.74,-0.06,40172.65,43.67,-0.90,11110.49
