@RELATION gaze_labels

%@METADATA width_px 1920
%@METADATA height_px 1080
%@METADATA width_mm 540.00
%@METADATA height_mm 254.00
%@METADATA distance_mm 620.00


@ATTRIBUTE time INTEGER
@ATTRIBUTE x NUMERIC
@ATTRIBUTE y NUMERIC
@ATTRIBUTE confidence NUMERIC
@ATTRIBUTE handlabeller1 INTEGER
@ATTRIBUTE handlabeller2 INTEGER
@ATTRIBUTE handlabeller_final INTEGER
@ATTRIBUTE speed_1 numeric
@ATTRIBUTE direction_1 numeric
@ATTRIBUTE acceleration_1 numeric
@ATTRIBUTE speed_2 numeric
@ATTRIBUTE direction_2 numeric
@ATTRIBUTE acceleration_2 numeric
@ATTRIBUTE speed_4 numeric
@ATTRIBUTE direction_4 numeric
@ATTRIBUTE acceleration_4 numeric
@ATTRIBUTE speed_8 numeric
@ATTRIBUTE direction_8 numeric
@ATTRIBUTE acceleration_8 numeric
@ATTRIBUTE speed_16 numeric
@ATTRIBUTE direction_16 numeric
@ATTRIBUTE acceleration_16 numeric

%The number after speed, direction denotes the step size that was used for the calculation.
%Acceleration was calculated between two adjacent samples of the already low pass filtered velocity

@DATA
0,946.47,841.08,1.00,1,1,1,0.00,0.00,0.00,1081.34,-0.24,0.00,624.97,-0.30,0.00,159.44,-1.07,0.00,23.69,-2.75,0.00
15400,962.63,837.06,1.00,1,1,1,1081.34,-0.24,70217.17,624.97,-0.30,29793.78,126.72,-2.56,46269.24,228.63,3.01,22610.73,269.74,2.68,16544.12
31400,965.21,835.26,1.00,1,1,1,196.76,-0.61,56277.67,126.72,-2.56,44534.14,159.44,-1.07,12276.44,254.57,-3.03,4076.10,735.02,2.62,29124.74
47500,959.22,834.84,1.00,1,1,1,372.80,-3.07,33551.25,441.27,-2.93,20238.29,228.63,3.01,21627.65,222.70,2.92,5361.70,1550.66,2.53,50970.56
63500,951.37,832.22,1.00,1,1,1,517.10,-2.82,11365.71,321.96,2.83,14281.46,254.57,-3.03,4076.10,23.69,-2.75,12736.35,2442.41,2.50,55912.31
95600,944.46,839.52,1.00,1,1,1,313.22,2.33,14896.09,135.33,3.03,5955.81,222.70,2.92,2689.20,269.74,2.68,7937.05,3590.17,2.49,35768.19
111800,944.87,832.93,1.00,1,1,1,407.91,-1.51,41897.80,126.77,3.13,938.59,116.80,2.42,8181.54,735.02,2.62,28765.18,3635.27,2.49,2843.59
143400,938.40,839.60,1.00,2,2,2,294.13,2.34,20876.77,146.43,1.85,5196.81,331.79,2.45,6806.85,1550.66,2.53,25969.18,3835.13,2.55,9090.87
159500,942.97,839.65,1.00,2,2,2,283.97,0.01,32991.50,689.11,2.28,34751.06,1275.64,2.50,58657.46,2442.41,2.50,55565.03,1660.81,2.65,135953.79
175500,924.02,856.41,1.00,2,2,2,1581.09,2.42,112611.62,2980.14,2.54,145140.11,3544.95,2.50,141832.03,3590.17,2.49,71759.94,1614.06,2.77,12912.14
192000,862.90,894.14,1.00,2,2,2,4353.34,2.59,170193.61,6375.30,2.52,205840.88,5931.40,2.50,144633.23,3635.27,2.49,2791.89,1590.26,2.87,9824.69
208100,754.66,976.88,1.00,4,4,4,8461.99,2.49,257941.39,8980.30,2.49,162776.82,7664.70,2.49,107750.07,3835.13,2.55,17842.95,1601.83,2.90,3208.31
223500,638.76,1066.72,1.00,4,4,4,9522.26,2.48,68961.23,9014.13,2.47,12087.04,6018.75,2.49,106882.18,3482.55,2.64,31959.89,1627.76,2.90,1688.31
239400,534.66,1153.52,1.00,4,4,4,8524.78,2.45,65895.44,4071.23,2.49,311048.91,4076.74,2.58,125298.37,3085.53,2.78,37765.58,1616.91,2.92,1939.90
271400,483.42,1184.61,1.00,4,4,4,1872.91,2.60,208708.08,1117.86,-3.07,103520.21,1703.95,3.04,83045.94,2578.05,2.95,21803.58,1589.80,2.88,2088.83
287500,481.02,1149.78,1.00,4,4,4,2167.99,-1.64,214561.53,3271.98,-1.38,222347.43,1696.98,-1.81,139330.97,1879.30,-3.05,58650.11,1642.00,2.87,3428.80
303600,503.03,1081.09,1.00,4,4,4,4480.42,-1.26,161077.42,3896.47,-1.41,39370.87,3400.69,-1.50,115204.11,1414.74,-2.54,58536.01,1545.08,2.85,6295.23
321900,501.96,1017.39,1.00,2,2,2,3481.36,-1.59,88985.64,3571.38,-1.61,43050.07,3102.84,-1.54,18024.16,1349.70,-1.90,47810.22,1457.49,2.87,4990.73
335900,498.90,965.81,1.00,2,2,2,3690.87,-1.63,18459.61,2294.76,-1.80,99537.73,2095.00,-1.81,86942.68,1570.00,-1.59,35183.87,1207.82,2.91,18381.20
351500,486.39,951.28,1.00,2,2,2,1229.58,-2.28,180389.11,997.52,-2.66,115631.42,999.79,-2.06,73783.79,1266.24,-1.56,19695.95,771.67,-3.14,31437.73
367500,471.02,951.11,1.00,2,2,2,960.33,-3.13,58403.46,434.15,-3.03,38408.71,270.95,-2.79,51191.02,665.25,-1.66,38031.96,515.80,-2.51,29034.56
399300,465.76,949.00,1.00,2,2,2,178.28,-2.76,25054.59,220.06,0.77,19599.34,208.09,1.77,11511.45,255.57,-1.71,12896.68,599.54,-1.75,13200.54
415500,478.64,958.42,1.00,1,1,1,985.30,0.63,71534.48,793.05,0.82,35396.24,341.19,0.83,17029.75,82.73,1.04,20585.49,723.14,-1.57,10724.63
431400,483.15,967.58,1.00,1,1,1,642.37,1.11,32172.35,462.90,0.85,20807.31,513.92,0.75,11064.39,186.46,0.84,6698.26,624.95,-1.60,6353.00
463500,493.24,975.17,1.00,1,1,1,393.23,0.64,10635.52,334.60,0.63,4832.00,409.78,0.61,3789.98,221.73,0.50,2458.69,411.61,-1.80,7310.58
480400,496.38,977.27,1.00,1,1,1,223.52,0.59,10088.75,389.26,0.16,10436.76,274.23,0.32,9874.26,232.91,0.44,1003.78,195.46,-1.94,13008.94
495700,505.61,977.20,1.00,1,1,1,603.12,-0.01,28536.63,252.69,-0.12,10677.04,166.57,-0.43,12377.80,51.10,0.89,12304.44,33.72,-2.77,11408.22
527500,508.19,975.80,1.00,3,3,3,92.46,-0.50,16459.00,158.84,-1.61,9003.43,162.01,-1.32,4463.09,71.63,-2.41,3847.86,49.52,1.03,2483.39
543400,505.34,969.63,1.00,3,3,3,427.28,-2.00,27122.00,436.20,-2.24,20266.91,315.17,-2.62,19733.16,169.09,-2.42,6130.73,70.28,0.50,2332.83
559500,499.54,964.85,1.00,1,1,1,467.27,-2.45,12602.68,690.69,-2.92,27699.81,580.18,-2.70,16581.66,150.86,-2.38,1198.55,81.42,0.44,747.86
575400,483.78,964.77,1.00,1,1,1,990.88,-3.14,43692.41,793.39,-2.95,6569.76,500.36,-2.81,6225.72,154.34,-2.39,241.75,16.87,-0.47,4544.28
591500,474.63,959.91,1.00,1,1,1,643.57,-2.65,32100.02,325.68,-2.57,31329.93,296.65,-3.01,13565.27,121.20,-2.46,2142.52,46.03,-1.62,2614.67
607800,474.90,959.08,1.00,1,1,1,53.13,-1.26,39027.96,206.85,0.39,32545.07,96.64,-0.45,23399.65,113.95,-2.65,1433.89,72.93,-1.83,1805.62
623400,480.74,962.41,1.00,1,1,1,431.10,0.52,28541.64,467.71,0.21,17116.31,256.74,0.24,12314.76,87.23,-2.70,1742.21,91.63,-2.48,3566.06
639400,489.36,962.11,1.00,1,1,1,539.41,-0.04,17818.77,291.94,0.17,11012.71,201.36,0.17,3591.02,60.28,-1.64,4906.03,119.18,-2.43,1757.51
671600,494.60,964.84,1.00,1,1,1,183.37,0.48,12128.30,29.92,-0.15,8191.32,99.82,-0.37,3949.56,69.77,-0.68,1878.58,181.78,-0.99,6322.17
688000,490.80,961.89,1.00,1,1,1,293.24,-2.48,28950.69,262.39,-2.45,17264.64,107.23,-2.37,10611.28,86.26,-0.40,1650.90,550.27,-0.44,24774.13
703400,488.18,959.51,1.00,1,1,1,229.91,-2.41,4308.41,302.66,-2.49,2719.92,258.85,-2.40,9849.93,41.55,-2.80,7806.28,966.47,-0.33,27533.57
719500,483.22,956.11,1.00,1,1,1,373.50,-2.54,9248.48,256.11,-2.34,3880.85,109.99,-1.94,10376.33,87.79,-2.48,3115.65,1240.37,-0.27,17547.21
735500,482.46,953.60,1.00,1,1,1,163.43,-1.87,16626.91,103.53,-0.50,18786.89,171.01,3.09,10724.23,372.33,-0.66,25185.05,1302.65,-0.19,6992.49
767900,487.61,953.70,1.00,1,1,1,159.17,0.02,8054.82,214.85,2.45,9788.72,69.93,-2.65,3611.23,1113.93,-0.37,23607.18,1224.56,-0.17,2611.76
783700,474.46,960.19,1.00,1,1,1,928.19,2.68,67855.93,295.57,-3.11,12287.04,733.31,-0.38,49373.72,1889.95,-0.30,49481.88,1189.67,-0.19,2857.25
799400,478.31,953.45,1.00,2,2,2,494.29,-1.05,87012.10,2161.51,-0.42,154845.56,2235.29,-0.32,95788.92,2246.54,-0.25,23871.24,1143.70,-0.19,2929.30
815400,536.95,932.08,1.00,2,2,2,3900.98,-0.35,221147.20,3881.91,-0.30,109780.27,3948.31,-0.29,107179.82,2318.09,-0.18,10046.39,1259.53,-0.22,7641.57
847500,656.66,898.20,1.00,3,3,3,3875.92,-0.28,8955.07,5131.94,-0.25,39473.21,4157.44,-0.24,9484.30,2369.56,-0.16,2309.83,1453.94,-0.23,6073.54
863900,777.87,869.55,1.00,1,1,1,7593.97,-0.23,227169.79,4448.79,-0.18,47011.52,3649.08,-0.15,37104.00,2418.28,-0.18,4529.21,1639.57,-0.22,11436.79
895500,866.79,860.15,1.00,1,1,1,2829.73,-0.11,151909.66,2233.68,0.10,75249.96,2555.16,-0.02,36759.40,2333.32,-0.16,3104.73,1829.54,-0.20,6055.03
911500,883.70,879.74,1.00,1,1,1,1617.45,0.86,145290.12,1070.19,1.75,159614.28,997.52,0.26,101286.78,2092.40,-0.16,15086.89,1979.70,-0.19,9598.16
927400,860.77,893.76,1.00,1,1,1,1689.86,2.59,158620.66,957.28,2.80,64510.56,552.05,2.03,77566.28,1848.99,-0.14,15362.63,1963.15,-0.16,3497.01
943600,854.71,889.93,1.00,1,1,1,442.45,-2.58,95384.47,302.10,-3.03,43117.93,246.78,3.11,29994.10,1378.87,-0.09,29600.39,2050.73,-0.16,5430.79
961100,850.66,892.58,1.00,2,2,2,276.19,2.56,23565.86,512.79,-0.63,43572.15,1066.06,-0.52,73676.16,1265.19,-0.10,6582.27,2068.70,-0.17,1186.53
975500,867.91,880.28,1.00,2,2,2,1471.26,-0.62,121337.42,2529.73,-0.44,140862.24,1974.18,-0.30,66837.98,1513.75,-0.19,19512.71,1809.24,-0.16,18040.52
991400,919.95,859.79,1.00,2,2,2,3517.10,-0.38,133306.84,3467.34,-0.25,68666.96,2948.18,-0.27,61466.31,1513.62,-0.16,3391.42,1334.27,-0.13,29996.74
1007400,975.01,852.62,1.00,3,3,3,3470.27,-0.13,53532.39,3406.24,-0.15,23431.26,3276.87,-0.18,26360.44,1643.93,-0.13,8577.28,1119.12,-0.08,14079.12
1023400,1027.80,844.04,1.00,1,1,1,3343.05,-0.16,10403.94,3104.55,-0.10,20638.66,1949.40,-0.00,87629.89,1768.54,-0.18,9213.85,1229.68,-0.06,7089.05
1039300,1073.51,842.36,1.00,1,1,1,2876.56,-0.04,38065.82,1054.19,0.30,136927.40,1428.35,0.05,33336.82,1494.76,-0.17,17231.22,1479.10,-0.10,16024.64
1071600,1076.29,859.23,1.00,1,1,1,529.47,1.41,88494.78,474.50,0.81,20981.33,885.49,0.06,16807.01,871.93,-0.11,19395.32,1773.51,-0.10,9122.26
1087600,1089.39,858.89,1.00,1,1,1,819.04,-0.03,57043.81,783.37,-0.46,49133.73,84.02,0.18,50133.65,886.51,-0.07,2509.32,1752.67,-0.10,1382.63
1103600,1098.71,848.02,1.00,1,1,1,894.73,-0.86,43663.66,559.68,-2.11,62350.94,290.41,-2.43,22831.75,1202.97,-0.02,20019.06,1736.34,-0.11,1599.79
1119600,1080.15,843.54,1.00,1,1,1,1193.00,-2.90,111709.55,839.90,-3.05,42318.24,396.53,-0.53,35117.88,1463.26,-0.02,16267.87,1692.79,-0.10,3094.27
1151500,1058.66,844.14,1.00,2,2,2,673.88,3.11,17884.25,761.19,-0.02,50102.22,1525.92,-0.07,37163.70,2011.40,-0.07,17342.99,1530.47,-0.06,5368.62
1167600,1116.68,842.71,1.00,2,2,2,3604.59,-0.02,265743.32,5054.60,-0.03,266671.74,2621.97,-0.03,68257.57,1842.96,-0.08,10527.55,1406.09,-0.06,7727.63
1183500,1220.35,839.82,1.00,1,1,1,6522.86,-0.03,183542.01,4494.46,-0.03,35231.80,4232.59,-0.02,101316.23,1716.19,-0.05,8317.66,1162.78,-0.05,15372.94
1215300,1330.98,836.66,1.00,1,1,1,3480.26,-0.03,95679.48,3684.83,-0.01,25569.01,3088.65,-0.03,35991.40,1860.66,-0.05,4558.67,701.58,0.01,14596.57
1231500,1397.22,838.08,1.00,1,1,1,4089.58,0.02,39370.18,1694.52,-0.03,122888.72,1874.72,-0.05,74979.13,2191.33,-0.04,20419.86,310.21,0.26,25220.99
1263400,1412.46,834.42,1.00,1,1,1,491.34,-0.24,113372.56,148.02,-1.15,51265.73,954.96,-0.11,28975.38,1926.34,-0.06,8402.33,276.17,2.58,16826.65
1279500,1400.14,831.61,1.00,1,1,1,784.73,-2.92,77279.70,262.54,-2.26,14800.90,183.26,-0.67,49977.26,1123.30,-0.07,49888.12,619.58,2.78,21995.44
1295500,1407.07,827.94,1.00,1,1,1,490.11,-0.49,74965.24,281.14,-0.29,28357.31,251.95,-0.75,4440.42,234.81,2.90,84700.68,587.71,2.85,3101.21
1311400,1408.73,829.04,1.00,1,1,1,125.38,0.58,27922.27,554.79,-0.26,17229.54,78.24,-1.70,13594.84,1629.16,2.95,87716.62,414.79,2.91,11071.39
1327600,1424.29,823.39,1.00,2,2,2,1021.60,-0.35,58784.24,298.46,-2.89,51116.85,1722.55,2.99,106552.86,3124.55,2.97,92356.57,545.57,3.00,8499.55
1343400,1399.49,826.65,1.00,2,2,2,1583.34,3.01,163940.17,4011.60,2.97,236791.17,3868.48,2.92,136276.48,3434.79,2.97,19635.47,805.53,3.02,16474.98
1359500,1298.14,844.92,1.00,2,2,2,6396.04,2.96,299073.99,7472.91,2.90,216387.08,6482.84,2.95,162599.61,3545.09,3.00,10487.86,1142.84,3.08,21209.72
1375400,1167.28,883.78,1.00,2,2,2,8585.81,2.85,147006.58,8956.19,2.93,94843.16,6177.89,2.96,19735.39,3007.46,3.05,34992.75,1466.89,3.07,20413.00
1391400,1018.60,903.92,1.00,1,1,1,9377.27,3.01,99506.44,5331.94,3.01,228935.97,4996.12,3.01,75988.54,3018.66,3.05,1049.86,1810.83,3.04,21608.11
1423500,913.01,917.32,1.00,1,1,1,3315.65,3.02,188841.22,2448.40,-3.09,92080.29,2477.92,-3.10,80719.16,2731.33,3.04,8990.86,1857.37,3.02,1886.07
1439900,899.99,898.12,1.00,1,1,1,1414.45,-2.17,180353.68,963.16,-1.21,176421.70,870.83,-2.68,104966.50,1965.71,3.10,47383.94,1998.27,3.02,8632.64
1471500,929.35,874.07,1.00,1,1,1,1200.94,-0.69,56040.13,1137.92,-0.62,19890.01,873.87,-0.75,45406.53,1343.23,-3.09,20328.77,2003.13,3.02,443.59
1487400,943.84,866.51,1.00,1,1,1,1027.82,-0.48,18001.90,1101.33,-0.12,35233.55,1172.29,-0.45,26765.97,793.88,-2.99,35071.16,1887.00,3.03,7312.09
1503500,964.34,869.85,1.00,1,1,1,1290.11,0.16,48012.96,1286.09,-0.21,13233.53,367.28,-0.10,51923.14,474.37,-2.89,20255.90,1852.56,3.01,2691.70
1519400,984.10,857.96,1.00,1,1,1,1450.16,-0.54,60102.56,369.50,2.98,104102.26,844.97,2.79,75751.71,599.41,3.08,13145.82,1564.92,3.03,18252.46
1535400,952.70,871.72,1.00,2,2,2,2142.29,2.73,224081.09,2942.82,2.85,161050.30,1600.59,2.92,48079.08,890.01,2.93,19462.44,878.92,-3.14,43670.38
1551800,892.67,885.03,1.00,3,3,3,3749.25,2.92,103587.54,2419.31,2.91,33292.56,2316.34,2.89,43758.76,765.47,2.92,7601.13,101.03,-1.46,54553.55
1583400,839.62,898.15,1.00,1,1,1,1729.37,2.90,63950.53,1892.83,2.93,16711.43,1893.93,2.95,13844.75,982.57,2.93,6870.97,831.20,-0.21,25477.33
1599400,804.56,903.85,1.00,1,1,1,2220.12,2.98,32253.75,1112.29,3.06,50090.87,720.35,3.02,73555.36,1176.24,2.92,12104.92,1176.33,-0.11,22491.87
1615300,804.27,901.17,1.00,1,1,1,169.83,-1.68,140599.18,454.68,-0.50,96839.29,372.38,2.95,21991.67,421.76,2.99,47532.62,1181.48,-0.06,4079.37
1647900,823.95,893.34,1.00,2,2,2,649.60,-0.38,19202.99,128.68,0.42,11970.94,85.73,-2.28,10372.66,814.69,-0.10,37915.82,1091.42,-0.07,2789.09
1664300,810.02,903.75,1.00,2,2,2,1060.12,2.50,103400.79,770.44,2.92,53477.73,1048.01,-0.23,66466.57,2227.78,-0.11,86165.34,1079.65,-0.13,4402.17
1679600,800.10,898.62,1.00,2,2,2,729.97,-2.66,64745.95,2540.86,-0.28,216357.41,3137.68,-0.11,137320.01,3137.06,-0.10,59443.78,990.07,-0.09,6559.83
1695400,886.03,882.14,1.00,3,3,3,5537.67,-0.19,387845.51,7029.41,-0.12,287151.93,5513.21,-0.11,150359.08,3025.63,-0.10,7076.17,1063.32,-0.11,4748.70
1711400,1022.02,871.77,1.00,3,3,3,8523.94,-0.08,192886.52,8363.48,-0.07,87026.55,7117.41,-0.09,100796.38,3162.48,-0.11,8819.14,1279.54,-0.10,13518.97
1728300,1160.54,863.34,1.00,1,1,1,8212.05,-0.06,19945.24,7210.73,-0.06,68388.25,4996.84,-0.07,125633.49,3394.38,-0.16,16959.61,1536.81,-0.13,15384.50
1743800,1255.26,858.31,1.00,1,1,1,6119.08,-0.05,135077.35,2684.52,-0.08,292057.18,3182.19,-0.11,117494.43,3375.27,-0.14,4878.70,1731.56,-0.13,12576.05
1776200,1288.77,853.65,1.00,1,1,1,1044.22,-0.14,156771.75,508.47,-0.63,70012.72,1696.83,-0.28,47451.88,2702.68,-0.11,20886.74,1718.98,-0.14,562.27
1791300,1274.76,844.06,1.00,1,1,1,1124.25,-2.54,133944.19,879.43,-1.54,46097.81,501.14,-0.74,83966.92,1795.10,-0.10,60143.09,1668.22,-0.12,3989.03
1807400,1289.53,826.23,1.00,1,1,1,1438.46,-0.88,118306.35,501.56,-0.90,35029.17,328.69,-2.28,36601.17,838.63,-0.18,59708.63,1425.71,-0.12,15071.81
1824700,1285.15,830.92,1.00,1,1,1,371.24,2.32,104577.73,558.55,2.47,60862.47,75.09,0.46,23053.13,335.58,-0.43,30086.89,1169.72,-0.08,15092.70
1840300,1275.11,837.61,1.00,1,1,1,773.54,2.55,26995.78,537.44,1.95,18221.49,300.97,2.17,20518.74,298.59,-0.63,4743.73,574.27,-0.02,38266.56
1855300,1279.06,846.20,1.00,1,1,1,630.39,1.14,61259.86,184.85,0.90,31515.08,250.26,0.48,27568.71,185.08,-0.32,9013.93,26.06,2.68,39862.36
1871400,1278.66,842.13,1.00,1,1,1,254.10,-1.67,54313.29,669.61,-0.38,39895.96,615.71,-0.19,27834.41,359.22,2.63,33673.07,492.26,3.11,29114.54
1887500,1299.08,838.20,1.00,1,1,1,1291.68,-0.19,80326.93,959.29,-0.30,18415.41,293.37,-0.46,21256.99,863.10,2.84,32075.63,778.24,3.12,17765.54
1920300,1323.46,828.20,1.00,1,1,1,803.15,-0.39,16121.82,56.29,-1.19,28198.93,428.76,2.85,21941.94,1193.10,2.95,10625.34,911.66,3.12,4068.37
1935400,1300.08,835.69,1.00,2,2,2,1625.63,2.83,160734.80,1869.86,2.84,126203.14,1548.57,2.91,74248.32,1511.18,3.03,22323.91,827.24,3.08,5871.34
1967400,1239.30,854.15,1.00,3,3,3,1985.18,2.85,11268.74,3126.33,2.90,39486.40,2711.51,2.95,36414.43,1570.82,3.05,2014.27,359.22,2.63,16482.09
1983400,1154.46,871.92,1.00,3,3,3,5417.60,2.94,215290.87,3549.46,3.00,34311.23,3002.92,3.00,20661.02,1668.78,3.05,6156.24,863.10,2.84,32276.10
2015600,1069.86,877.83,1.00,1,1,1,2633.64,3.07,87932.75,2915.41,3.12,22704.80,2955.28,3.08,7461.28,1966.25,3.04,9286.42,1193.10,2.95,10823.33
2031400,1014.56,875.51,1.00,1,1,1,3502.86,-3.10,59046.46,2112.54,-3.00,57385.25,1849.54,-3.09,71941.04,1649.04,3.06,20256.55,1511.18,3.03,21334.87
2047300,1003.59,868.20,1.00,1,1,1,829.42,-2.55,177795.56,436.25,-2.18,115769.08,938.11,-2.85,60482.70,2955.28,3.08,82208.91,1570.82,3.05,4053.87
2063500,1006.52,864.05,1.00,1,1,1,313.55,-0.96,55222.25,360.20,-0.68,33709.24,209.00,-1.85,52185.26,1849.54,-3.09,70164.72,1668.78,3.05,6080.24
2079300,1012.54,860.93,1.00,1,1,1,429.01,-0.48,13216.85,121.12,-0.94,15504.85,360.20,-0.68,21366.72,938.11,-2.85,60865.50,1966.25,3.04,18925.48
2111900,1009.99,859.32,1.00,2,2,2,92.73,-2.58,14802.47,92.73,-2.58,4832.21,121.12,-0.94,7514.62,209.00,-1.85,25932.55,1649.04,3.06,9817.59
