@RELATION gaze_labels

%@METADATA width_px 1920
%@METADATA height_px 1080
%@METADATA width_mm 540.00
%@METADATA height_mm 254.00
%@METADATA distance_mm 620.00


@ATTRIBUTE time INTEGER
@ATTRIBUTE x NUMERIC
@ATTRIBUTE y NUMERIC
@ATTRIBUTE confidence NUMERIC
@ATTRIBUTE handlabeller1 INTEGER
@ATTRIBUTE handlabeller2 INTEGER
@ATTRIBUTE handlabeller_final INTEGER
@ATTRIBUTE speed_1 numeric
@ATTRIBUTE direction_1 numeric
@ATTRIBUTE acceleration_1 numeric
@ATTRIBUTE speed_2 numeric
@ATTRIBUTE direction_2 numeric
@ATTRIBUTE acceleration_2 numeric
@ATTRIBUTE speed_4 numeric
@ATTRIBUTE direction_4 numeric
@ATTRIBUTE acceleration_4 numeric
@ATTRIBUTE speed_8 numeric
@ATTRIBUTE direction_8 numeric
@ATTRIBUTE acceleration_8 numeric
@ATTRIBUTE speed_16 numeric
@ATTRIBUTE direction_16 numeric
@ATTRIBUTE acceleration_16 numeric

%The number after speed, direction denotes the step size that was used for the calculation.
%Acceleration was calculated between two adjacent samples of the already low pass filtered velocity

@DATA
0,753.66,862.19,1.00,1,1,1,0.00,0.00,0.00,632.39,2.66,0.00,430.38,2.71,0.00,434.06,2.65,0.00,631.95,2.72,0.00
16000,744.69,866.87,1.00,1,1,1,632.39,2.66,39524.10,430.38,2.71,12713.16,414.34,2.76,1651.74,219.15,2.60,13458.84,955.87,2.77,20388.12
48200,734.85,870.92,1.00,1,1,1,330.65,2.75,9456.03,414.34,2.76,820.74,434.06,2.65,1569.28,262.51,2.57,1366.99,1311.47,2.79,11065.48
64000,726.25,874.33,1.00,1,1,1,584.92,2.76,16097.20,442.51,2.56,5646.76,219.15,2.60,13629.21,202.95,2.76,4623.32,1225.92,2.78,5468.29
80100,723.06,878.69,1.00,1,1,1,335.82,2.20,21715.85,115.92,0.42,31923.71,262.51,2.57,2733.98,631.95,2.72,26656.98,1312.36,2.78,5380.72
96000,729.64,875.85,1.00,1,1,1,450.55,-0.41,47760.68,82.73,2.64,11221.74,202.95,2.76,4594.24,955.87,2.77,20516.34,1305.53,2.74,3299.83
112000,720.75,879.96,1.00,2,2,2,612.14,2.71,66412.78,488.54,2.93,25612.39,881.22,2.77,42393.00,1311.47,2.79,22269.28,1520.84,2.64,16082.51
128500,714.13,879.27,1.00,2,2,2,403.11,-3.04,20394.86,1670.50,2.77,72120.44,1881.15,2.79,60642.72,1225.92,2.78,5236.30,1950.53,2.53,28491.42
144300,670.43,899.44,1.00,3,3,3,3046.54,2.71,171398.75,3322.90,2.77,104583.12,2364.08,2.81,30680.19,1312.36,2.78,5482.88,1257.94,2.56,43975.12
160000,616.42,916.79,1.00,3,3,3,3613.29,2.83,44312.46,3073.16,2.84,20437.04,2055.93,2.78,20118.96,1305.53,2.74,3341.87,1240.68,2.65,6827.46
176000,577.46,928.57,1.00,0,0,0,2543.37,2.85,66949.52,1224.69,2.80,115633.39,1653.28,2.78,25166.86,1520.84,2.64,16082.51,1223.17,2.74,7217.70
208000,561.08,936.62,1.00,2,2,2,570.58,2.68,61954.23,755.61,2.63,15482.95,853.14,2.63,25585.31,1950.53,2.53,14690.89,1013.13,2.87,7964.88
225500,544.82,946.83,1.00,2,2,2,1096.83,2.58,30436.51,438.49,1.89,29857.98,938.42,2.27,19045.77,1896.39,2.51,3655.32,856.81,2.98,10600.65
240200,556.60,950.01,1.00,2,2,2,829.97,0.26,120309.60,1380.52,1.96,64170.45,2011.35,2.20,73328.34,1506.77,2.58,27603.66,863.42,2.94,2229.64
256100,528.94,985.98,1.00,4,4,4,2853.46,2.23,205147.93,3626.73,2.23,146532.58,2361.77,2.26,23745.89,1155.36,2.69,24120.38,790.68,2.90,4904.02
272000,485.63,1040.92,1.00,4,4,4,4400.13,2.24,97310.74,3381.23,2.38,35474.60,2162.49,2.55,42979.40,831.44,2.98,27180.46,764.37,2.85,3175.38
288200,450.48,1060.97,1.00,4,4,4,2498.02,2.62,141123.32,1515.93,3.07,148727.11,1503.37,2.95,59860.97,543.96,-2.90,24231.29,559.49,2.78,12917.90
320400,412.47,1046.47,1.00,4,4,4,1263.31,-2.78,60759.35,1363.70,-2.22,42903.28,1047.04,-2.16,45402.83,565.21,-2.96,1193.52,339.75,2.65,7045.22
336100,410.90,1009.00,1.00,4,4,4,2388.56,-1.61,141222.23,1905.61,-1.38,90733.57,1224.52,-1.55,44506.73,405.94,-2.43,18781.95,193.01,2.38,10369.94
368000,429.68,957.41,1.00,2,2,2,1721.17,-1.22,32373.11,1480.28,-1.11,19285.02,1290.89,-1.19,14554.54,519.10,-1.63,11792.10,155.39,2.40,1183.74
400100,452.64,923.96,1.00,2,2,2,1263.99,-0.97,18345.91,804.40,-0.72,24835.50,983.58,-0.83,15774.60,635.95,-1.08,10307.92,81.24,2.13,2487.96
416300,458.77,931.66,1.00,2,2,2,607.61,0.90,95950.24,842.83,0.61,62988.81,639.96,-0.15,38846.19,827.51,-0.63,23310.42,89.17,2.45,1718.19
432100,474.74,939.43,1.00,2,2,2,1123.53,0.45,39995.09,886.14,0.70,5491.71,985.15,0.65,44860.24,797.12,-0.30,17063.75,69.22,-1.39,9435.54
448000,480.30,949.71,1.00,1,1,1,735.21,1.07,42662.18,1128.59,0.68,15293.94,1093.99,0.53,10169.88,675.33,0.12,20527.97,281.18,-1.03,13686.89
464100,502.84,962.11,1.00,1,1,1,1597.96,0.50,65686.34,1310.26,0.43,21905.24,1033.62,0.50,4330.25,627.07,0.52,16458.24,397.34,-0.83,8358.28
481300,519.96,967.90,1.00,1,1,1,1050.63,0.33,34502.54,976.92,0.30,21244.33,776.80,0.39,16021.13,586.15,0.45,3414.53,489.25,-0.55,9026.13
496200,532.82,971.31,1.00,1,1,1,892.96,0.26,11433.36,208.79,0.12,51834.00,362.30,0.23,28391.46,433.51,0.40,10378.24,463.38,-0.27,8821.38
512100,526.34,968.66,1.00,1,1,1,439.94,-2.75,83676.76,64.93,-2.17,16127.03,187.04,0.03,11519.33,368.69,0.26,5337.66,433.30,0.11,10843.07
544100,531.05,968.75,1.00,1,1,1,147.19,0.02,18113.48,174.10,-0.05,6739.58,88.66,-1.55,6490.65,233.88,0.15,4341.80,386.92,0.42,4271.06
560100,534.69,968.28,1.00,1,1,1,229.28,-0.13,5392.67,149.41,-1.19,11001.96,91.73,-0.77,4291.82,136.41,0.07,6152.47,327.54,0.38,3800.26
577900,532.94,964.06,1.00,1,1,1,256.56,-1.96,21708.51,177.11,-2.15,8597.41,83.41,-0.31,2284.65,94.70,-0.04,2447.39,263.02,0.31,3850.19
592100,531.60,963.54,1.00,1,1,1,102.00,-2.77,14075.03,146.01,0.76,22605.77,74.95,0.21,2952.20,191.24,0.07,6879.99,267.16,0.15,2975.00
608000,536.12,967.10,1.00,1,1,1,362.33,0.67,28987.99,303.27,0.64,10030.05,242.51,0.46,10748.96,161.55,0.03,1914.63,183.57,-0.02,5734.16
624000,539.38,969.29,1.00,1,1,1,244.99,0.59,7465.92,341.88,0.34,6373.97,364.47,0.31,8127.31,81.21,-0.10,5108.72,152.06,-0.32,3725.70
640000,546.43,970.77,1.00,1,1,1,450.44,0.21,15091.92,451.71,0.09,9173.91,229.09,0.13,9039.73,114.05,-0.03,2091.95,109.49,-0.53,3155.62
656100,553.81,970.65,1.00,1,1,1,458.69,-0.02,6348.56,165.75,-0.16,18260.08,90.77,-0.30,9406.11,182.06,-0.07,4235.76,101.62,-0.61,700.10
688000,554.29,969.54,1.00,1,1,1,37.87,-1.17,13935.41,168.14,-2.70,10001.83,89.12,-1.01,1968.61,145.44,-0.26,1511.06,126.23,-0.66,791.48
704900,546.40,967.13,1.00,1,1,1,488.08,-2.85,29209.03,142.79,-2.07,5840.80,117.95,-0.92,1790.35,181.38,-0.58,3750.28,162.21,-0.60,2181.01
736100,550.98,963.52,1.00,1,1,1,187.11,-0.67,19691.05,323.96,-0.37,11895.22,117.92,-1.09,647.73,138.91,-0.83,1844.96,169.39,-0.48,700.22
752100,560.66,961.63,1.00,1,1,1,616.60,-0.19,28647.07,250.39,-0.30,4755.82,279.10,-0.67,11118.51,116.90,-1.61,6219.69,173.55,-0.49,298.26
768100,558.63,961.15,1.00,1,1,1,130.30,-2.91,46079.47,276.06,-1.23,14791.82,217.56,-0.71,3892.60,158.00,-1.29,3744.07,176.75,-0.60,1237.18
783900,563.62,953.36,1.00,1,1,1,585.07,-1.00,40508.63,229.34,-1.17,3092.80,172.60,-2.15,16413.94,247.71,-0.75,8747.73,164.18,-0.77,1913.61
799900,561.47,954.43,1.00,1,1,1,149.66,2.68,44853.33,228.38,-2.84,21177.62,201.61,-1.40,8773.25,248.68,-0.70,762.26,130.64,-1.02,3137.02
832400,553.05,950.05,1.00,1,1,1,292.25,-2.66,7306.53,190.32,-1.58,7642.68,218.46,-0.84,3596.13,200.57,-0.92,2133.42,167.95,-1.06,1161.99
848100,561.40,945.26,1.00,1,1,1,613.24,-0.52,51550.22,766.45,-0.41,45440.13,273.53,-0.69,4217.85,227.82,-0.85,2023.76,422.30,-0.61,17904.06
864100,575.31,940.32,1.00,1,1,1,922.62,-0.34,21087.14,553.76,-0.27,14449.15,432.72,-0.43,11417.40,153.01,-1.01,5041.40,748.34,-0.42,21460.98
879900,578.36,940.51,1.00,1,1,1,193.30,0.06,47399.52,101.93,-0.55,28894.91,326.20,-0.43,6741.87,127.84,-1.23,2531.12,1095.40,-0.36,22191.21
896000,578.08,938.62,1.00,1,1,1,118.84,-1.71,15338.13,136.93,-1.10,4530.33,87.78,-1.56,18583.07,262.33,-0.77,9825.87,1157.90,-0.33,4353.14
912000,580.36,936.60,1.00,1,1,1,190.21,-0.73,9974.49,147.79,-2.17,9112.46,140.84,-2.64,7901.43,763.33,-0.46,32480.51,1129.59,-0.31,2591.82
928200,575.40,934.69,1.00,1,1,1,328.24,-2.77,27700.39,247.33,-3.01,11420.26,187.19,-1.44,11694.32,1320.26,-0.35,35104.62,1012.97,-0.28,7333.62
961000,568.34,935.02,1.00,2,2,2,215.25,3.10,4789.56,248.14,-1.17,12037.35,1112.67,-0.47,31042.50,1956.20,-0.32,19441.74,981.17,-0.28,994.89
976200,580.08,923.74,1.00,2,2,2,1070.90,-0.77,81643.74,3201.55,-0.40,199182.63,2356.67,-0.32,83395.28,2051.95,-0.28,7807.38,1038.59,-0.24,4691.54
992000,659.73,896.30,1.00,3,3,3,5331.73,-0.33,277413.06,5672.89,-0.27,160345.96,4600.05,-0.29,142125.17,1971.65,-0.25,6432.57,1017.73,-0.23,1353.28
1008000,753.95,875.65,1.00,3,3,3,6028.72,-0.22,59892.57,5984.13,-0.23,23973.90,4041.75,-0.24,37285.44,1825.95,-0.23,9348.31,944.68,-0.22,4616.22
1024000,846.12,852.38,1.00,1,1,1,5941.03,-0.25,12984.97,2964.82,-0.20,188854.59,2864.79,-0.17,75146.38,1902.71,-0.22,5021.52,951.73,-0.24,1224.96
1056000,893.34,846.95,1.00,1,1,1,1485.43,-0.11,139780.45,840.17,0.14,68440.12,1320.93,-0.08,48526.71,1773.99,-0.17,5093.42,1088.88,-0.25,4294.06
1072200,886.24,857.85,1.00,1,1,1,802.50,2.15,129063.80,1227.14,2.61,120822.14,248.23,0.74,72038.69,1274.28,-0.11,31348.84,1286.96,-0.24,12255.90
1088100,859.40,866.94,1.00,1,1,1,1782.70,2.81,78888.94,521.34,2.70,44620.05,558.80,2.42,39903.08,635.29,0.02,40833.51,1500.08,-0.22,13497.55
1120100,863.67,868.53,1.00,1,1,1,142.56,0.36,59232.32,201.10,1.53,14999.14,360.77,2.52,6366.25,149.24,0.97,17540.46,1793.23,-0.21,9165.02
1136100,859.79,876.59,1.00,1,1,1,558.74,2.02,36830.75,189.76,1.73,2549.58,143.10,1.90,16166.82,84.53,1.07,4110.69,1685.31,-0.17,8281.29
1152200,862.70,874.55,1.00,1,1,1,220.74,-0.61,47146.47,132.99,2.86,11100.27,83.44,2.42,5090.34,525.72,-0.17,31341.52,1380.36,-0.13,19317.43
1168200,855.70,877.79,1.00,2,2,2,482.52,2.71,43804.23,123.02,-2.46,7489.24,682.53,-0.45,47699.87,1138.76,-0.19,38327.96,1071.06,-0.08,19663.85
1184100,859.67,872.06,1.00,2,2,2,438.27,-0.97,55884.13,1501.57,-0.43,98061.49,1604.36,-0.29,58904.51,1657.50,-0.20,32639.61,752.97,-0.01,20442.41
1200100,899.16,857.65,1.00,3,3,3,2627.53,-0.35,142730.86,3279.30,-0.26,113724.01,2661.69,-0.25,66324.61,1587.45,-0.17,5321.61,635.47,-0.01,7343.74
1216000,960.79,845.28,1.00,1,1,1,3953.43,-0.20,88877.21,3858.41,-0.17,41132.22,3384.83,-0.21,45964.01,1499.05,-0.15,5926.32,650.69,-0.05,2150.53
1232000,1020.39,836.41,1.00,1,1,1,3766.42,-0.15,16854.35,3496.57,-0.17,22672.34,2329.07,-0.10,68562.05,1562.15,-0.13,4441.51,733.96,-0.09,5367.91
1248200,1071.82,826.63,1.00,1,1,1,3231.46,-0.19,34134.58,1350.40,0.02,134890.87,1439.55,-0.02,55710.89,1503.63,-0.10,4531.95,751.57,-0.12,1776.83
1281000,1086.55,837.94,1.00,1,1,1,566.05,0.66,87987.43,349.21,1.31,39575.36,744.18,0.22,22545.20,1174.16,-0.06,10132.64,670.69,-0.16,2654.24
1296100,1076.07,842.81,1.00,1,1,1,765.05,2.71,75689.21,458.18,2.18,23474.99,308.32,1.44,46382.92,767.80,0.01,27359.93,644.45,-0.18,1946.98
1311900,1078.39,849.51,1.00,1,1,1,449.12,1.24,53603.42,259.71,1.70,16373.75,96.22,1.57,13503.12,389.65,0.19,24657.52,798.70,-0.17,9769.15
1328000,1075.01,851.03,1.00,1,1,1,229.93,2.72,30211.38,187.99,-0.45,24573.88,108.09,0.51,6495.10,113.64,1.19,21257.11,1007.67,-0.13,13210.46
1360000,1086.52,845.54,1.00,1,1,1,398.21,-0.44,19628.17,198.09,-0.44,331.76,45.90,-0.45,2806.34,161.95,2.91,6615.52,1130.43,-0.09,4064.75
1376000,1083.62,846.99,1.00,1,1,1,202.21,2.68,37524.66,167.03,2.68,22818.49,104.41,-1.13,4653.26,132.05,-2.97,4079.74,1141.91,-0.08,1252.56
1392100,1081.71,847.91,1.00,1,1,1,132.07,2.69,4360.59,191.75,-2.53,11420.96,312.82,-3.07,22612.33,187.35,-0.51,18746.35,1002.14,-0.08,8681.29
1408000,1078.59,843.48,1.00,1,1,1,340.73,-2.18,21675.51,428.06,-2.94,16564.23,367.62,-2.87,5445.33,604.14,-0.20,27009.88,858.06,-0.06,9113.20
1440600,1061.36,843.77,1.00,2,2,2,528.59,3.12,13492.47,494.10,-2.96,2044.28,305.72,-0.51,19114.76,1087.50,-0.12,14957.95,863.82,-0.07,376.58
1456000,1055.27,839.19,1.00,2,2,2,494.87,-2.50,21639.22,992.04,-0.22,94790.06,1057.98,-0.13,50821.18,1520.37,-0.12,28110.06,899.71,-0.09,2584.75
1488000,1107.26,833.55,1.00,1,1,1,1634.41,-0.11,63260.29,2590.67,-0.07,50499.84,2504.12,-0.09,45231.21,1631.28,-0.14,3560.62,841.23,-0.08,1849.83
1504000,1179.30,830.30,1.00,1,1,1,4506.97,-0.05,179854.13,4759.12,-0.05,135581.48,3381.49,-0.08,54895.70,1681.37,-0.12,3461.29,649.67,0.02,12859.55
1520000,1259.33,825.28,1.00,1,1,1,5011.65,-0.06,31975.75,4564.22,-0.09,15153.84,3650.16,-0.09,16989.51,2001.88,-0.09,20484.89,358.80,0.62,25402.81
1536100,1325.28,817.82,1.00,1,1,1,4122.38,-0.11,57001.10,2553.65,-0.16,125841.18,2613.61,-0.12,64590.61,2038.34,-0.07,2799.74,533.72,1.94,35157.04
1552100,1340.28,812.34,1.00,1,1,1,997.82,-0.35,197588.93,681.80,-0.34,117915.52,1381.04,-0.07,77271.31,1766.24,-0.02,18092.20,1101.11,2.29,39073.11
1568200,1345.93,810.58,1.00,1,1,1,368.04,-0.30,39158.80,319.92,0.75,37483.63,363.85,0.01,63268.93,740.16,0.24,66312.51,1564.51,2.35,29290.77
1584200,1347.79,819.34,1.00,1,1,1,559.67,1.36,43609.97,247.40,1.22,9413.26,281.78,1.96,33501.81,821.56,2.36,85179.17,1776.26,2.38,13551.52
1600300,1348.64,818.05,1.00,1,1,1,95.94,-0.99,39191.61,542.32,2.55,33417.46,970.41,2.52,46448.52,2435.14,2.60,102457.64,1730.91,2.40,3263.34
1616100,1333.47,829.05,1.00,1,1,1,1185.73,2.51,80749.23,1586.99,2.62,66276.74,2430.57,2.66,93413.40,3862.29,2.60,90326.74,1797.95,2.51,12864.70
1648000,1282.86,855.51,1.00,2,2,2,1790.43,2.66,20089.52,3688.17,2.67,65978.66,4646.37,2.63,69526.03,4909.70,2.59,32853.18,1760.06,2.60,5639.28
1664100,1175.42,908.79,1.00,4,4,4,7448.85,2.68,351488.12,9192.72,2.64,342163.16,6744.07,2.62,130399.28,5261.68,2.62,23892.10,1726.95,2.69,9167.12
1680100,1024.55,998.17,1.00,4,4,4,10959.80,2.61,223414.65,11228.28,2.59,130307.50,9794.15,2.60,190890.37,5230.65,2.64,7469.16,1885.25,2.72,10753.13
1696900,861.25,1100.97,1.00,4,4,4,11485.99,2.58,36170.82,10403.93,2.57,51855.65,8805.17,2.61,59029.07,4767.26,2.70,31901.79,1894.45,2.75,3135.11
1712400,742.55,1180.93,1.00,4,4,4,9233.65,2.55,146758.13,6253.34,2.64,270161.12,5961.96,2.65,184650.63,4373.77,2.74,28120.82,1839.91,2.76,3607.88
1728000,691.17,1195.27,1.00,4,4,4,3419.69,2.87,390023.56,1713.20,-3.07,314999.73,2364.96,2.99,244109.32,2690.86,2.79,108388.92,1770.86,2.81,7432.72
1743900,688.74,1176.82,1.00,4,4,4,1170.93,-1.70,236959.47,2328.78,-1.27,200484.24,1711.61,-1.34,214147.81,1386.35,2.94,84216.02,1521.54,2.85,16149.75
1760100,713.56,1123.95,1.00,4,4,4,3604.87,-1.13,166293.03,4015.59,-0.91,123796.88,2428.35,-0.90,70442.21,590.11,-1.91,88269.95,1264.30,2.90,16507.49
1776000,767.86,1075.06,1.00,4,4,4,4595.73,-0.73,119004.86,2660.79,-0.68,97034.12,2467.55,-0.78,17871.22,1142.17,-1.09,53837.59,1057.08,2.98,14341.54
1808000,812.38,1043.46,1.00,2,2,2,1705.91,-0.62,90873.02,1494.03,-0.55,37388.72,1942.17,-0.71,17065.18,1557.94,-0.94,14432.66,648.35,-3.11,13692.90
1824000,828.98,1037.53,1.00,2,2,2,1101.53,-0.34,44451.84,923.65,-0.84,41430.51,846.98,-0.75,68522.78,1955.14,-0.80,28852.74,323.18,-1.90,38430.72
1841500,833.05,1020.44,1.00,2,2,2,1004.38,-1.34,57583.45,379.26,-1.67,41317.73,697.36,-1.08,16529.85,1979.86,-0.69,12618.03,823.60,-0.96,39039.53
1872100,827.23,1019.37,1.00,1,1,1,193.28,-2.96,33755.52,575.02,-1.35,7983.78,1443.46,-0.84,25615.99,1712.45,-0.68,8789.09,1241.73,-0.84,14263.11
1888100,838.86,994.28,1.00,1,1,1,1728.77,-1.14,111691.07,3261.33,-0.71,176448.90,2019.51,-0.67,40264.88,1566.05,-0.67,9151.42,1262.42,-0.83,1331.13
1904000,906.33,951.79,1.00,1,1,1,5014.55,-0.56,231808.18,4280.17,-0.55,74277.97,3015.51,-0.64,62767.16,1452.85,-0.66,7316.36,1111.26,-0.91,11218.34
1921000,959.13,921.03,1.00,1,1,1,3594.52,-0.53,83972.30,2786.72,-0.57,87940.83,2744.89,-0.55,22494.53,1396.75,-0.61,5341.95,814.87,-1.05,19150.80
1936200,982.03,903.62,1.00,1,1,1,1892.88,-0.65,113898.13,1120.76,-0.55,109615.05,1529.14,-0.44,81269.72,1426.97,-0.61,2165.36,545.40,-1.33,21328.83
1952100,988.79,902.74,1.00,1,1,1,428.91,-0.13,96570.59,449.34,0.46,60546.97,635.90,-0.35,56441.38,960.10,-0.64,29442.77,484.78,-1.52,7457.06
1968000,994.82,910.00,1.00,1,1,1,593.46,0.88,32357.19,284.30,0.51,10433.74,167.17,-0.21,29632.59,304.24,-1.82,55921.17,468.43,-1.59,2342.47
1984000,996.71,907.16,1.00,1,1,1,213.10,-0.98,42847.12,189.76,-1.54,25504.19,505.44,2.93,42037.90,865.99,-3.04,50803.33,387.53,-1.69,5688.24
2016100,995.10,900.88,1.00,2,2,2,202.12,-1.82,5273.77,990.86,3.05,32108.46,1240.77,-3.13,23543.32,1072.38,3.13,7258.42,419.83,-1.50,2625.13
2032000,949.33,911.31,1.00,3,3,3,2952.70,2.92,185808.23,3125.83,3.06,134275.54,2008.51,3.13,48308.74,1060.57,-3.10,3412.39,317.24,-1.56,6595.81
2048100,895.44,909.33,1.00,1,1,1,3349.82,-3.10,56498.36,3536.77,-3.12,34051.88,2302.79,3.12,18415.25,1061.70,-3.05,3220.88,283.22,-2.40,15284.09
2064100,835.83,908.51,1.00,1,1,1,3725.37,-3.13,24025.71,1765.45,-3.10,110751.41,1635.15,-3.03,45082.28,1111.95,-3.12,5698.87,269.50,-2.69,5045.29
2096400,810.25,905.53,1.00,1,1,1,797.51,-3.03,90810.62,430.72,-2.50,44238.65,891.86,-2.94,23226.68,1106.58,-3.13,225.17,218.14,-2.58,1789.85
2112100,819.23,896.20,1.00,1,1,1,825.02,-0.80,92590.76,585.96,-0.59,53160.92,220.02,-2.89,42821.36,686.76,-3.02,27434.26,144.21,-1.77,10070.36
2128000,825.60,895.17,1.00,1,1,1,405.49,-0.16,35031.02,247.22,1.62,47843.11,416.62,-0.26,38863.35,342.31,-2.85,22289.43,246.72,-0.86,12222.61
2144000,818.83,904.07,1.00,1,1,1,699.03,2.22,64460.11,341.02,0.34,22474.68,259.52,0.07,11922.99,299.31,-0.50,36960.19,308.94,-0.53,6864.87
2160000,835.88,898.82,1.00,1,1,1,1115.45,-0.30,108263.04,456.84,-0.29,16929.63,218.97,-0.10,3658.75,749.09,-0.34,28546.55,341.58,-0.36,3945.46
2192400,840.01,897.75,1.00,1,1,1,131.71,-0.25,30366.92,187.05,-0.65,8931.85,692.88,-0.32,14857.84,1024.44,-0.24,8896.54,506.79,-0.27,5226.78
2208100,843.04,893.37,1.00,2,2,2,339.12,-0.97,16207.33,933.21,-0.34,48253.62,970.46,-0.36,17786.58,1405.04,-0.20,24401.78,626.15,-0.21,7942.45
2240000,881.96,883.13,1.00,1,1,1,1261.50,-0.26,32222.37,1765.96,-0.33,26107.04,1796.92,-0.28,26097.23,1669.86,-0.18,8386.73,794.10,-0.18,5316.68
2256000,923.15,866.21,1.00,1,1,1,2783.30,-0.39,96367.98,3030.58,-0.26,79658.73,2589.31,-0.21,50470.40,1616.24,-0.14,5395.44,892.65,-0.17,6168.61
2273400,979.82,857.28,1.00,1,1,1,3297.18,-0.16,50166.38,3836.67,-0.13,52708.45,3147.28,-0.13,34673.01,1803.81,-0.11,11084.58,817.94,-0.17,4297.80
2288400,1046.41,850.11,1.00,1,1,1,4464.95,-0.11,78855.85,3328.83,-0.00,45637.64,2640.30,-0.01,40454.65,1559.39,-0.10,16304.32,795.96,-0.18,1541.53
2304100,1082.02,857.14,1.00,1,1,1,2311.67,0.19,150356.32,1511.07,0.29,123168.82,1889.89,0.10,50621.54,1420.44,-0.09,8894.44,854.52,-0.20,3981.99
2320000,1092.12,863.94,1.00,1,1,1,765.58,0.59,102699.12,624.62,0.67,60258.76,604.88,0.37,82732.78,1071.54,-0.04,22300.48,812.67,-0.20,2641.10
2336100,1097.68,869.56,1.00,1,1,1,491.22,0.79,18625.08,74.44,1.74,36798.26,98.11,1.00,32841.26,593.01,-0.03,29732.55,840.92,-0.18,1917.35
2368300,1091.51,867.48,1.00,1,1,1,202.16,-2.82,21054.31,263.88,-2.67,9151.93,191.59,-2.85,8501.53,122.91,0.16,14681.56,792.00,-0.14,1821.53
2384500,1086.30,863.77,1.00,1,1,1,395.20,-2.52,12971.60,508.91,-2.63,15156.90,455.49,-2.73,16441.83,70.67,-2.60,11745.43,696.04,-0.10,6258.89
2400100,1077.42,859.53,1.00,1,1,1,630.76,-2.70,16093.17,750.93,-2.76,16358.72,491.13,-2.66,3163.71,135.17,-2.36,4407.83,597.31,-0.04,6754.95
2416000,1064.35,854.94,1.00,1,1,1,870.90,-2.80,15901.21,473.82,-2.69,17642.58,277.13,-2.40,14692.70,175.07,-2.46,2708.62,486.11,-0.03,7012.46
2432000,1063.84,852.88,1.00,1,1,1,132.42,-1.81,50363.14,295.44,-0.33,44644.40,147.05,-1.47,13915.55,185.37,-2.85,4446.02,356.89,-0.01,8082.47
2448000,1073.31,851.90,1.00,1,1,1,594.57,-0.10,39179.16,456.65,-0.19,10575.94,214.15,-0.09,14737.54,125.17,3.10,4860.31,265.06,-0.16,6358.72
2464300,1078.34,850.14,1.00,1,1,1,326.96,-0.34,17584.16,157.21,0.36,20378.97,145.23,1.01,12094.84,63.04,-0.02,11546.22,202.79,-0.21,3888.40
2480300,1078.07,853.67,1.00,1,1,1,221.42,1.65,28918.99,449.15,2.30,32966.49,200.12,1.80,8922.03,380.47,-0.03,19839.98,144.30,-0.32,3847.24
2496100,1068.80,860.76,1.00,1,1,1,738.90,2.49,38852.51,415.90,2.20,3590.39,183.13,0.91,10505.04,591.28,-0.05,13361.57,174.15,-0.27,1944.84
2512000,1070.35,864.36,1.00,2,2,2,246.33,1.16,45280.43,524.81,-0.08,53833.72,514.66,-0.00,26951.97,553.42,-0.08,2662.82,207.22,-0.16,2469.22
2528000,1085.48,859.36,1.00,3,3,3,995.75,-0.32,62766.15,1036.86,-0.22,32598.99,1010.13,-0.15,31657.78,464.01,0.01,6387.29,268.41,-0.09,3973.89
2560300,1119.24,853.50,1.00,1,1,1,1060.86,-0.17,5094.12,1328.98,-0.17,9233.53,971.75,-0.21,2292.46,383.66,0.03,2500.75,330.25,-0.04,1977.21
2576700,1149.29,848.58,1.00,1,1,1,1857.08,-0.16,48556.50,905.98,-0.21,25942.34,702.61,-0.12,17062.95,445.58,-0.10,5004.36,194.24,0.17,8893.40
2608100,1161.60,844.51,1.00,1,1,1,412.80,-0.32,46203.26,86.33,0.69,27237.45,253.30,0.11,14645.42,447.31,-0.14,587.02,108.06,2.13,8141.06
2624000,1152.43,851.19,1.00,1,1,1,713.53,2.51,70047.45,782.70,2.68,51629.99,137.52,2.63,23514.60,417.77,-0.10,2156.86,320.68,2.71,14963.42
2640000,1139.30,855.74,1.00,1,1,1,868.51,2.81,17449.55,403.75,2.93,25333.42,200.24,2.54,4033.04,284.91,-0.05,8370.54,466.16,2.85,9627.25
2656100,1139.76,853.89,1.00,1,1,1,118.27,-1.33,58263.49,194.07,-0.24,37128.77,78.86,0.16,16334.12,193.41,2.66,29026.01,440.57,2.95,3473.58
2688100,1148.38,853.55,1.00,1,1,1,269.58,-0.04,8208.69,396.15,-0.09,6444.58,322.12,-0.17,7782.61,774.75,2.82,18276.37,368.13,3.00,2344.97
2704000,1158.66,852.21,1.00,2,2,2,652.09,-0.13,24172.73,516.13,-0.14,7673.15,248.94,2.67,35516.49,1162.52,2.90,24897.44,391.00,3.02,1510.35
2720000,1164.68,851.29,1.00,2,2,2,381.09,-0.15,16952.11,1189.07,2.86,106326.45,1505.24,2.87,78886.00,1391.18,2.94,14638.58,491.68,2.99,6340.69
2736100,1122.04,862.99,1.00,1,1,1,2746.52,2.87,194121.48,3516.11,2.89,144590.10,2706.74,2.92,74916.00,1423.18,2.99,4163.75,660.09,3.02,10499.78
2752000,1055.82,879.70,1.00,1,1,1,4295.74,2.89,97535.53,4236.99,2.94,46941.53,3526.05,2.95,51823.49,1489.99,3.00,4497.04,887.29,3.02,14290.03
2768000,989.72,890.53,1.00,1,1,1,4186.23,2.98,23523.41,3548.68,3.01,46269.79,2906.01,3.02,41390.54,1380.12,3.03,7282.26,1026.44,3.03,8723.95
2784200,942.59,895.07,1.00,1,1,1,2922.76,3.05,79291.65,1639.56,-3.05,122598.52,1503.07,3.14,87998.94,1351.15,3.02,2115.59,1391.18,2.94,23477.94
2800200,937.15,885.64,1.00,1,1,1,680.05,-2.09,169535.31,714.08,-0.74,136655.07,410.43,-2.62,72838.89,1192.10,3.08,11255.91,1423.18,2.99,4189.77
2816100,959.47,879.78,1.00,1,1,1,1451.48,-0.26,110530.46,559.92,-0.44,15126.73,437.26,-0.60,45208.06,1027.36,-3.11,12154.28,1489.99,3.00,4497.04
2847900,961.28,874.19,1.00,1,1,1,184.50,-1.26,42789.41,266.18,-0.35,9311.03,228.22,-0.77,6790.98,922.86,-3.10,3293.35,1380.12,3.03,3664.03
2864100,971.49,875.44,1.00,1,1,1,634.75,0.12,38654.79,339.83,-3.03,36428.75,648.23,-3.04,50301.00,437.26,-0.60,80283.32,1351.15,3.02,2115.59
2880400,950.31,872.92,1.00,2,2,2,1308.42,-3.02,119212.38,1988.57,-3.13,101287.25,1492.47,3.05,52966.55,228.22,-0.77,13248.66,1192.10,3.08,11048.74
2896100,907.86,874.74,1.00,2,2,2,2706.43,3.10,91108.15,2284.66,3.03,24742.72,1988.57,-3.13,33364.67,648.23,-3.04,51902.94,1027.36,-3.11,12309.11
2928000,842.18,884.54,1.00,1,1,1,2081.59,2.99,21098.02,2081.59,2.99,6958.80,2284.66,3.03,12177.45,1492.47,3.05,27064.41,922.86,-3.10,3283.03
