@RELATION gaze_labels

%@METADATA width_px 1920
%@METADATA height_px 1080
%@METADATA width_mm 540.00
%@METADATA height_mm 254.00
%@METADATA distance_mm 620.00


@ATTRIBUTE time INTEGER
@ATTRIBUTE x NUMERIC
@ATTRIBUTE y NUMERIC
@ATTRIBUTE confidence NUMERIC
@ATTRIBUTE handlabeller1 INTEGER
@ATTRIBUTE handlabeller2 INTEGER
@ATTRIBUTE handlabeller_final INTEGER
@ATTRIBUTE speed_1 numeric
@ATTRIBUTE direction_1 numeric
@ATTRIBUTE acceleration_1 numeric
@ATTRIBUTE speed_2 numeric
@ATTRIBUTE direction_2 numeric
@ATTRIBUTE acceleration_2 numeric
@ATTRIBUTE speed_4 numeric
@ATTRIBUTE direction_4 numeric
@ATTRIBUTE acceleration_4 numeric
@ATTRIBUTE speed_8 numeric
@ATTRIBUTE direction_8 numeric
@ATTRIBUTE acceleration_8 numeric
@ATTRIBUTE speed_16 numeric
@ATTRIBUTE direction_16 numeric
@ATTRIBUTE acceleration_16 numeric

%The number after speed, direction denotes the step size that was used for the calculation.
%Acceleration was calculated between two adjacent samples of the already low pass filtered velocity

@DATA
0,648.99,894.03,1.00,2,2,2,0.00,0.00,0.00,986.31,3.10,0.00,489.20,-0.58,0.00,1302.57,-0.30,0.00,763.98,-0.23,0.00
15900,633.32,894.65,1.00,3,3,3,986.31,3.10,62032.29,489.20,-0.58,89842.42,2526.73,-0.27,129896.60,1572.57,-0.20,19238.19,769.24,-0.22,482.31
32100,662.15,885.45,1.00,1,1,1,1867.60,-0.31,174724.41,2526.73,-0.27,127491.10,1302.57,-0.30,75609.35,1103.81,-0.11,29765.58,668.33,-0.22,6229.02
47900,711.19,872.87,1.00,1,1,1,3204.53,-0.25,85084.88,1860.50,-0.25,42315.28,1572.57,-0.20,19359.96,533.03,0.08,37302.37,232.37,-0.11,27729.45
80200,748.93,863.59,1.00,1,1,1,1203.08,-0.24,61967.22,950.51,-0.06,29226.96,1103.81,-0.11,14928.87,763.98,-0.23,9391.03,393.68,2.65,19047.80
95900,756.74,870.25,1.00,1,1,1,653.76,0.71,62262.11,387.19,1.51,65236.03,533.03,0.08,37539.96,769.24,-0.22,488.46,913.17,2.78,33448.62
111900,749.71,875.84,1.00,1,1,1,561.72,2.47,58768.29,212.90,2.02,14249.60,146.10,0.65,26050.81,668.33,-0.22,6306.88,1223.11,2.82,19575.42
128000,753.74,876.39,1.00,1,1,1,252.99,0.13,47147.42,290.72,-0.78,30846.81,49.10,-2.46,12122.70,232.37,-0.11,27212.75,1505.06,2.83,17564.54
144300,756.41,869.22,1.00,1,1,1,469.04,-1.21,29541.95,178.71,-1.58,12880.98,269.60,-0.69,17406.32,393.68,2.65,37745.02,449.42,2.71,65052.66
176200,753.67,867.78,1.00,1,1,1,97.15,-2.66,14624.12,256.69,-0.62,6678.24,117.86,-2.21,9047.74,913.17,2.78,16462.17,357.43,2.62,3116.39
191900,766.37,862.16,1.00,2,2,2,884.93,-0.42,60393.93,177.19,2.96,27017.33,766.84,2.79,47316.12,1223.11,2.82,19949.48,552.39,2.52,12712.97
207900,748.15,868.81,1.00,2,2,2,1212.75,2.79,131034.94,2273.77,2.74,131306.78,2033.89,2.75,79245.08,1505.06,2.83,17674.32,832.76,2.39,18350.94
224000,699.10,890.48,1.00,3,3,3,3330.11,2.73,131768.37,3877.11,2.74,99588.52,2699.90,2.78,41651.91,1538.68,2.80,3613.10,1169.95,2.32,21371.94
239900,633.98,917.37,1.00,3,3,3,4431.56,2.75,69523.78,2987.22,2.80,57553.99,2972.38,2.80,17320.52,1463.58,2.78,5370.48,1312.55,2.31,9070.70
271900,564.18,938.11,1.00,0,0,0,2275.47,2.85,68142.96,2377.94,2.86,19601.61,2308.71,2.81,20761.72,1731.10,2.67,9826.59,1275.30,2.36,2370.13
287900,524.39,949.29,1.00,0,0,0,2583.08,2.87,19360.91,1293.39,2.83,67864.45,1090.49,2.81,76138.43,1857.24,2.47,24110.18,1025.39,2.46,17391.07
303900,524.81,950.88,1.00,0,0,0,102.59,1.31,161465.77,201.77,0.28,91574.99,843.51,2.32,33070.73,1889.69,2.26,23885.31,889.44,2.65,14039.66
337000,533.92,952.01,1.00,4,4,4,277.29,0.12,7775.80,777.82,1.75,23709.75,1315.37,1.65,25164.50,1799.31,2.10,9617.62,831.70,2.83,4894.35
352900,517.88,988.35,1.00,4,4,4,2498.60,1.99,163022.33,3357.45,1.75,162242.58,2162.22,1.68,53346.79,1593.43,1.97,18920.74,896.83,2.93,6983.41
367900,515.89,1054.18,1.00,4,4,4,4390.07,1.60,151834.37,4354.73,1.66,70005.35,3477.39,1.78,89474.40,844.65,1.77,52236.88,912.67,2.93,1056.44
383900,505.93,1122.82,1.00,4,4,4,4335.30,1.71,31241.63,3596.45,1.81,59791.72,2647.74,1.83,52773.56,346.61,1.93,31571.83,791.81,2.94,7584.45
399900,488.96,1166.07,1.00,4,4,4,2903.40,1.94,102915.31,1274.00,2.42,166383.81,416.00,2.15,141031.40,150.57,-2.84,23154.28,519.48,2.88,17248.09
415900,475.20,1149.61,1.00,4,4,4,1341.07,-2.27,233554.04,1733.45,-1.47,175172.78,1499.37,-1.57,116322.15,502.20,-1.83,27554.35,239.91,2.68,18020.62
448500,497.58,1082.26,1.00,4,4,4,2176.94,-1.25,57134.95,3121.64,-1.37,43191.74,2772.55,-1.46,39695.27,926.68,-1.87,13045.85,91.86,2.19,5044.20
463900,505.52,1002.87,1.00,2,2,2,5181.04,-1.47,200922.55,4380.97,-1.46,84503.75,2890.14,-1.47,7708.21,1319.84,-1.80,26028.96,101.53,2.37,1275.78
479900,513.37,945.61,1.00,2,2,2,3612.29,-1.43,98543.63,2609.76,-1.64,117566.62,2474.50,-1.70,47429.99,1429.60,-1.61,17660.99,141.00,2.68,3395.57
496200,499.41,918.80,1.00,2,2,2,1854.56,-2.05,144590.42,1288.60,-2.66,136416.49,1215.87,-2.15,90271.26,1126.72,-1.44,22816.69,102.57,-2.51,8058.87
512000,476.67,926.53,1.00,2,2,2,1520.14,2.81,140025.54,1286.54,2.67,74903.53,537.67,2.75,78350.79,772.66,-1.47,22511.30,282.62,-1.78,13722.19
528000,463.04,937.53,1.00,2,2,2,1094.81,2.46,38734.70,1001.38,1.43,83932.69,653.96,1.58,41505.70,211.77,-1.66,35369.74,480.61,-1.55,13433.54
544800,481.17,959.06,1.00,3,3,3,1675.83,0.87,120290.02,1025.06,0.75,40560.92,694.15,0.96,24328.96,201.65,2.14,23284.63,619.00,-1.44,9008.54
575900,499.04,970.92,1.00,1,1,1,689.40,0.59,33203.52,638.55,0.45,14661.44,662.54,0.72,5383.38,322.29,1.70,5287.28,586.07,-1.35,1984.22
591800,508.23,972.05,1.00,1,1,1,582.33,0.12,19474.12,126.92,0.40,32189.07,251.20,0.59,26099.98,303.67,1.12,11367.81,402.08,-1.43,11831.32
607900,502.78,972.50,1.00,1,1,1,339.53,3.06,56979.39,333.22,-2.95,28450.71,78.14,-2.98,20130.60,315.45,0.60,9746.94,137.26,-1.34,16500.33
623900,497.72,970.07,1.00,1,1,1,350.98,-2.69,11308.07,213.17,-2.88,7596.94,129.54,-2.96,3214.67,200.96,0.31,8545.89,48.82,1.41,11464.30
656000,492.87,969.88,1.00,1,1,1,151.25,-3.10,6872.12,6.68,0.21,6848.56,71.40,-0.53,5899.67,107.32,-0.27,3902.94,153.31,1.20,3306.27
671900,498.03,970.14,1.00,1,1,1,325.23,0.05,29966.68,331.07,-0.05,20417.02,177.21,-0.02,7531.94,76.13,-1.06,4816.67,173.02,1.05,1938.50
703900,508.70,969.05,1.00,1,1,1,335.21,-0.10,1581.29,347.93,-0.03,587.75,287.41,-0.15,3563.99,99.28,-0.71,1204.49,175.43,0.54,2756.58
719900,514.73,969.67,1.00,1,1,1,378.39,0.10,5272.65,230.42,-0.37,9515.61,229.19,-0.50,6568.32,127.76,-0.50,2307.51,362.00,-0.21,16419.47
736100,515.62,966.36,1.00,1,1,1,211.76,-1.31,24879.65,258.90,-1.64,17951.90,143.88,-0.84,6508.78,172.15,-0.32,3205.32,735.76,-0.33,23361.39
751900,514.16,961.40,1.00,1,1,1,326.82,-1.86,11607.30,132.53,-1.74,8090.70,146.54,-1.46,5657.89,36.07,0.40,9298.44,986.61,-0.32,15886.96
768200,514.88,962.17,1.00,1,1,1,64.68,0.81,23646.76,59.50,-0.62,7336.77,66.59,-1.37,4937.44,32.50,-1.55,3485.50,1197.84,-0.29,13122.96
784300,515.73,960.28,1.00,1,1,1,127.96,-1.15,10168.90,49.36,0.00,2159.28,243.95,2.38,18689.90,633.08,-0.43,38483.69,1183.27,-0.23,3908.67
800200,516.46,962.17,1.00,1,1,1,127.48,1.20,14817.90,553.57,2.40,37150.71,104.72,2.72,9389.45,1523.79,-0.33,56335.11,1115.04,-0.20,4910.08
816000,502.82,972.17,1.00,1,1,1,1070.81,2.51,66165.18,256.64,2.80,21085.15,1204.28,-0.32,82819.14,2022.19,-0.29,31930.21,1041.85,-0.21,4641.63
831900,508.80,964.89,1.00,2,2,2,592.56,-0.88,103860.92,2906.48,-0.40,198911.50,3023.67,-0.31,114432.42,2422.32,-0.27,25335.56,1191.06,-0.22,9412.44
848000,588.46,935.90,1.00,2,2,2,5265.49,-0.35,295965.04,6273.13,-0.31,210336.66,3819.92,-0.31,49458.99,2367.48,-0.22,7990.95,1457.08,-0.24,16662.51
863900,699.66,902.70,1.00,3,3,3,7298.78,-0.29,129919.14,4441.16,-0.27,116062.10,4401.35,-0.27,38098.98,2062.43,-0.19,19546.37,1662.18,-0.25,12941.64
895900,793.32,878.57,1.00,1,1,1,3022.47,-0.25,133750.91,3195.67,-0.21,39550.74,3301.61,-0.19,35721.89,2055.60,-0.22,1554.28,1927.54,-0.22,8463.56
913200,853.64,869.37,1.00,1,1,1,3527.00,-0.15,34812.08,1713.98,0.15,98282.74,1347.19,0.03,115982.56,2243.13,-0.20,10943.92,2051.52,-0.21,7433.80
927900,847.59,886.50,1.00,1,1,1,1235.95,1.91,289225.69,1914.69,2.48,226923.22,473.44,1.62,97876.13,2202.92,-0.19,3040.55,1903.06,-0.19,10322.90
943900,807.40,905.66,1.00,1,1,1,2782.90,2.70,131317.01,1879.26,2.76,33733.16,662.26,2.33,26895.49,1778.89,-0.20,26506.00,1855.27,-0.19,3017.86
959900,791.76,908.83,1.00,1,1,1,997.50,2.94,114437.29,586.03,-0.33,154047.03,831.79,-0.23,89438.48,1842.02,-0.15,6701.27,1870.65,-0.21,3050.09
975900,825.13,899.56,1.00,1,1,1,2164.95,-0.27,197546.60,3532.48,-0.31,184164.29,2261.95,-0.33,89833.10,1686.54,-0.12,10464.88,1743.73,-0.21,7934.12
991900,899.46,874.52,1.00,2,2,2,4902.19,-0.32,171429.11,3367.71,-0.33,11459.09,3412.03,-0.26,72957.58,1488.41,-0.15,12801.41,1511.29,-0.18,14869.44
1024400,979.56,846.36,1.00,3,3,3,2612.38,-0.34,70470.32,3336.49,-0.23,11011.72,3419.99,-0.21,4901.36,1669.29,-0.18,5768.47,1192.50,-0.13,10067.87
1039900,1055.56,838.73,1.00,1,1,1,4928.18,-0.10,159195.78,3589.05,-0.04,44025.10,1928.36,-0.13,97318.96,1705.17,-0.21,3660.76,973.72,-0.08,14552.10
1056000,1092.87,841.61,1.00,1,1,1,2324.25,0.08,165949.36,631.20,0.43,188809.66,1149.30,0.13,53716.63,1335.54,-0.22,23028.52,762.42,-0.03,13320.62
1087900,1083.12,851.32,1.00,1,1,1,431.23,2.36,82319.00,583.71,2.52,32938.34,183.82,1.26,33960.72,946.28,-0.16,12444.18,771.97,-0.13,2444.89
1103900,1070.19,857.96,1.00,1,1,1,908.74,2.67,32180.70,701.31,3.07,23203.13,404.84,3.00,29531.29,620.69,0.08,23330.56,1068.40,-0.19,18774.57
1120700,1060.17,852.85,1.00,1,1,1,669.15,-2.67,44611.24,397.76,-2.54,27397.26,241.27,-3.01,11011.96,232.78,0.49,24837.78,1336.14,-0.17,15978.99
1152000,1054.41,847.15,1.00,1,1,1,259.27,-2.36,13720.64,119.20,-0.82,13790.21,108.75,-0.40,10848.36,136.49,1.97,8256.66,1419.23,-0.14,2992.68
1167900,1064.00,848.73,1.00,1,1,1,611.47,0.16,52611.70,782.17,0.30,46468.44,359.39,0.12,16994.55,33.41,2.21,6565.15,1383.88,-0.10,3990.63
1183900,1078.22,854.60,1.00,1,1,1,961.50,0.39,24449.39,800.51,0.30,1159.62,521.37,0.45,13517.78,400.59,-0.22,26659.13,1261.38,-0.02,10134.40
1199800,1088.39,856.27,1.00,1,1,1,648.69,0.16,22717.76,295.20,0.86,35930.09,272.80,0.38,15735.00,926.08,-0.10,33386.85,942.70,0.01,20167.85
1216100,1084.45,861.78,1.00,2,2,2,415.40,2.19,55962.82,255.18,-3.01,31601.60,768.34,-0.19,34277.17,1533.81,-0.05,37469.60,773.88,-0.01,10401.38
1232000,1080.25,855.18,1.00,2,2,2,491.90,-2.14,47355.70,1423.23,-0.38,103810.72,1635.71,-0.16,54604.96,1921.34,-0.07,24476.89,782.78,-0.06,2588.08
1247800,1126.40,845.16,1.00,2,2,2,2988.69,-0.21,202051.05,3516.52,-0.14,136712.50,2407.29,-0.13,48945.14,1975.14,-0.06,3707.97,642.71,-0.08,8931.90
1264200,1192.40,839.55,1.00,1,1,1,4039.05,-0.08,69634.35,3091.94,-0.06,30333.48,3266.88,-0.10,52734.93,1761.37,-0.06,13036.40,236.09,0.19,25644.58
1295900,1274.85,836.27,1.00,1,1,1,2603.13,-0.04,45529.55,3101.58,-0.07,959.95,2942.23,-0.03,12262.06,1607.79,-0.09,5085.84,299.04,2.47,15350.54
1311900,1339.99,829.33,1.00,1,1,1,4094.15,-0.11,94164.42,2724.03,0.02,28611.88,1874.20,0.02,67086.93,1442.17,-0.07,10415.37,739.74,2.78,28962.83
1328100,1362.55,838.02,1.00,1,1,1,1492.16,0.37,175851.05,394.65,1.37,164612.59,820.91,0.05,65082.45,845.03,-0.03,36985.26,950.68,2.90,14449.76
1344300,1342.50,841.87,1.00,1,1,1,1259.93,2.95,163375.76,464.13,3.06,39748.36,103.94,2.33,55072.33,319.01,2.66,70389.81,925.19,2.97,4563.38
1375900,1340.43,839.77,1.00,1,1,1,93.37,-2.35,38309.09,170.31,-2.63,10661.23,912.86,3.11,26638.03,1723.45,2.91,44825.88,796.10,3.04,4516.55
1407800,1333.10,836.53,1.00,2,2,2,251.29,-2.73,5267.08,1360.39,3.13,38141.16,1834.12,3.01,29137.98,2868.42,2.93,35942.99,774.36,3.05,734.51
1423900,1275.14,840.82,1.00,2,2,2,3609.58,3.07,210548.86,4041.10,2.98,167821.75,3816.27,2.96,123455.60,3336.09,2.99,30728.69,892.49,3.04,7371.19
1456700,1138.02,868.09,1.00,1,1,1,4262.29,2.95,24700.43,6284.89,2.92,69002.01,6143.13,2.95,70963.26,3130.90,3.02,7220.30,1037.76,3.06,4461.36
1472100,979.46,906.69,1.00,1,1,1,10597.17,2.90,411772.89,9302.30,2.92,195936.32,6247.51,2.97,10384.45,2977.41,3.05,11136.64,1377.73,3.06,22076.53
1489300,841.96,933.73,1.00,1,1,1,8147.30,2.95,144458.23,6213.55,3.03,185908.97,5437.44,3.03,51814.99,3206.65,3.06,13492.17,1659.36,3.01,16799.51
1503900,783.05,928.24,1.00,1,1,1,4052.49,-3.05,302215.93,1730.45,-2.60,338819.60,2029.18,-3.03,238984.59,2800.81,3.06,27805.11,1893.85,3.01,16092.38
1519900,796.53,906.52,1.00,1,1,1,1598.21,-1.02,310990.29,1107.66,-0.85,138724.29,754.32,-1.93,113414.34,2044.55,3.14,48605.82,1954.23,3.01,3828.25
1552000,818.37,888.36,1.00,1,1,1,884.75,-0.69,25189.70,779.85,-0.86,10217.47,860.26,-0.86,25703.37,1028.02,-2.92,33236.89,2072.42,3.02,3734.42
1568000,821.08,878.16,1.00,1,1,1,659.67,-1.31,32216.63,490.80,-0.93,18269.02,770.77,-0.66,11806.98,405.16,-2.60,40989.39,2074.29,3.04,2453.19
1584100,827.81,875.75,1.00,1,1,1,444.11,-0.34,34006.67,813.27,-0.37,29387.01,331.85,-0.73,27358.21,317.71,-3.07,11682.15,1821.23,3.06,15925.60
1599900,845.25,868.71,1.00,1,1,1,1189.70,-0.38,47225.71,207.09,-0.27,38464.98,511.64,2.56,53237.36,664.70,2.94,23339.14,1511.87,3.07,19629.66
1616800,834.35,873.97,1.00,2,2,2,715.87,2.69,112698.65,1383.21,2.64,93810.41,1342.17,2.67,49428.20,972.63,2.91,18268.71,1058.89,3.10,26852.70
1648000,786.85,900.60,1.00,3,3,3,1745.28,2.63,33067.90,2412.64,2.68,33076.28,2048.73,2.77,23320.58,837.56,2.95,4456.23,777.64,3.11,9029.61
1664000,732.32,924.54,1.00,1,1,1,3722.41,2.73,124539.77,3082.76,2.86,52097.50,2010.27,2.85,9771.55,730.02,3.05,8220.97,651.62,3.04,8600.87
1679900,692.29,927.60,1.00,1,1,1,2524.67,3.07,99320.75,1581.73,-3.05,107305.16,1299.12,3.13,53162.96,995.81,2.94,17686.37,768.51,2.95,8291.76
1696000,681.91,919.92,1.00,1,1,1,801.76,-2.50,123515.34,804.02,-1.26,119706.98,625.56,-1.80,81621.75,1147.28,2.88,10259.47,866.25,2.92,6214.04
1714200,700.85,901.38,1.00,1,1,1,1456.38,-0.77,97279.85,1685.67,-0.69,60067.07,508.21,-1.18,19884.57,1281.76,2.92,8004.33,833.12,2.89,2399.85
1727900,723.30,885.60,1.00,1,1,1,2003.13,-0.61,44699.54,183.36,-0.80,109745.45,298.55,3.08,50609.21,991.35,2.98,21666.78,837.73,2.90,542.02
1744000,704.66,897.46,1.00,2,2,2,1372.57,2.57,209616.68,1550.37,2.64,107236.86,1310.91,2.75,64138.83,872.22,2.96,7523.31,886.33,2.90,3018.99
1775900,658.11,921.48,1.00,3,3,3,1642.10,2.67,9459.03,2231.62,2.73,21997.87,1672.08,2.73,11359.01,770.52,2.93,3235.69,852.06,2.90,1074.89
1791900,606.74,940.34,1.00,1,1,1,3419.97,2.79,112639.62,1804.01,2.81,28450.02,1663.03,2.78,5668.08,831.78,2.83,6328.81,724.30,2.96,8510.81
1824500,575.30,950.30,1.00,1,1,1,1011.53,2.83,73922.45,1107.93,2.89,21678.30,1245.63,2.90,13794.94,947.12,2.79,3705.50,557.66,3.03,5309.79
1840100,554.98,953.47,1.00,1,1,1,1318.82,2.99,22696.85,471.63,-2.80,48898.84,385.44,3.11,55951.62,790.04,2.85,10577.15,426.80,3.05,8410.44
1855900,561.35,945.33,1.00,1,1,1,654.24,-0.91,117188.44,766.87,-0.53,71491.27,221.67,-1.16,32883.94,527.06,2.94,17045.21,342.65,3.07,5349.59
1871800,575.95,941.18,1.00,1,1,1,954.60,-0.28,36090.83,658.95,-0.39,9362.72,522.09,-0.61,22159.00,173.65,-3.09,22750.03,402.48,3.00,4138.92
1887900,580.89,937.41,1.00,1,1,1,386.25,-0.65,38011.41,298.04,-0.82,25380.45,372.55,-0.37,11387.53,65.52,-1.88,10077.34,462.19,2.91,4380.41
1905100,582.72,933.92,1.00,1,1,1,228.75,-1.09,11825.26,88.37,-0.28,13194.61,96.37,-0.37,16057.57,163.40,-0.78,8501.58,384.92,2.94,4562.97
1920100,583.63,936.62,1.00,1,1,1,190.16,1.24,25702.87,165.58,1.76,14684.55,148.76,2.60,16279.35,168.85,-0.83,700.50,336.97,2.98,3331.89
1936100,581.74,938.96,1.00,1,1,1,187.92,2.25,11398.08,386.43,2.66,19421.98,218.82,2.77,4821.80,158.07,-1.36,5403.85,116.06,-2.90,14657.42
1951900,572.76,942.35,1.00,1,1,1,607.48,2.78,28809.30,372.59,-3.13,11782.42,136.24,-2.13,14867.69,140.95,-1.29,1269.99,314.36,-0.57,25504.72
1967900,569.89,938.85,1.00,1,1,1,282.99,-2.26,36407.36,326.42,-1.24,35418.83,251.61,-1.62,9244.29,106.20,-1.07,2747.49,679.60,-0.42,23239.47
2000500,577.84,927.32,1.00,1,1,1,429.50,-0.97,13623.31,472.59,-1.07,4932.30,350.36,-1.06,5902.64,148.19,3.13,6774.59,933.22,-0.36,7915.39
2015900,580.70,918.91,1.00,1,1,1,577.26,-1.24,13087.96,406.79,-0.83,8196.33,339.29,-0.74,7217.02,72.80,-2.49,6582.04,1053.59,-0.32,8276.44
2032000,586.51,917.89,1.00,1,1,1,366.28,-0.17,31921.83,295.34,0.18,21942.36,288.31,2.59,38823.14,553.23,-0.48,36516.49,882.74,-0.25,11397.33
2047900,589.99,920.61,1.00,1,1,1,278.43,0.66,17243.14,968.11,2.47,74470.64,192.31,2.14,8958.73,1062.76,-0.38,32395.03,779.34,-0.20,7081.78
2063800,562.34,936.95,1.00,1,1,1,2020.37,2.61,134448.46,433.76,2.57,33828.97,835.24,-0.25,61894.70,1644.46,-0.32,36958.51,806.81,-0.26,3398.03
2096000,572.46,931.92,1.00,2,2,2,351.11,-0.46,73624.03,1987.25,-0.38,74984.84,1686.54,-0.33,26580.59,1933.27,-0.26,9640.19,72.80,-2.49,26512.57
2112000,651.23,901.27,1.00,2,2,2,5282.49,-0.37,308306.10,3808.40,-0.35,113922.43,2912.66,-0.34,76645.24,1550.23,-0.19,25114.68,553.23,-0.48,36744.72
2143800,743.22,868.83,1.00,1,1,1,3067.46,-0.34,69773.35,3847.04,-0.31,5156.13,4009.44,-0.29,34847.25,1356.59,-0.15,6332.41,1062.76,-0.38,16197.51
2159900,826.59,844.66,1.00,1,1,1,5391.45,-0.28,145058.14,4333.69,-0.21,40465.22,2147.97,-0.17,117796.09,1582.44,-0.24,16200.62,1644.46,-0.32,36499.40
2176100,880.24,840.18,1.00,1,1,1,3323.01,-0.08,137823.47,747.56,0.68,240906.49,1056.08,0.19,75137.89,4009.44,-0.29,150031.86,1933.27,-0.26,19161.37
2208000,854.60,867.21,1.00,1,1,1,1167.73,2.33,133723.48,1451.31,2.44,55060.88,342.66,1.32,30132.38,2147.97,-0.17,59451.95,1550.23,-0.19,12596.70
2224300,826.65,885.15,1.00,1,1,1,2037.50,2.57,58005.12,677.12,2.95,56533.07,1451.31,2.44,82091.40,1056.08,0.19,74676.92,1356.59,-0.15,12354.03
2240000,833.32,871.27,1.00,1,1,1,980.82,-1.12,185867.94,980.82,-1.12,94676.48,677.12,2.95,58693.57,342.66,1.32,61224.39,1582.44,-0.24,16613.37
