@RELATION gaze_labels

%@METADATA width_px 1920
%@METADATA height_px 1080
%@METADATA width_mm 540.00
%@METADATA height_mm 254.00
%@METADATA distance_mm 620.00


@ATTRIBUTE time INTEGER
@ATTRIBUTE x NUMERIC
@ATTRIBUTE y NUMERIC
@ATTRIBUTE confidence NUMERIC
@ATTRIBUTE handlabeller1 INTEGER
@ATTRIBUTE handlabeller2 INTEGER
@ATTRIBUTE handlabeller_final INTEGER
@ATTRIBUTE speed_1 numeric
@ATTRIBUTE direction_1 numeric
@ATTRIBUTE acceleration_1 numeric
@ATTRIBUTE speed_2 numeric
@ATTRIBUTE direction_2 numeric
@ATTRIBUTE acceleration_2 numeric
@ATTRIBUTE speed_4 numeric
@ATTRIBUTE direction_4 numeric
@ATTRIBUTE acceleration_4 numeric
@ATTRIBUTE speed_8 numeric
@ATTRIBUTE direction_8 numeric
@ATTRIBUTE acceleration_8 numeric
@ATTRIBUTE speed_16 numeric
@ATTRIBUTE direction_16 numeric
@ATTRIBUTE acceleration_16 numeric

%The number after speed, direction denotes the step size that was used for the calculation.
%Acceleration was calculated between two adjacent samples of the already low pass filtered velocity

@DATA
0,782.56,887.32,1.00,1,1,1,0.00,0.00,0.00,1696.14,-0.76,0.00,1605.36,-0.56,0.00,882.37,-0.37,0.00,125.96,-1.02,0.00
16100,802.35,868.50,1.00,1,1,1,1696.14,-0.76,105350.36,1605.36,-0.56,20786.87,1348.65,-0.22,35427.04,354.34,0.33,40440.62,88.67,-0.61,3491.25
32000,825.95,859.82,1.00,1,1,1,1581.75,-0.35,42361.44,1348.65,-0.22,35872.66,882.37,-0.37,31066.83,348.92,2.41,38115.05,175.40,2.64,16586.23
48000,844.36,859.24,1.00,1,1,1,1151.09,-0.03,38075.55,374.78,0.57,69772.39,354.34,0.33,40693.38,678.47,2.81,23987.69,718.61,2.75,34043.96
65500,836.52,866.60,1.00,1,1,1,614.92,2.39,95021.80,816.27,2.46,57099.54,348.92,2.41,34630.24,125.96,-1.02,44568.94,1308.17,2.78,33733.90
80300,823.88,875.84,1.00,1,1,1,1057.60,2.51,30651.16,718.82,2.78,17555.19,678.47,2.81,25932.63,88.67,-0.61,3797.91,1770.15,2.82,31419.48
112100,805.23,878.58,1.00,1,1,1,592.67,3.00,18894.37,647.94,3.11,7515.24,457.28,3.06,8185.78,175.40,2.64,8293.12,1978.58,2.83,6632.91
128000,792.99,876.75,1.00,1,1,1,778.69,-2.99,17120.10,303.27,-2.53,27911.16,192.45,-2.14,25438.88,718.61,2.75,34258.07,1896.47,2.84,5181.87
160500,793.22,870.14,1.00,2,2,2,203.49,-1.54,24073.08,553.59,-0.67,21660.31,80.39,-2.21,3457.84,1308.17,2.78,18164.41,905.76,2.89,30571.65
176100,813.94,860.31,1.00,2,2,2,1469.84,-0.44,88976.35,279.86,0.38,30712.94,761.33,2.69,48097.64,1770.15,2.82,29808.23,1015.53,2.78,9929.11
192000,801.40,873.42,1.00,2,2,2,1140.40,2.33,161487.19,2730.44,2.63,183246.78,2614.45,2.71,116556.65,1978.58,2.83,13265.81,1232.44,2.65,16410.85
208000,738.11,903.17,1.00,3,3,3,4371.18,2.70,208285.17,5380.97,2.75,168079.41,4359.31,2.75,109427.20,1896.47,2.84,5149.48,1450.58,2.60,14360.29
224000,642.52,939.79,1.00,1,1,1,6397.79,2.78,128978.49,6008.40,2.81,44916.03,3922.12,2.81,31694.80,2023.31,2.85,8004.70,1544.89,2.62,6229.39
240100,555.91,966.42,1.00,1,1,1,5628.26,2.84,54033.70,2973.58,2.89,189888.18,3039.97,2.87,56215.48,2240.26,2.77,16857.37,1416.32,2.72,12243.55
272300,503.25,974.87,1.00,2,2,2,1656.32,2.98,124054.12,1094.57,3.11,59604.65,1598.29,3.02,45957.75,2402.07,2.65,9842.51,1349.00,2.87,6833.45
288100,503.39,967.97,1.00,2,2,2,436.76,-1.55,113095.70,747.64,-1.02,103238.09,546.83,2.88,67085.56,2273.08,2.54,18003.40,1214.28,2.97,11638.87
303900,515.70,954.79,1.00,2,2,2,1141.36,-0.82,54850.28,444.24,0.76,59676.14,974.09,1.70,57983.96,1839.46,2.49,28270.82,1205.14,2.97,599.36
320000,513.70,977.70,1.00,4,4,4,1427.96,1.66,150978.63,2591.28,1.82,149448.98,1952.76,1.87,62383.19,1084.35,2.56,47301.33,1168.62,2.90,5135.01
336600,494.97,1036.95,1.00,4,4,4,3743.67,1.88,142771.78,3691.15,1.97,72258.49,2620.67,2.09,50655.06,653.97,3.00,34008.96,1114.45,2.89,3325.94
352600,466.61,1088.43,1.00,4,4,4,3673.48,2.07,45930.73,2849.22,2.35,93088.59,1658.60,2.46,76346.53,549.31,-2.79,19654.59,875.78,2.92,15024.00
368000,431.85,1100.35,1.00,4,4,4,2386.14,2.81,161742.87,1304.32,-2.69,176570.61,1230.31,-2.62,108824.34,473.04,-2.78,4957.72,518.27,2.97,23323.96
399900,411.08,1061.55,1.00,4,4,4,1379.67,-2.06,80173.08,2376.62,-1.76,59810.08,1920.51,-1.82,43424.71,351.26,-2.50,5221.67,287.83,3.09,7350.82
416000,410.24,988.34,1.00,2,2,2,4547.58,-1.58,210211.15,3804.81,-1.42,108859.45,2134.28,-1.45,47527.79,524.62,-1.84,20385.14,123.79,-3.11,10242.50
432100,429.25,940.39,1.00,2,2,2,3203.69,-1.19,123940.48,2219.13,-0.95,130199.10,1632.27,-1.12,49915.95,804.81,-1.48,22572.57,94.25,2.93,2448.56
448100,451.93,930.58,1.00,2,2,2,1544.47,-0.41,148548.31,824.75,0.09,120892.41,879.80,-0.47,66699.92,797.21,-1.23,12332.18,135.28,2.64,3298.21
480100,468.68,944.00,1.00,3,3,3,670.44,0.68,42683.80,692.74,0.89,18756.06,665.12,0.39,21163.64,652.81,-1.04,6259.85,101.82,-2.97,2652.95
496000,472.91,956.30,1.00,3,3,3,818.00,1.24,27531.65,607.30,1.05,8592.60,469.71,0.94,22718.00,358.29,-0.26,29616.31,226.76,-1.81,13076.59
511900,478.27,960.76,1.00,1,1,1,438.67,0.69,31311.54,254.94,1.10,22191.82,348.10,1.74,21160.63,356.56,0.63,19324.68,374.18,-1.53,10562.76
544800,478.57,967.37,1.00,1,1,1,201.31,1.53,10258.74,370.69,2.50,12562.62,233.57,1.97,3998.21,325.41,1.01,4033.08,444.04,-1.25,4073.98
560000,463.97,971.41,1.00,1,1,1,996.50,2.87,63930.50,456.94,2.70,7727.20,167.67,1.79,4926.48,220.66,1.10,7063.07,410.01,-0.95,8795.65
576100,465.66,973.54,1.00,1,1,1,169.50,0.90,66717.32,365.62,0.21,48389.55,115.48,1.42,4522.63,104.11,1.17,7271.42,270.15,-0.36,14837.01
591900,475.37,973.86,1.00,1,1,1,614.65,0.03,32996.16,441.03,0.07,5914.02,299.92,0.05,18975.56,67.45,2.27,6021.23,198.13,0.30,10496.93
607900,479.65,974.58,1.00,1,1,1,271.32,0.17,21736.27,247.31,-0.20,13340.73,212.10,-0.26,7263.43,18.47,-2.38,4434.60,152.22,0.68,5019.23
624200,483.20,972.28,1.00,1,1,1,259.54,-0.57,11831.86,142.47,-1.76,17474.71,78.96,-2.27,15702.92,158.96,-0.50,10156.61,100.86,0.71,3157.36
640000,478.77,970.09,1.00,1,1,1,312.83,-2.68,31542.00,258.15,-2.87,14728.67,118.88,-1.89,3416.42,178.35,-0.57,1412.77,76.60,0.37,2413.22
672000,471.30,969.01,1.00,1,1,1,235.76,-3.00,3589.57,104.55,-2.01,6447.19,149.00,-1.50,1877.62,128.03,-0.79,1896.90,45.35,0.13,1076.23
687900,476.65,965.56,1.00,1,1,1,400.29,-0.57,37631.18,479.31,-0.59,29839.30,167.56,-0.88,6199.80,103.63,-0.92,1799.11,65.01,-0.34,2021.87
704100,484.06,960.41,1.00,1,1,1,556.99,-0.61,9721.81,373.25,-0.50,7005.78,260.83,-0.49,7629.83,75.22,-0.76,1959.20,120.27,-0.31,3417.37
720800,487.44,959.69,1.00,1,1,1,206.83,-0.21,22458.74,121.58,-0.20,15545.35,170.81,-0.31,5820.82,104.20,-0.32,2885.22,112.44,-0.35,573.93
752100,489.78,959.26,1.00,1,1,1,76.11,-0.18,4177.68,59.20,0.64,2967.02,107.99,0.43,3724.93,149.81,-0.30,1459.00,78.50,-0.42,1104.84
768100,489.69,961.36,1.00,1,1,1,131.18,1.61,10359.57,162.60,1.15,7167.67,111.00,0.62,1337.34,138.74,-0.23,983.38,53.74,-0.79,2128.85
784000,491.91,963.99,1.00,1,1,1,216.60,0.87,9393.89,188.06,0.62,6012.37,60.94,0.98,3645.74,92.29,-0.00,3321.88,36.10,-0.93,1181.19
799900,494.57,964.81,1.00,1,1,1,175.34,0.30,7401.12,45.07,-1.53,13570.75,100.96,-0.05,5454.89,65.69,0.19,1924.18,63.37,-0.30,2543.50
816600,491.97,962.53,1.00,1,1,1,207.29,-2.42,22403.65,126.19,-1.17,5109.47,97.62,-0.49,2599.28,59.24,0.46,1074.59,105.08,-0.05,2786.66
832100,496.14,961.06,1.00,1,1,1,285.18,-0.34,27545.25,151.49,-0.31,7662.14,55.36,-0.79,3074.92,14.66,0.46,2876.08,108.53,0.13,1261.13
864000,498.82,960.35,1.00,1,1,1,86.69,-0.26,6233.62,35.01,0.37,3955.79,66.69,0.15,1754.41,13.08,-2.65,869.43,112.30,0.30,592.05
880000,497.71,961.67,1.00,1,1,1,107.87,2.27,11602.01,65.38,1.74,4219.29,47.56,2.84,6968.19,22.81,-0.19,2121.51,84.26,0.15,1990.71
912500,498.30,963.48,1.00,1,1,1,58.47,1.25,2818.63,124.49,3.02,3789.42,114.27,2.85,2052.44,78.95,0.36,1870.66,72.63,0.12,364.23
927900,491.79,962.40,1.00,1,1,1,428.43,-2.98,29765.00,261.73,-3.08,9158.86,30.95,1.39,7472.33,99.59,0.55,1712.40,58.66,-0.08,1249.93
944000,490.07,963.00,1.00,1,1,1,113.20,2.81,20711.10,204.32,0.26,28798.71,97.03,0.54,4962.06,139.41,0.50,2496.80,50.12,-0.19,642.79
960200,498.16,964.11,1.00,1,1,1,504.40,0.14,37495.65,320.90,0.29,7211.53,259.65,0.39,10154.93,102.84,0.12,3613.01,8.50,0.94,2907.65
992400,504.94,967.48,1.00,1,1,1,234.97,0.46,9051.23,298.48,0.44,1595.29,367.83,0.28,3510.09,94.04,-0.12,774.78,28.23,1.49,666.28
1008100,511.08,970.23,1.00,1,1,1,428.90,0.42,12378.62,439.82,0.26,9885.64,198.97,-0.03,11994.34,104.75,-0.16,723.44,55.53,0.94,2213.12
1024000,518.35,971.12,1.00,1,1,1,460.46,0.12,8564.91,225.88,-1.15,29035.63,137.93,-0.69,7779.17,110.67,-0.12,456.36,205.41,0.24,10483.55
1040100,514.05,963.64,1.00,1,1,1,535.77,-2.09,55381.15,355.59,-2.20,19367.83,133.74,-1.82,9027.55,21.88,2.17,7833.61,490.10,0.04,18130.42
1056000,511.70,961.89,1.00,1,1,1,184.63,-2.50,23503.83,140.33,-2.54,14372.04,184.65,-2.38,6339.99,89.55,2.82,4615.09,816.44,-0.05,20784.55
1088700,508.43,959.78,1.00,1,1,1,118.91,-2.57,2032.96,86.58,-2.91,2057.29,227.50,2.96,5863.62,44.05,2.16,1873.52,1076.04,-0.04,7939.23
1104000,507.65,960.93,1.00,1,1,1,90.63,2.16,9670.91,453.96,2.61,25885.91,265.89,2.67,5187.62,278.22,0.11,19671.73,1155.25,-0.07,5439.42
1120000,496.19,967.00,1.00,1,1,1,810.67,2.65,45747.90,571.69,2.53,7824.80,206.31,1.65,14835.89,877.76,0.03,37558.98,1174.21,-0.08,1383.12
1136000,492.72,971.51,1.00,2,2,2,355.31,2.23,31840.17,297.29,0.69,44355.42,707.89,0.27,43666.28,1405.99,-0.04,33357.68,1223.58,-0.11,3904.00
1168000,507.18,976.10,1.00,2,2,2,474.03,0.31,21327.02,1439.30,0.06,37846.16,1974.33,0.00,40758.49,2057.18,-0.04,20350.63,1162.31,-0.10,1922.66
1184800,562.82,976.05,1.00,2,2,2,3311.47,-0.00,170439.16,4583.81,-0.06,188117.67,2782.21,-0.07,49290.12,2105.01,-0.06,4321.93,1029.91,-0.09,7962.01
1200200,654.53,967.46,1.00,2,2,2,5981.45,-0.09,175422.56,4193.17,-0.12,31488.29,4124.64,-0.09,87214.18,2252.21,-0.08,9931.90,778.35,0.19,22771.63
1231900,758.79,951.59,1.00,3,3,3,3326.98,-0.15,84128.28,3817.62,-0.11,11971.87,3329.30,-0.12,25435.47,2294.02,-0.12,2628.06,662.17,0.69,11755.11
1248000,835.90,947.34,1.00,3,3,3,4796.37,-0.06,94310.41,2483.39,-0.12,82896.45,2494.77,-0.14,51926.43,2351.42,-0.12,3593.27,799.15,1.16,22781.94
1280000,877.37,937.15,1.00,1,1,1,1334.49,-0.24,109173.07,1187.28,-0.24,40967.81,1716.79,-0.19,24553.06,1794.93,-0.12,17390.59,888.01,1.39,6773.71
1296100,891.43,933.99,1.00,1,1,1,894.83,-0.22,27340.67,631.33,-0.64,40597.27,596.10,-0.33,70157.67,709.67,0.37,75347.89,804.46,1.42,5369.62
1311900,893.58,925.20,1.00,1,1,1,573.06,-1.33,51918.03,332.68,-2.93,56133.00,484.75,2.96,68210.40,1053.38,2.03,83720.57,621.93,1.05,20018.11
1328100,881.02,931.73,1.00,2,2,2,873.59,2.66,81695.34,1551.27,2.78,79280.66,1796.23,2.56,84081.32,2084.77,2.31,68629.46,659.83,0.60,17949.74
1344100,846.80,942.72,1.00,2,2,2,2246.50,2.83,87072.94,2842.18,2.51,88294.43,3426.20,2.44,103723.96,3060.11,2.38,61964.59,692.68,0.36,10098.99
1376100,770.99,1012.39,1.00,4,4,4,3217.38,2.40,47123.72,4758.12,2.36,62124.23,4708.65,2.37,40939.05,3180.31,2.46,8721.79,698.85,0.41,951.48
1392100,683.93,1102.83,1.00,4,4,4,7846.22,2.34,289940.97,7579.73,2.29,178285.57,5194.07,2.34,31828.61,2588.93,2.51,38088.86,620.41,0.60,9242.50
1408000,610.81,1193.51,1.00,4,4,4,7326.17,2.25,53068.39,5854.56,2.31,108731.73,4927.35,2.42,29273.88,1810.14,2.49,49058.54,485.62,0.58,8489.13
1424000,557.86,1240.62,1.00,4,4,4,4429.60,2.41,190305.85,2518.04,2.79,237173.13,1585.19,2.72,215433.39,851.17,2.18,64788.69,555.27,0.28,10710.61
1440100,535.01,1221.57,1.00,4,4,4,1848.34,-2.45,281994.31,3173.90,-1.24,320264.26,1892.60,-1.03,206096.28,687.06,0.46,72714.16,694.85,0.02,13420.80
1456100,591.40,1144.42,1.00,4,4,4,5972.48,-0.94,383643.80,5958.80,-0.76,215334.80,3520.80,-0.72,113457.20,1633.88,-0.19,72660.74,813.38,-0.05,8070.95
1472200,673.04,1089.15,1.00,4,4,4,6123.67,-0.60,129126.83,4162.43,-0.47,144503.86,4568.73,-0.47,89791.19,2653.62,-0.44,70936.60,956.17,-0.13,9885.24
1504000,769.45,1054.71,1.00,2,2,2,3219.57,-0.34,97835.22,3975.90,-0.18,37434.04,4185.85,-0.26,31254.88,3731.96,-0.50,34426.13,1021.12,-0.16,2168.66
1519900,859.74,1055.81,1.00,2,2,2,5678.55,0.01,181530.99,4530.46,0.02,63138.30,3609.86,-0.21,38664.41,3972.18,-0.46,17438.26,1407.19,-0.29,26375.27
1536100,914.85,1057.73,1.00,2,2,2,3404.16,0.03,140528.05,3094.31,-0.26,109931.89,4208.31,-0.27,40156.99,3731.09,-0.40,21323.88,1805.98,-0.41,27352.09
1553300,959.57,1029.11,1.00,3,3,3,3087.36,-0.57,113655.45,4280.16,-0.58,96018.36,3377.42,-0.45,62685.42,3337.20,-0.38,23430.02,2254.19,-0.48,27063.12
1568600,1031.31,981.67,1.00,3,3,3,5621.32,-0.58,165667.85,3646.50,-0.57,41455.64,3365.51,-0.57,26140.55,2695.05,-0.39,42018.34,2578.62,-0.47,21224.92
1599900,1102.50,937.19,1.00,1,1,1,2681.62,-0.56,93974.46,2737.14,-0.57,29055.93,3172.31,-0.58,6176.71,2258.12,-0.48,15788.38,2753.08,-0.42,6858.62
1615900,1140.50,912.09,1.00,1,1,1,2846.34,-0.58,11181.43,2484.04,-0.58,16033.97,1723.79,-0.58,90532.35,2022.79,-0.57,19388.50,2451.91,-0.35,22461.19
1632000,1169.04,893.26,1.00,1,1,1,2123.98,-0.58,44867.41,735.89,-0.60,108593.93,1144.52,-0.55,36023.14,1892.07,-0.52,10279.91,2245.56,-0.32,13643.79
1664400,1169.88,891.83,1.00,1,1,1,51.15,-1.04,64142.39,253.86,-0.37,15206.69,685.13,-0.58,14197.07,1537.21,-0.40,12584.58,2063.54,-0.32,5642.44
1680000,1180.42,888.89,1.00,2,2,2,701.20,-0.27,42651.65,608.02,-0.54,23115.62,657.82,-0.27,13446.24,1416.31,-0.30,12857.84,1808.99,-0.38,17924.87
1696000,1186.36,881.96,1.00,2,2,2,570.87,-0.86,24385.32,1266.08,-0.24,44249.93,1366.56,-0.08,45749.05,1199.03,-0.19,16269.32,1733.33,-0.43,6713.77
1712000,1219.76,879.22,1.00,1,1,1,2094.38,-0.08,108483.07,2195.29,0.05,65261.39,1840.89,-0.10,29705.79,1178.38,-0.15,3285.20,1582.87,-0.41,9607.49
1728000,1256.54,885.16,1.00,1,1,1,2328.45,0.16,36388.47,2435.90,-0.02,17833.78,1783.02,-0.04,7458.62,1376.82,-0.19,12840.20,1286.90,-0.37,18863.50
1744000,1297.69,877.60,1.00,1,1,1,2615.12,-0.18,55432.69,1520.44,-0.12,58410.65,1706.00,-0.10,8052.85,1342.97,-0.20,2529.49,1048.70,-0.29,15846.80
1776400,1329.61,876.45,1.00,1,1,1,985.81,-0.04,50803.26,1230.53,-0.20,9572.43,1396.73,-0.27,12683.37,1473.80,-0.20,4039.75,867.18,-0.20,6240.08
1792000,1355.59,865.91,1.00,1,1,1,1797.16,-0.39,59882.84,1286.06,-0.56,28828.41,966.20,-0.37,28489.43,1278.49,-0.22,12635.47,694.86,-0.09,12279.09
1808000,1364.14,855.01,1.00,1,1,1,865.63,-0.91,70706.55,672.02,-0.85,41950.05,1170.85,-0.52,16193.98,1013.17,-0.30,17573.83,517.02,0.16,14616.02
1824000,1369.81,849.78,1.00,1,1,1,482.42,-0.74,24817.64,1059.12,-0.47,31218.36,804.25,-0.55,22996.76,681.14,-0.28,20778.19,304.60,1.42,31970.07
1840000,1394.32,839.60,1.00,2,2,2,1658.77,-0.39,76074.38,985.53,-0.35,9103.92,536.84,-0.40,17862.67,497.15,-0.23,11649.84,891.76,2.32,46443.80
1856100,1399.54,838.97,1.00,2,2,2,326.53,-0.12,83671.31,81.93,0.96,60087.59,345.70,0.02,16264.11,175.47,0.33,22434.29,1583.45,2.52,45472.26
1872000,1395.83,841.75,1.00,1,1,1,291.69,2.50,37569.76,425.27,2.16,25354.14,262.72,1.34,23743.00,537.27,2.23,38788.08,2080.85,2.64,33798.24
1888100,1391.96,850.27,1.00,1,1,1,581.26,2.00,22015.58,387.13,1.39,19133.33,506.45,2.09,22490.05,1365.60,2.50,53381.59,2382.68,2.71,21326.52
1920200,1399.21,860.10,1.00,1,1,1,380.34,0.94,16087.77,561.70,2.05,10908.70,1357.77,2.39,27620.65,2879.07,2.59,47481.91,2503.32,2.80,7901.87
1936100,1379.49,874.17,1.00,0,0,0,1523.57,2.52,99114.24,3137.58,2.55,167079.75,2464.61,2.56,72309.98,3867.42,2.63,62631.01,2407.18,2.88,13533.35
1952000,1316.59,916.05,1.00,0,0,0,4752.20,2.55,203132.49,4450.62,2.62,84378.69,5696.10,2.64,204052.16,4578.29,2.67,46157.75,2307.57,2.92,8267.71
1984000,1194.65,980.39,1.00,4,4,4,4308.70,2.66,19988.96,7401.78,2.66,92516.21,6734.73,2.66,32807.21,4884.16,2.73,12471.27,2227.47,2.94,2906.08
2000000,1001.55,1080.30,1.00,4,4,4,13588.13,2.66,579977.46,9019.52,2.68,101599.20,7274.64,2.71,41185.73,4953.95,2.81,25975.97,2134.04,2.94,5849.80
2032000,806.92,1173.00,1.00,4,4,4,6737.05,2.70,214322.99,7171.76,2.77,61806.05,7833.90,2.79,24703.49,4498.88,2.90,19185.00,2115.33,2.92,1434.67
2049400,671.67,1209.51,1.00,4,4,4,8050.93,2.88,107440.03,6313.64,3.02,109003.82,4483.41,2.99,204623.44,3864.42,2.99,42393.92,2082.19,2.91,2027.70
2064200,605.11,1197.60,1.00,4,4,4,4568.82,-2.96,295727.30,2486.66,-2.55,319510.24,2780.85,-2.64,190966.69,3261.54,3.11,50623.42,2041.93,2.91,2723.49
2096100,575.50,1144.43,1.00,4,4,4,1907.91,-2.08,115098.59,2753.17,-1.52,80984.35,2424.20,-1.71,73650.80,1841.32,-2.84,51183.57,2147.59,2.92,3376.42
2112000,611.78,1066.17,1.00,4,4,4,5425.28,-1.14,287539.97,4436.78,-1.06,145694.27,2626.86,-1.26,72592.69,1271.85,-2.09,79495.85,2050.06,2.95,6899.25
2128000,644.59,1020.90,1.00,4,4,4,3493.95,-0.94,131616.08,2777.39,-0.88,111125.01,2478.83,-0.94,51266.99,1347.54,-1.37,57634.93,1781.66,3.02,18965.30
2144900,670.09,995.82,1.00,2,2,2,2116.86,-0.78,85765.29,1248.63,-0.66,93674.95,1478.29,-0.64,68508.91,1404.57,-1.02,28230.07,1401.28,-3.10,26927.36
2176000,692.03,984.28,1.00,2,2,2,797.00,-0.48,44156.39,780.71,0.00,25539.09,913.77,-0.29,22334.08,1418.61,-0.73,13348.09,779.61,-2.61,25919.79
2191900,706.79,995.99,1.00,2,2,2,1184.59,0.67,71032.49,868.12,0.62,31662.75,669.40,0.18,27427.05,975.61,-0.49,33034.66,720.81,-1.71,41026.06
2207900,714.63,1000.29,1.00,1,1,1,559.03,0.50,40029.85,561.70,0.54,19475.55,678.12,0.59,17180.13,777.13,-0.33,14912.02,910.03,-1.23,26925.11
2224600,722.58,1005.36,1.00,1,1,1,564.84,0.57,2228.44,491.26,0.55,4229.45,460.18,0.15,19554.29,724.59,-0.31,3303.42,1007.75,-1.01,13530.07
2240200,728.20,1008.52,1.00,1,1,1,412.85,0.51,9886.05,453.38,-0.35,26365.12,610.88,-0.42,21600.16,681.65,-0.33,2812.83,956.83,-0.83,11985.18
2256000,735.95,1000.44,1.00,1,1,1,708.37,-0.81,45924.62,1033.17,-0.83,42094.02,977.69,-0.73,27576.36,532.34,-0.65,15457.02,756.92,-0.68,15003.60
2272100,750.36,984.13,1.00,1,1,1,1352.31,-0.85,40074.61,1530.61,-0.84,30898.12,989.83,-0.77,2486.75,524.05,-0.86,7116.73,615.29,-0.57,9905.16
2288100,768.84,963.94,1.00,1,1,1,1710.13,-0.83,22426.51,964.11,-0.72,36425.39,708.56,-0.96,20300.97,608.56,-1.00,7082.77,527.55,-0.52,5840.57
2321400,785.95,952.62,1.00,2,2,2,616.22,-0.58,33703.50,316.79,-1.27,21418.16,533.92,-1.20,6777.85,596.81,-1.04,768.44,500.94,-0.53,811.10
2352000,774.77,944.59,1.00,1,1,1,449.87,-2.52,28846.46,501.68,-2.38,14965.60,423.36,-1.41,4947.46,613.03,-0.94,2036.04,498.89,-0.62,1604.42
2367900,769.07,936.52,1.00,1,1,1,621.36,-2.19,15415.33,648.57,-1.55,30306.45,365.83,-1.69,7811.88,523.25,-0.87,6164.10,427.12,-0.65,4557.35
2384000,775.17,923.84,1.00,1,1,1,873.91,-1.12,48977.58,461.23,-0.97,22827.31,499.53,-0.89,22395.79,398.25,-0.82,7855.40,358.17,-0.75,5003.16
2415900,781.67,918.32,1.00,1,1,1,267.50,-0.70,20027.67,558.18,-0.40,9434.69,582.51,-0.50,6974.18,369.89,-0.87,1052.66,280.18,-1.06,3905.29
2432200,799.99,913.46,1.00,1,1,1,1162.50,-0.26,56941.36,887.93,-0.15,22743.62,534.21,-0.27,8592.13,462.04,-0.60,8966.60,613.03,-0.94,20664.84
2448200,810.01,913.89,1.00,1,1,1,626.94,0.04,37134.78,516.06,-0.06,23588.92,675.22,-0.25,8848.55,361.25,-0.33,9219.93,523.25,-0.87,6125.58
2464100,816.42,912.48,1.00,1,1,1,412.93,-0.22,15817.47,471.73,-0.42,11604.21,477.81,-0.21,12506.24,194.14,0.11,12749.41,398.25,-0.82,7954.21
2480200,823.76,907.68,1.00,1,1,1,545.06,-0.58,13418.34,451.34,-0.37,1952.52,181.22,0.25,20156.03,107.25,2.25,16656.89,369.89,-0.87,2085.70
2496000,829.83,907.24,1.00,1,1,1,384.90,-0.07,17728.10,198.56,1.51,34585.14,223.87,2.19,21209.85,477.81,-0.21,35764.50,462.04,-0.60,9250.36
2529700,824.34,917.49,1.00,2,2,2,345.13,2.06,18985.35,643.75,2.45,16293.75,708.84,2.73,15726.75,181.22,0.25,9629.44,361.25,-0.33,4377.42
2544100,806.08,927.10,1.00,1,1,1,1432.95,2.66,80773.04,1780.71,2.90,85825.12,643.75,2.45,14058.41,223.87,2.19,23271.92,194.14,0.11,14077.47
2560000,771.93,930.31,1.00,1,1,1,2157.30,3.05,62605.63,2157.30,3.05,29753.17,1780.71,2.90,77728.41,708.84,2.73,33332.79,107.25,2.25,16866.41
