@RELATION gaze_labels

%@METADATA width_px 1920
%@METADATA height_px 1080
%@METADATA width_mm 540.00
%@METADATA height_mm 254.00
%@METADATA distance_mm 620.00


@ATTRIBUTE time INTEGER
@ATTRIBUTE x NUMERIC
@ATTRIBUTE y NUMERIC
@ATTRIBUTE confidence NUMERIC
@ATTRIBUTE handlabeller1 INTEGER
@ATTRIBUTE handlabeller2 INTEGER
@ATTRIBUTE handlabeller_final INTEGER
@ATTRIBUTE speed_1 numeric
@ATTRIBUTE direction_1 numeric
@ATTRIBUTE acceleration_1 numeric
@ATTRIBUTE speed_2 numeric
@ATTRIBUTE direction_2 numeric
@ATTRIBUTE acceleration_2 numeric
@ATTRIBUTE speed_4 numeric
@ATTRIBUTE direction_4 numeric
@ATTRIBUTE acceleration_4 numeric
@ATTRIBUTE speed_8 numeric
@ATTRIBUTE direction_8 numeric
@ATTRIBUTE acceleration_8 numeric
@ATTRIBUTE speed_16 numeric
@ATTRIBUTE direction_16 numeric
@ATTRIBUTE acceleration_16 numeric

%The number after speed, direction denotes the step size that was used for the calculation.
%Acceleration was calculated between two adjacent samples of the already low pass filtered velocity

@DATA
0,792.78,883.05,1.00,1,1,1,0.00,0.00,0.00,218.50,2.11,0.00,133.06,-2.99,0.00,87.01,-2.28,0.00,38.11,-1.74,0.00
16000,790.98,886.05,1.00,1,1,1,218.50,2.11,13656.23,133.06,-2.99,13072.81,319.42,-2.02,16719.02,71.01,-2.19,1094.36,111.07,-1.03,5357.32
32000,788.57,882.39,1.00,1,1,1,274.16,-2.15,26145.61,319.42,-2.02,16719.02,87.01,-2.28,14780.01,58.53,-2.88,2831.33,133.43,-0.42,4773.98
48100,786.56,876.81,1.00,1,1,1,368.77,-1.92,7498.48,112.15,-1.42,14632.07,71.01,-2.19,1087.56,97.87,1.92,6809.59,179.95,-0.14,3967.66
64400,789.13,878.80,1.00,1,1,1,199.66,0.66,33615.45,181.93,1.26,17581.55,58.53,-2.88,2779.22,38.11,-1.74,8117.86,150.98,2.49,19642.39
80100,788.34,882.35,1.00,1,1,1,231.30,1.79,14779.84,155.55,2.58,13279.12,97.87,1.92,6983.09,111.07,-1.03,5459.69,573.33,2.65,27072.85
96100,784.95,881.42,1.00,1,1,1,220.12,-2.87,20448.13,123.55,3.06,4530.34,37.17,-0.40,7886.61,133.43,-0.42,4773.98,955.63,2.60,24003.59
112000,784.42,882.68,1.00,1,1,1,86.39,1.97,14206.61,164.24,-0.50,17720.24,184.69,-0.75,9450.02,179.95,-0.14,4017.56,1301.89,2.61,21792.92
144000,791.85,877.64,1.00,1,1,1,280.65,-0.60,11128.82,375.59,-0.61,6662.67,278.36,-0.32,4210.83,150.98,2.49,10005.34,932.93,2.60,11532.65
160000,799.16,872.31,1.00,1,1,1,565.63,-0.63,17831.89,455.46,-0.22,11280.97,366.55,-0.33,5517.89,573.33,2.65,26565.24,982.41,2.55,4317.17
176000,806.08,874.47,1.00,1,1,1,452.87,0.30,29332.55,406.62,0.06,8199.70,382.98,2.52,46338.83,955.63,2.60,24003.59,1087.53,2.58,6706.93
192200,812.23,873.16,1.00,1,1,1,388.31,-0.21,13761.38,1192.97,2.67,96049.05,1513.29,2.61,69911.64,1301.89,2.61,21389.35,1115.82,2.65,5369.71
208200,771.91,892.02,1.00,1,1,1,2782.34,2.70,197621.20,3394.39,2.68,137596.80,2182.00,2.63,41841.07,1875.97,2.59,35970.96,1097.76,2.77,8208.71
224000,715.63,921.33,1.00,2,2,2,4015.67,2.66,78574.41,2849.04,2.62,36587.18,2972.27,2.64,50033.98,1957.20,2.53,8281.63,1046.42,2.91,10273.34
256000,654.01,960.19,1.00,2,2,2,2276.62,2.58,54902.45,2696.36,2.60,4980.13,3068.92,2.59,5130.98,2185.24,2.58,7843.45,976.07,2.96,2717.46
272000,604.67,987.95,1.00,4,4,4,3538.35,2.63,79359.63,3394.23,2.56,44237.10,2257.68,2.50,53083.45,2274.37,2.67,13898.03,949.77,2.90,3920.50
288600,561.44,1020.81,1.00,4,4,4,3271.09,2.49,32437.24,1854.80,2.35,98315.58,2193.00,2.54,6694.04,1951.13,2.79,24125.25,1008.95,2.85,4764.69
320000,542.40,1051.58,1.00,4,4,4,1152.41,2.12,71140.77,1368.71,2.50,17260.92,1585.15,2.74,22930.72,1494.27,3.00,18609.03,1010.55,2.81,1184.35
336000,509.62,1059.85,1.00,2,2,2,2112.71,2.89,94672.72,1767.60,-2.88,88608.97,1068.17,-2.91,59892.71,1110.96,-3.01,32338.30,993.27,2.81,1094.72
352100,487.56,1037.01,1.00,2,2,2,1972.00,-2.34,127344.05,2036.05,-2.06,95366.22,1798.43,-2.16,77744.91,751.51,-2.86,23919.59,994.10,2.81,353.03
368800,478.10,1000.97,1.00,2,2,2,2231.38,-1.83,65431.41,2552.34,-1.68,60051.89,1583.02,-1.83,35756.46,524.59,-2.43,21109.76,857.96,2.85,8379.95
384400,478.34,955.09,1.00,2,2,2,2941.02,-1.57,62503.07,1349.30,-1.58,78147.96,1031.08,-1.55,41840.19,602.67,-1.97,17028.06,670.10,2.91,12421.78
416000,477.74,937.28,1.00,1,1,1,563.83,-1.60,75244.23,226.91,-0.04,43046.97,509.20,-1.05,20104.10,608.07,-1.44,9995.32,539.28,3.13,5853.55
432000,489.13,954.64,1.00,1,1,1,1297.86,0.99,112713.81,1109.25,0.95,62718.09,432.30,0.50,41320.09,536.25,-1.05,14749.80,396.53,-2.93,11071.67
447900,498.27,966.10,1.00,1,1,1,921.76,0.90,24493.82,805.92,0.72,23429.35,872.05,0.69,28613.57,386.78,-0.66,14547.11,290.31,-2.42,12536.73
464000,508.48,971.70,1.00,1,1,1,723.02,0.50,23460.83,729.14,0.30,20615.16,624.99,0.40,20516.56,283.80,0.31,20209.56,334.52,-2.02,8130.38
480000,520.64,972.98,1.00,1,1,1,764.55,0.10,18500.30,551.15,-0.09,18933.22,368.89,0.04,19238.32,252.55,0.86,9360.66,312.82,-1.73,6175.40
496100,526.10,970.09,1.00,2,2,2,383.20,-0.49,30743.96,189.48,-1.35,32556.35,150.20,-0.44,15276.50,75.39,1.14,11257.39,237.63,-1.49,6127.41
512300,522.01,967.01,1.00,2,2,2,315.87,-2.50,36484.33,289.97,-2.87,20873.20,384.06,-2.67,30279.41,31.46,-2.33,6521.43,131.53,-1.37,6688.24
528100,517.17,967.56,1.00,1,1,1,308.27,3.03,14627.67,752.61,-2.92,29334.45,526.28,-2.94,11795.26,76.45,-2.45,2870.59,40.95,0.43,9245.17
544000,498.71,961.89,1.00,1,1,1,1214.63,-2.84,59125.24,764.52,-2.97,2332.54,341.03,-2.99,11710.36,166.54,-2.87,6409.36,84.19,0.99,3416.43
560000,493.13,963.43,1.00,1,1,1,361.51,2.87,58150.74,76.48,2.89,43471.58,215.01,-2.97,7880.81,207.24,-2.99,2879.59,74.29,2.46,6640.16
592000,495.16,962.81,1.00,1,1,1,66.07,-0.30,13361.10,139.83,0.17,6623.00,56.91,2.33,5922.99,205.41,-2.94,300.42,33.77,-1.89,2873.25
609400,499.94,964.58,1.00,1,1,1,293.37,0.35,14026.00,63.51,1.64,8490.24,16.53,1.45,2765.88,158.16,-2.88,2779.57,276.18,-0.52,15602.47
640100,494.95,965.86,1.00,1,1,1,168.01,2.89,14398.96,141.94,3.08,4809.52,94.06,-2.81,3337.26,43.51,-2.72,3761.88,596.55,-0.39,10581.01
656100,493.33,965.00,1.00,1,1,1,114.37,-2.66,7080.96,214.07,-2.52,8634.29,111.10,-2.74,1143.71,126.12,2.89,6004.91,891.11,-0.34,18541.53
688100,486.62,959.84,1.00,1,1,1,264.59,-2.49,4783.70,113.96,-2.17,3558.03,97.82,-1.99,2413.66,40.38,-1.59,4408.80,1062.74,-0.29,5526.19
704000,490.26,960.49,1.00,1,1,1,232.89,0.17,30392.20,163.55,-0.22,14560.20,276.03,2.96,16948.13,557.72,-0.40,34202.86,1022.29,-0.27,3171.86
720100,491.73,958.72,1.00,2,2,2,142.38,-0.88,12669.22,639.20,2.72,49683.46,142.97,-0.39,25890.18,1411.55,-0.31,53288.67,981.88,-0.24,3018.58
736000,471.62,968.91,1.00,2,2,2,1417.49,2.67,97434.10,128.19,-0.62,48135.15,1501.10,-0.32,85441.69,2086.20,-0.29,42486.77,1012.71,-0.24,1943.61
752000,495.06,956.35,1.00,2,2,2,1661.74,-0.49,192439.02,3638.63,-0.34,219725.39,3195.48,-0.27,106157.07,2775.31,-0.25,43485.61,1067.33,-0.23,3443.06
768000,581.39,930.08,1.00,1,1,1,5640.32,-0.30,251485.96,6261.18,-0.26,165596.21,5024.24,-0.28,114327.32,2617.75,-0.22,10525.82,1246.02,-0.25,11272.91
784000,688.63,904.65,1.00,1,1,1,6888.10,-0.23,81703.97,6411.97,-0.24,11643.62,5405.11,-0.24,26595.33,2225.66,-0.22,24505.69,1607.94,-0.24,22640.52
800200,781.76,880.26,1.00,1,1,1,5942.59,-0.26,59090.21,4551.72,-0.22,115203.35,3744.55,-0.18,103741.95,2403.65,-0.24,11265.10,1839.46,-0.22,14585.67
816000,830.90,873.45,1.00,1,1,1,3140.17,-0.14,180295.45,1122.81,0.16,223678.03,1457.96,-0.15,144834.23,2243.15,-0.21,10907.34,2181.72,-0.19,21920.15
832000,816.98,886.12,1.00,1,1,1,1176.89,2.40,260278.58,633.92,2.65,104450.73,336.66,0.22,71911.75,2012.62,-0.21,14416.14,2110.38,-0.18,4568.03
864000,804.03,887.72,1.00,1,1,1,407.68,3.02,27384.00,187.07,3.13,14850.86,306.53,2.52,18336.40,1807.37,-0.20,6473.74,2008.18,-0.19,3207.99
880100,807.98,886.25,1.00,1,1,1,261.82,-0.36,41312.98,214.74,-0.00,24956.72,632.85,-0.33,57818.91,1626.86,-0.14,12880.17,2097.87,-0.21,6107.85
896100,810.93,887.72,1.00,2,2,2,205.59,0.46,12077.83,1857.03,-0.29,103254.32,2240.11,-0.24,100716.18,1715.18,-0.12,5853.33,1956.63,-0.20,8849.41
912000,864.82,869.56,1.00,2,2,2,3576.93,-0.32,216038.05,4210.30,-0.25,148158.79,2939.49,-0.18,45006.37,1744.98,-0.14,2869.02,1739.78,-0.17,14057.37
929200,946.06,853.64,1.00,2,2,2,4812.70,-0.19,78514.14,3667.15,-0.14,39945.73,3706.87,-0.16,44764.84,1816.79,-0.15,4300.88,1451.30,-0.15,16905.60
960100,1039.49,844.97,1.00,1,1,1,3036.75,-0.09,58815.20,3373.31,-0.08,11813.64,2682.82,-0.10,33668.95,1825.58,-0.17,1153.16,1130.75,-0.11,10530.07
976000,1103.44,841.29,1.00,1,1,1,4028.87,-0.06,62874.51,1706.05,-0.01,105343.46,1541.01,-0.06,71982.88,1722.18,-0.19,6980.58,921.60,-0.10,13157.45
1008100,1121.37,844.03,1.00,1,1,1,565.11,0.15,108350.12,209.43,2.80,59363.83,715.21,-0.12,25812.13,1518.99,-0.13,6960.98,997.96,-0.13,2572.11
1025200,1093.72,844.71,1.00,1,1,1,1617.54,3.12,127260.78,799.14,-2.90,37118.83,121.37,-1.13,38464.17,1159.34,-0.09,21278.45,1166.81,-0.12,9898.43
1040300,1096.40,837.82,1.00,1,1,1,489.53,-1.20,123297.72,433.36,-0.76,72541.74,159.87,-0.84,3630.10,638.17,-0.03,34686.85,1299.61,-0.11,8821.07
1072000,1108.46,830.77,1.00,1,1,1,440.48,-0.53,9764.66,704.77,-0.10,14150.06,697.99,-0.17,18354.97,132.58,0.11,15998.09,1478.89,-0.13,5674.06
1088000,1129.85,834.48,1.00,1,1,1,1357.22,0.17,66203.82,1240.45,0.12,35780.59,568.34,0.09,13057.89,84.71,-0.05,3171.94,1454.32,-0.10,2696.62
1104100,1148.00,835.41,1.00,1,1,1,1128.84,0.05,16918.08,433.33,0.56,54050.50,319.88,0.67,21607.21,436.51,-0.01,21856.86,1239.25,-0.08,13485.14
1120300,1141.68,841.96,1.00,1,1,1,561.98,2.34,96089.52,770.27,2.81,67530.47,150.52,1.18,12465.18,781.10,0.01,21278.09,958.18,-0.05,17480.79
1136300,1124.57,843.55,1.00,1,1,1,1073.76,3.05,46514.99,259.38,2.97,32244.31,185.57,0.82,4266.75,1193.55,-0.01,25802.73,699.72,-0.01,16290.15
1152100,1133.56,843.39,1.00,2,2,2,568.59,-0.02,103880.70,993.21,0.02,79039.26,997.10,-0.04,56227.51,1377.30,-0.06,12247.26,706.12,-0.03,1255.95
1168000,1156.05,844.12,1.00,2,2,2,1415.69,0.03,53353.74,1824.74,-0.05,52661.19,1963.07,-0.10,60932.20,1336.49,-0.07,2641.99,807.30,-0.07,6593.30
1200300,1221.38,838.56,1.00,1,1,1,2029.68,-0.08,19982.73,2608.89,-0.12,24726.04,2445.34,-0.11,14949.26,1314.85,-0.06,793.27,802.95,-0.04,647.78
1216000,1280.31,828.58,1.00,1,1,1,3807.34,-0.17,114168.94,3395.72,-0.15,50333.85,2312.60,-0.12,8603.52,1266.73,-0.02,4441.50,805.19,0.00,2323.49
1232000,1327.83,822.57,1.00,1,1,1,2993.28,-0.13,51638.16,1869.84,-0.10,95651.00,1713.50,-0.07,37951.06,1265.76,-0.03,1091.16,554.91,0.07,15938.24
1248100,1340.02,822.45,1.00,1,1,1,757.43,-0.01,139294.43,280.36,1.28,114082.53,605.58,0.23,71377.04,1139.37,-0.09,8963.10,270.29,0.45,19783.85
1264100,1330.45,831.18,1.00,1,1,1,809.76,2.40,91513.19,434.48,2.17,21273.34,206.04,1.06,30659.20,829.48,-0.10,19372.16,154.80,2.04,19684.25
1296900,1327.98,839.90,1.00,1,1,1,276.32,1.85,18083.88,165.31,0.82,13124.15,74.05,2.01,5292.31,418.37,0.04,12775.41,316.85,2.66,6414.23
1312000,1335.85,836.97,1.00,1,1,1,556.21,-0.36,49885.49,496.91,-0.90,36231.23,130.11,-0.40,12696.00,240.79,2.45,40990.57,528.93,2.85,14993.75
1327900,1337.51,827.80,1.00,1,1,1,586.26,-1.39,35604.12,333.96,-1.17,12291.52,243.20,-0.61,7474.79,796.47,2.75,35897.80,557.16,2.95,3680.79
1344000,1340.02,827.14,1.00,1,1,1,161.67,-0.26,33425.68,140.92,0.81,25502.19,488.68,2.88,44859.71,1239.59,2.89,28762.55,771.52,3.04,13855.83
1360400,1340.67,831.11,1.00,1,1,1,245.53,1.41,18700.39,967.40,2.70,62227.39,1535.45,2.78,64029.58,1865.67,2.97,38936.80,965.28,3.04,11815.76
1392000,1298.08,847.05,1.00,2,2,2,1439.31,2.78,44688.08,2621.02,2.82,52676.49,2376.12,2.88,27233.74,2301.17,2.99,13860.11,1122.30,3.03,4972.32
1408100,1222.13,870.85,1.00,2,2,2,4943.08,2.84,217812.20,3799.03,2.93,76208.13,3246.36,2.95,55325.14,2248.44,3.00,3432.59,1286.15,3.02,10209.58
1440200,1119.17,886.07,1.00,1,1,1,3242.53,2.99,56472.22,3900.87,3.04,13476.18,4112.54,3.01,27739.53,2209.42,3.04,3197.27,1453.64,3.02,5220.44
1456400,1034.77,890.68,1.00,1,1,1,5217.57,3.09,124136.16,4624.59,3.10,48028.28,3017.76,3.11,71220.52,2213.79,3.06,2693.63,1791.19,3.00,20897.10
1472200,971.29,891.72,1.00,1,1,1,4018.28,3.13,76714.00,1739.14,-2.92,188399.99,2085.94,-2.96,67969.66,2150.28,3.10,6579.95,1997.77,2.96,14110.45
1488000,981.14,878.67,1.00,1,1,1,1035.05,-0.92,299128.85,1072.23,-1.05,145397.37,880.47,-2.54,84139.11,1876.76,-3.14,18292.08,2248.44,3.00,16894.66
1504000,988.25,862.14,1.00,1,1,1,1124.39,-1.16,17101.41,650.32,-1.21,27672.73,567.18,-1.07,62562.18,1776.58,3.14,6286.88,2209.42,3.04,6414.53
1520000,988.47,859.19,1.00,1,1,1,185.05,-1.50,59466.70,68.40,-1.36,36425.03,477.86,-2.84,50720.98,1700.70,3.04,11672.93,2213.79,3.06,2727.30
1536000,988.71,860.00,1.00,2,2,2,52.85,1.29,14705.34,1184.93,2.86,76147.18,1548.23,2.90,72895.15,1663.76,2.90,15097.29,2150.28,3.10,6497.70
1552100,951.88,869.60,1.00,2,2,2,2363.47,2.89,146932.95,3127.01,2.88,120635.47,2776.54,2.84,76647.58,477.86,-2.84,79385.91,1876.76,-3.14,17951.24
1568000,892.12,886.15,1.00,2,2,2,3900.32,2.87,96701.07,4378.59,2.83,79388.92,3315.40,2.80,34714.33,1548.23,2.90,73353.61,1776.58,3.14,6326.42
1584000,818.81,912.04,1.00,1,1,1,4859.04,2.80,62813.35,3451.19,2.75,61070.77,4378.59,2.83,66901.70,2776.54,2.84,77126.62,1700.70,3.04,11672.93
1615900,739.09,948.69,1.00,1,1,1,2750.45,2.71,66923.75,2750.45,2.71,22354.49,3451.19,2.75,30631.11,3315.40,2.80,17302.75,1663.76,2.90,7572.31
