@RELATION gaze_labels

%@METADATA width_px 1920
%@METADATA height_px 1080
%@METADATA width_mm 540.00
%@METADATA height_mm 254.00
%@METADATA distance_mm 620.00


@ATTRIBUTE time INTEGER
@ATTRIBUTE x NUMERIC
@ATTRIBUTE y NUMERIC
@ATTRIBUTE confidence NUMERIC
@ATTRIBUTE handlabeller1 INTEGER
@ATTRIBUTE handlabeller2 INTEGER
@ATTRIBUTE handlabeller_final INTEGER
@ATTRIBUTE speed_1 numeric
@ATTRIBUTE direction_1 numeric
@ATTRIBUTE acceleration_1 numeric
@ATTRIBUTE speed_2 numeric
@ATTRIBUTE direction_2 numeric
@ATTRIBUTE acceleration_2 numeric
@ATTRIBUTE speed_4 numeric
@ATTRIBUTE direction_4 numeric
@ATTRIBUTE acceleration_4 numeric
@ATTRIBUTE speed_8 numeric
@ATTRIBUTE direction_8 numeric
@ATTRIBUTE acceleration_8 numeric
@ATTRIBUTE speed_16 numeric
@ATTRIBUTE direction_16 numeric
@ATTRIBUTE acceleration_16 numeric

%The number after speed, direction denotes the step size that was used for the calculation.
%Acceleration was calculated between two adjacent samples of the already low pass filtered velocity

@DATA
0,971.52,1025.68,1.00,1,1,1,0.00,0.00,0.00,1301.03,-2.30,0.00,1132.59,3.01,0.00,1510.48,2.50,0.00,347.46,3.14,0.00
16700,957.11,1009.41,1.00,1,1,1,1301.03,-2.30,77905.70,1132.59,3.01,69231.33,2352.66,2.25,102444.81,1391.34,2.37,13588.34,394.57,2.48,14600.39
33200,934.26,1030.74,1.00,1,1,1,1894.75,2.39,140990.33,2352.66,2.25,103686.56,1510.48,2.50,58262.04,498.78,2.56,54953.36,352.96,2.57,3198.53
48100,910.47,1066.69,1.00,1,1,1,2893.38,2.16,76509.17,2148.99,2.22,14422.27,1391.34,2.37,15229.88,438.91,-1.60,55038.87,366.90,-3.12,14275.95
64200,893.79,1083.66,1.00,1,1,1,1477.71,2.35,91328.56,533.35,2.88,109033.88,498.78,2.56,56318.66,347.46,3.14,34364.25,464.51,-2.80,10167.69
80200,893.94,1071.18,1.00,1,1,1,779.89,-1.56,131928.22,638.52,-1.35,62828.14,438.91,-1.60,51254.95,394.57,2.48,15239.15,451.53,-2.89,2829.44
113700,900.72,1052.82,1.00,1,1,1,584.18,-1.22,8991.60,887.31,-1.20,8189.68,801.48,-1.13,13622.98,352.96,2.57,1575.40,473.95,3.10,4096.85
128200,909.55,1031.55,1.00,1,1,1,1588.21,-1.18,69293.96,1115.93,-0.92,24723.60,409.20,-0.97,27721.10,366.90,-3.12,14669.77,555.77,2.70,14946.16
144200,921.41,1025.79,1.00,1,1,1,824.23,-0.45,69710.76,403.32,1.35,88042.32,203.50,2.59,37542.73,464.51,-2.80,10231.24,579.28,2.77,2658.23
160200,912.39,1044.14,1.00,1,1,1,1277.45,2.03,124558.59,1026.72,2.34,54630.79,827.03,2.62,38976.80,451.53,-2.89,2829.44,647.83,2.69,5199.82
192200,887.11,1061.18,1.00,1,1,1,952.87,2.55,20445.73,1309.36,2.81,19027.48,1273.81,2.82,15397.02,473.95,3.10,4288.89,767.75,2.74,3932.63
209600,851.23,1065.18,1.00,1,1,1,2074.69,3.03,75122.53,1927.64,-3.10,49266.83,997.69,3.06,22347.07,555.77,2.70,12455.13,919.60,2.82,9474.01
225300,823.37,1058.34,1.00,0,0,0,1827.64,-2.90,46214.25,792.87,-2.76,76921.50,770.60,-3.06,16993.70,817.14,2.63,16972.62,1002.26,2.82,5270.56
256100,817.00,1051.50,1.00,2,2,2,303.43,-2.32,51383.92,68.88,-0.78,26720.84,287.05,2.97,16187.41,885.87,2.77,4594.36,1166.14,2.80,5379.60
272200,825.67,1056.07,1.00,2,2,2,609.12,0.49,55974.14,669.87,0.97,42563.33,450.14,2.04,22415.54,1234.31,2.80,21710.50,1383.26,2.82,13553.16
288000,829.07,1069.13,1.00,2,2,2,853.70,1.32,39932.54,1198.86,2.06,67824.56,891.59,2.27,29461.99,1577.02,2.73,22521.11,1330.58,2.93,9910.80
304500,807.34,1090.18,1.00,4,4,4,1834.01,2.37,96801.70,1723.66,2.65,59685.60,1942.86,2.59,68675.02,1673.00,2.65,9816.33,1149.59,3.06,14941.90
320100,780.25,1095.15,1.00,4,4,4,1765.91,2.96,67069.12,2940.39,2.81,81098.27,3165.42,2.71,80363.74,2152.79,2.66,30773.99,1030.68,-2.97,18929.81
336000,719.88,1120.68,1.00,4,4,4,4121.95,2.74,152754.05,4615.06,2.73,106974.80,2984.30,2.74,12970.20,2408.55,2.76,21560.90,1038.17,-2.78,12667.39
352100,645.18,1154.87,1.00,4,4,4,5102.99,2.71,61489.52,3020.57,2.69,99310.09,3223.66,2.74,14910.38,2209.96,2.99,35161.38,994.01,-2.73,4188.00
384000,589.21,1183.49,1.00,4,4,4,1970.62,2.67,98288.92,2301.07,2.77,23362.80,2812.07,2.85,16423.29,1651.93,-2.98,25416.75,1067.10,-2.82,3848.88
400300,541.95,1195.42,1.00,4,4,4,2990.53,2.89,70978.63,2652.66,3.12,57453.61,1702.40,-2.86,101789.45,1423.81,-2.61,37870.85,1203.69,-2.87,9060.04
416200,503.81,1185.30,1.00,4,4,4,2481.40,-2.88,91667.34,2616.44,-1.91,194512.76,2054.34,-1.69,131579.56,1391.76,-2.16,39142.53,1120.46,-2.87,5240.35
432000,514.49,1117.16,1.00,4,4,4,4365.32,-1.42,303286.92,4698.60,-1.09,220700.12,3349.89,-1.28,106804.60,1388.71,-1.89,24220.21,1159.29,-2.85,2931.17
448000,573.23,1052.99,1.00,4,4,4,5437.32,-0.83,188187.50,4818.69,-0.96,39914.54,3966.67,-1.15,48642.04,1652.92,-1.88,16523.87,1067.93,-2.79,6986.56
464100,603.74,990.83,1.00,2,2,2,4300.96,-1.11,110715.42,3261.61,-1.23,118147.50,2299.04,-1.23,104712.20,1695.89,-1.82,7279.31,1006.42,-2.76,4262.94
480100,608.01,954.23,1.00,2,2,2,2302.51,-1.45,141551.11,1138.06,-2.10,166883.84,1394.98,-2.10,110170.59,1383.52,-1.60,28442.26,885.09,-2.61,11769.52
512100,576.20,943.65,1.00,2,2,2,1047.59,-2.82,72728.57,1903.34,3.12,52587.60,1561.96,-2.88,35497.97,952.82,-1.72,14147.62,743.69,-2.36,7561.19
528100,516.68,956.62,1.00,2,2,2,3807.26,2.93,184697.14,2951.84,2.98,68506.22,1151.54,3.05,38638.90,671.65,-2.39,37098.80,742.73,-2.11,11709.19
544100,482.96,958.79,1.00,2,2,2,2111.69,3.08,109250.43,422.57,2.78,158715.86,1091.05,2.88,12743.32,700.96,-3.01,26362.45,740.82,-1.94,7804.97
576300,497.65,963.88,1.00,2,2,2,482.80,0.33,79614.49,239.46,0.70,17946.54,346.09,2.67,23490.96,758.25,2.98,6889.91,645.97,-1.82,3928.91
592200,491.77,966.21,1.00,2,2,2,397.97,2.76,51962.24,275.71,2.50,25379.65,163.82,1.69,18151.05,685.38,2.73,12235.16,481.83,-2.04,12795.86
624200,487.10,971.82,1.00,2,2,2,228.08,2.26,7057.72,278.87,2.48,161.92,307.51,2.63,7801.79,341.34,2.49,11329.53,470.08,-2.60,8312.00
640600,481.10,974.49,1.00,2,2,2,399.98,2.72,13408.70,363.12,2.79,7832.99,335.34,2.21,8385.60,219.64,2.27,8302.80,494.27,-3.06,13331.95
656300,476.17,975.87,1.00,2,2,2,326.60,2.87,5768.19,452.59,1.95,21673.40,354.04,2.23,1279.84,306.95,2.72,9256.08,526.09,3.01,7277.04
672100,475.78,987.72,1.00,2,2,2,750.30,1.60,45762.80,444.37,1.78,4917.51,371.26,2.64,9462.05,301.92,2.87,2919.05,470.96,2.93,4313.17
688100,473.21,989.69,1.00,2,2,2,202.16,2.49,40078.77,485.48,-3.01,39431.70,308.63,2.80,5162.34,299.97,3.05,3432.32,267.56,2.90,12726.45
704000,460.42,985.72,1.00,2,2,2,842.34,-2.84,46805.59,433.38,-2.88,5001.19,395.52,-2.87,14271.49,244.54,3.06,3487.09,160.57,2.77,6955.11
737500,452.52,984.18,1.00,1,1,1,240.14,-2.95,18033.84,342.47,-2.74,3177.87,403.62,-2.69,2121.38,244.06,3.13,542.33,201.98,2.89,1410.50
752400,445.18,979.21,1.00,1,1,1,595.37,-2.55,25908.31,390.43,-2.35,9918.21,206.03,-2.62,13343.97,291.93,-2.80,6971.77,157.82,2.94,3022.96
768200,444.08,975.68,1.00,1,1,1,234.01,-1.87,27682.12,63.14,-1.07,23885.65,222.76,-2.54,1529.16,260.99,-2.83,2004.12,164.94,3.05,1189.03
784100,446.14,977.45,1.00,1,1,1,171.12,0.71,24518.72,96.15,2.96,9080.78,166.83,-2.61,3628.00,166.10,-2.83,5967.97,141.46,3.10,1546.02
800200,441.05,976.22,1.00,1,1,1,325.37,-2.90,30063.58,332.77,-2.79,15787.80,133.56,3.03,6201.45,107.39,-2.79,3662.25,152.22,3.14,751.06
816700,435.94,973.76,1.00,1,1,1,343.72,-2.69,4443.29,158.71,3.06,12096.52,137.74,3.13,868.75,25.20,-1.70,5957.64,140.34,-2.88,2429.10
848200,433.45,976.84,1.00,1,1,1,125.64,2.25,10732.03,81.54,1.78,4951.43,49.08,2.40,3386.53,29.91,3.05,1218.10,131.10,-2.87,299.98
864100,435.12,977.54,1.00,1,1,1,113.60,0.40,12040.29,161.60,0.41,10459.73,112.87,0.21,9234.30,50.09,-2.99,1393.11,79.23,-2.76,3334.69
880000,438.17,978.88,1.00,2,2,2,209.61,0.42,6041.44,304.95,-0.20,12276.94,99.68,-0.12,2343.17,69.63,-3.13,1322.71,61.14,-2.70,1165.49
896200,444.72,975.62,1.00,2,2,2,451.71,-0.46,21995.83,100.82,-1.05,15453.90,41.68,-0.39,3729.67,24.77,2.53,3183.49,18.85,3.13,2773.23
912200,439.79,976.07,1.00,2,2,2,309.57,3.05,46789.58,136.59,3.04,13243.10,108.87,-2.81,8937.03,10.42,1.96,1063.64,36.24,2.99,1111.33
944100,438.21,976.28,1.00,1,1,1,49.87,3.00,8142.83,205.82,-3.14,2236.31,129.02,3.09,1536.97,13.41,-0.61,717.30,32.47,-2.88,459.85
960200,429.91,976.06,1.00,1,1,1,515.92,-3.11,28992.80,121.83,-3.13,5216.95,76.56,2.82,3660.92,21.85,-2.32,1688.26,22.77,-2.92,606.25
992000,432.37,976.24,1.00,1,1,1,77.80,0.07,18668.21,78.09,0.67,5960.14,16.68,3.13,1913.83,40.09,2.53,1345.98,8.07,-1.87,629.94
1008000,432.83,978.38,1.00,1,1,1,137.04,1.36,8598.83,140.23,0.01,5738.55,73.69,0.05,5646.73,41.49,2.95,1053.45,27.21,-1.12,1371.95
1024100,436.88,976.30,1.00,1,1,1,282.68,-0.47,21434.72,112.43,-0.61,5078.26,119.99,0.41,3555.37,16.24,-2.52,2025.16,13.29,-0.78,951.82
1040000,435.78,976.33,1.00,1,1,1,68.85,3.12,21757.01,122.62,0.86,9896.94,11.72,-1.80,8007.42,26.84,-0.34,2418.36,11.54,-2.18,1009.35
1056200,439.45,979.28,1.00,1,1,1,290.72,0.68,21372.31,69.59,2.80,9960.56,21.53,-2.04,646.92,39.47,-1.05,1599.63,25.82,-2.54,959.89
1088400,432.61,977.47,1.00,1,1,1,219.80,-2.88,15516.44,117.36,-2.21,3659.32,31.39,-2.39,417.82,68.89,-1.13,922.83,11.67,-1.81,584.86
1104100,436.10,974.76,1.00,1,1,1,281.20,-0.66,28663.77,99.65,-1.13,7150.44,113.29,-2.06,5362.65,13.62,-0.97,3534.44,18.41,-0.84,972.02
1120000,433.95,974.61,1.00,1,1,1,135.95,-3.07,24731.45,112.14,-1.83,4599.01,144.41,-1.07,7893.70,3.35,-1.06,646.81,22.04,-0.37,634.04
1136100,435.19,971.29,1.00,1,1,1,220.18,-1.21,18000.97,188.61,-1.04,8419.75,29.36,-0.04,8176.16,52.96,-1.76,3132.30,14.37,2.41,2225.89
1152200,437.03,969.38,1.00,1,1,1,164.88,-0.80,5899.82,137.19,0.88,16678.79,30.46,0.54,1064.06,56.04,-0.67,3487.49,35.29,2.90,1464.12
1168100,437.98,974.68,1.00,1,1,1,338.72,1.39,28646.39,136.82,1.72,7027.52,34.15,-0.12,1336.52,44.58,-0.42,1064.40,61.98,2.94,1683.07
1200100,436.04,975.86,1.00,1,1,1,70.83,2.59,10001.76,77.68,-1.59,6680.22,44.88,1.02,1368.28,16.80,-0.41,868.34,19.32,2.48,1421.71
1216100,437.90,970.95,1.00,1,1,1,327.83,-1.21,24133.72,139.30,-0.88,5972.86,59.09,-0.57,4688.53,67.32,2.22,5149.66,39.27,0.02,3475.07
1232100,438.90,972.44,1.00,1,1,1,111.96,0.98,25186.67,131.83,0.28,9261.35,33.81,-1.50,2962.00,116.65,2.47,3372.45,106.97,0.01,4231.27
1248100,441.95,972.12,1.00,1,1,1,191.77,-0.10,10662.29,87.60,2.72,12921.40,183.59,2.39,13099.24,126.84,2.87,3092.73,127.56,0.05,1319.09
1265900,436.20,973.64,1.00,1,1,1,334.54,2.88,29486.12,447.60,2.64,20244.79,232.05,2.66,4179.85,44.27,2.45,4968.56,154.72,0.01,1560.71
1280300,429.29,979.01,1.00,1,1,1,607.21,2.48,22693.99,337.88,2.65,7623.96,310.59,2.82,6136.53,103.07,0.55,8655.56,122.66,0.08,2313.49
1312100,422.41,980.97,1.00,1,1,1,224.91,2.86,12805.72,228.57,3.04,4821.36,103.33,2.25,7245.32,167.11,0.20,2457.35,97.28,0.07,798.86
1328100,418.42,980.09,1.00,2,2,2,255.69,-2.92,7599.41,275.87,-0.12,31526.04,236.43,0.02,19385.40,207.50,0.14,2629.77,101.60,-0.25,1973.46
1344000,431.15,979.94,1.00,2,2,2,800.99,-0.01,66139.99,694.52,-0.02,26476.13,534.43,-0.07,18866.32,283.33,0.03,5044.27,119.66,-0.29,1176.62
1376500,452.03,979.54,1.00,1,1,1,642.44,-0.02,4881.39,705.77,-0.06,1041.83,706.38,-0.06,5297.48,270.96,-0.11,1292.09,154.78,-0.04,1526.30
1392200,465.11,977.83,1.00,1,1,1,840.00,-0.13,13599.31,726.95,-0.12,3050.85,625.22,-0.10,5416.67,311.81,-0.21,3212.81,230.22,-0.03,4806.87
1408100,474.83,976.74,1.00,1,1,1,615.37,-0.11,14150.70,505.58,-0.17,14054.03,329.73,-0.26,19155.83,355.24,-0.26,2877.82,278.55,-0.11,3318.61
1424100,481.00,975.07,1.00,1,1,1,399.31,-0.27,14313.65,110.23,-2.31,35779.58,102.90,-1.34,18459.57,280.29,-0.36,5068.08,346.10,-0.19,4503.45
1440500,472.42,974.11,1.00,1,1,1,526.14,-3.03,55449.91,446.74,-2.89,21904.82,186.22,-2.19,8619.72,251.46,-0.32,1833.31,351.38,-0.21,588.92
1457300,466.65,971.31,1.00,1,1,1,381.74,-2.69,12435.76,265.08,-2.14,18469.35,235.72,-2.48,4707.81,308.22,-0.16,4293.62,335.37,-0.07,3152.24
1472200,467.91,967.02,1.00,1,1,1,300.71,-1.28,29906.99,193.22,-1.16,15054.77,174.66,-0.45,23560.44,369.08,-0.27,4679.70,363.17,0.04,3185.86
1488200,469.03,965.84,1.00,0,0,0,101.49,-0.81,13472.59,461.30,0.16,28325.51,535.82,-0.02,23991.52,428.18,-0.35,4278.40,470.55,0.14,7170.50
1504100,482.44,969.32,1.00,0,0,0,871.52,0.25,52007.91,837.46,0.12,23705.71,730.43,-0.07,12427.68,443.68,-0.28,2130.81,660.30,-0.00,12952.05
1536100,508.86,970.59,1.00,0,0,0,826.54,0.05,5622.55,919.94,-0.15,7726.02,885.84,-0.17,5454.17,365.78,0.06,4949.92,838.29,-0.08,5854.69
1552100,526.12,962.82,1.00,2,2,2,1182.83,-0.42,36435.49,1070.37,-0.51,24204.57,659.77,-0.25,14611.90,401.36,0.31,6342.44,990.06,-0.12,9680.78
1568300,538.95,953.78,1.00,4,4,4,968.89,-0.61,18229.94,309.58,-0.71,47524.61,166.93,0.38,32921.19,707.57,0.33,18915.13,1029.07,-0.15,3171.82
1584100,533.60,956.33,1.00,4,4,4,375.05,2.70,84812.87,905.95,2.34,76879.13,344.44,1.72,21955.66,996.12,0.06,23220.17,1096.08,-0.18,4656.44
1600200,518.82,974.51,1.00,4,4,4,1455.76,2.25,70110.87,945.44,1.93,23521.49,818.60,1.04,36696.31,1315.88,-0.06,21739.06,1167.70,-0.16,4592.16
1616100,522.91,984.63,1.00,4,4,4,686.43,1.19,80199.53,1637.94,0.48,112469.17,1372.70,0.21,64312.70,1553.11,-0.08,15022.79,1231.85,-0.17,4149.69
1632400,565.51,999.04,1.00,2,2,2,2758.72,0.33,145313.44,2437.77,-0.05,80830.86,2094.16,-0.09,53602.11,1530.57,-0.10,2242.56,1181.82,-0.17,3071.60
1665300,642.72,979.06,1.00,2,2,2,2424.22,-0.25,46049.29,2495.31,-0.27,16521.95,2648.98,-0.17,17839.49,1630.85,-0.15,3925.96,1175.77,-0.19,559.10
1696200,719.11,957.19,1.00,2,2,2,2571.43,-0.28,5197.44,2905.78,-0.27,13302.85,2253.76,-0.29,16149.81,1828.00,-0.20,6818.62,1200.58,-0.24,2069.75
1712200,773.91,942.17,1.00,0,0,0,3551.65,-0.27,61301.57,1935.83,-0.34,61344.78,1970.55,-0.36,20082.74,1951.14,-0.25,10065.01,1192.33,-0.25,982.21
1744200,806.79,926.42,1.00,0,0,0,1139.06,-0.45,76228.32,1096.83,-0.60,28808.44,1548.02,-0.38,13219.85,1624.97,-0.33,11104.11,1174.17,-0.25,591.06
1760100,817.26,912.48,1.00,0,0,0,1096.50,-0.93,33479.30,971.44,-0.49,10529.54,1161.58,-0.48,25848.58,1387.62,-0.35,15032.91,1210.23,-0.26,2441.62
1776000,834.00,911.80,1.00,0,0,0,1053.58,-0.04,57979.37,1281.99,-0.33,22600.35,757.08,-0.49,25446.53,1127.65,-0.44,17784.17,1211.15,-0.31,3400.83
1792900,857.03,898.83,1.00,0,0,0,1564.17,-0.51,46643.06,615.37,-0.49,40296.21,698.86,-0.30,8909.43,889.34,-0.54,15270.94,1329.44,-0.32,7075.25
1824100,860.15,897.93,1.00,1,1,1,103.94,-0.28,46898.94,296.27,-0.20,10933.68,718.23,-0.57,6207.90,809.44,-0.60,3151.29,1412.15,-0.36,3129.18
1840200,870.76,895.99,1.00,1,1,1,669.73,-0.18,35179.37,879.60,-0.66,38970.28,617.84,-0.65,6944.66,742.00,-0.56,4607.69,1416.52,-0.32,3616.32
1856100,882.38,880.66,1.00,1,1,1,1209.62,-0.92,53218.71,1150.53,-0.81,19457.74,887.59,-0.73,17378.53,534.59,-0.79,15898.18,1380.65,-0.30,2973.15
1872200,896.16,869.34,1.00,1,1,1,1107.97,-0.69,17975.15,899.37,-0.79,15640.82,858.05,-0.84,6194.11,593.63,-0.61,7287.39,1285.28,-0.28,6183.70
1888100,902.60,860.19,1.00,1,1,1,703.87,-0.96,29482.23,566.82,-0.89,21379.82,382.63,-1.34,34901.51,1097.13,-0.43,33074.24,1170.87,-0.27,7210.40
1904200,907.58,855.24,1.00,2,2,2,435.55,-0.78,17713.05,469.65,-2.92,54699.07,564.50,-0.57,24416.77,1453.08,-0.28,24742.42,1089.71,-0.26,5052.73
1920100,887.96,856.82,1.00,2,2,2,1237.79,3.06,100328.03,616.62,-0.28,66176.73,1371.39,-0.23,54062.09,1683.04,-0.19,17058.10,1000.62,-0.29,5767.78
1936200,926.53,849.78,1.00,1,1,1,2435.69,-0.18,227909.47,3164.87,-0.17,158577.60,2056.99,-0.11,44487.89,1777.61,-0.13,8803.81,873.64,-0.25,8183.65
1952200,988.12,839.83,1.00,1,1,1,3898.92,-0.16,91535.38,3010.10,-0.09,18309.94,2915.81,-0.10,53715.99,1598.65,-0.10,11581.30,900.00,-0.22,2240.67
1984900,1072.57,836.98,1.00,1,1,1,2583.98,-0.03,42042.05,2758.76,-0.04,8665.91,2799.18,-0.06,4654.66,1446.48,-0.13,4795.75,1036.33,-0.18,4306.42
2000200,1120.42,834.27,1.00,1,1,1,3132.84,-0.06,36124.92,2474.21,-0.02,19158.18,1795.61,-0.02,65846.16,1499.54,-0.13,3468.99,1272.79,-0.14,15861.26
2016100,1149.75,835.81,1.00,1,1,1,1847.28,0.05,82526.36,364.52,0.19,133258.77,825.55,-0.17,62071.97,1175.46,-0.09,20702.59,1529.21,-0.13,16156.22
2032300,1131.91,836.50,1.00,1,1,1,1102.36,3.10,181899.73,338.82,-2.47,42197.44,124.99,-0.97,45923.97,790.24,-0.01,24164.76,1668.23,-0.10,8832.74
2064100,1136.98,825.75,1.00,1,1,1,373.79,-1.13,41419.09,251.06,-2.08,4531.18,450.05,-3.08,16522.50,677.19,0.01,3601.79,1564.61,-0.10,3269.53
2080200,1126.05,826.00,1.00,1,1,1,679.16,3.12,56518.42,766.23,2.81,47417.37,52.55,2.83,24931.58,909.15,-0.04,14660.84,1615.42,-0.10,3171.25
2096100,1113.81,833.77,1.00,2,2,2,911.76,2.58,30297.27,252.08,1.48,46937.62,564.57,0.28,38298.96,1305.99,-0.12,25481.32,1475.72,-0.12,8875.32
2128100,1127.11,838.03,1.00,2,2,2,436.51,0.31,38677.21,1389.87,0.07,42920.20,1748.55,0.01,37914.24,1730.94,-0.11,13293.39,1281.36,-0.12,6073.58
2144100,1180.37,838.29,1.00,3,3,3,3328.60,0.00,182197.27,4351.82,-0.07,186375.64,3053.96,-0.09,83030.60,1683.77,-0.07,4443.22,842.45,-0.13,27447.42
2160000,1265.57,827.95,1.00,1,1,1,5397.83,-0.12,134387.18,5578.98,-0.15,81037.88,4390.72,-0.11,84157.86,1732.42,-0.08,3104.88,319.97,-0.02,33063.74
2176200,1357.38,811.10,1.00,1,1,1,5761.86,-0.18,30665.53,4434.78,-0.14,70670.52,2845.16,-0.14,95700.28,1774.79,-0.13,6553.73,237.79,2.75,33850.31
2192300,1407.32,807.30,1.00,1,1,1,3110.73,-0.08,166986.75,1013.77,-0.11,212530.48,1731.57,-0.17,69287.60,1887.20,-0.17,7892.82,482.00,2.85,15308.51
2224100,1405.64,805.71,1.00,1,1,1,72.85,-2.38,99372.59,127.22,-2.57,35082.43,526.58,-0.38,38391.54,1037.88,-0.23,26855.84,613.10,2.86,4124.59
2240100,1402.19,804.03,1.00,2,2,2,239.53,-2.69,10720.18,409.87,-2.27,18193.42,232.21,-2.24,39541.24,333.66,3.04,85579.12,525.49,2.89,5580.60
2257100,1396.95,795.34,1.00,2,2,2,597.08,-2.11,24542.82,402.55,-2.08,4477.94,1243.46,-3.12,65347.27,1940.59,2.95,94622.86,484.59,3.00,4149.16
2272500,1395.82,792.65,1.00,2,2,2,189.29,-1.97,26662.15,2300.14,3.02,141540.33,2912.76,2.99,110520.07,2685.77,2.97,48445.94,530.79,3.12,4818.57
2288200,1325.95,804.02,1.00,2,2,2,4508.95,2.98,284590.89,5759.11,2.92,221503.79,5093.01,2.93,139627.51,3146.83,2.98,29450.77,720.80,3.12,12102.49
2304200,1217.68,832.59,1.00,2,2,2,6998.49,2.88,159252.10,7819.24,2.90,128985.85,5281.66,2.93,11812.82,3022.19,3.00,8451.43,1155.03,3.04,27486.16
2320200,1082.83,863.21,1.00,2,2,2,8642.32,2.92,104114.09,4966.68,2.94,178831.85,4691.55,2.94,37095.69,3024.82,3.01,1235.93,1578.16,3.00,26703.45
2352200,984.17,880.64,1.00,1,1,1,3130.99,2.97,172408.93,2619.54,3.03,73997.84,3110.23,3.01,49992.87,2951.88,3.03,2967.33,1936.18,3.00,11189.77
2368200,957.94,877.78,1.00,1,1,1,1648.96,-3.03,100949.92,611.58,-2.28,145713.03,1440.54,-3.06,108089.12,2293.58,3.03,41169.25,2185.21,2.99,15579.57
2384100,971.41,865.88,1.00,1,1,1,1130.16,-0.72,160415.78,798.62,-1.18,47713.66,627.41,-1.82,86307.07,1896.22,3.04,25013.53,2182.64,2.99,493.03
2400300,967.81,854.12,1.00,1,1,1,759.66,-1.87,66037.44,756.39,-1.46,13687.39,435.33,-1.47,16282.74,1285.07,3.06,37743.46,2166.14,2.98,2251.35
2416300,974.18,841.69,1.00,1,1,1,873.13,-1.10,38935.05,266.62,-2.11,35469.76,693.06,-3.08,51957.05,1189.49,3.05,5974.29,2135.41,2.97,2225.80
2448100,961.30,843.16,1.00,2,2,2,407.71,3.03,36174.55,1292.54,2.80,39905.64,1188.23,2.89,17973.11,1320.02,3.01,4477.14,1899.65,2.96,7425.51
2464000,916.14,862.48,1.00,2,2,2,3089.31,2.74,169887.32,2311.88,2.78,64149.86,1961.36,2.84,48825.17,1439.24,2.98,7789.47,1437.43,2.99,29223.22
2496100,857.64,882.76,1.00,1,1,1,1928.93,2.81,36545.90,2626.43,2.86,11802.73,2766.28,2.86,25096.35,1400.44,2.93,2787.52,989.78,3.05,14083.16
2512100,794.70,897.30,1.00,1,1,1,4037.05,2.91,133064.19,3464.87,2.93,54086.43,2180.97,2.92,37806.93,1412.42,2.87,5422.20,741.22,3.08,15651.68
2528300,748.48,905.82,1.00,1,1,1,2901.42,2.96,70733.60,1580.08,3.05,117454.41,1720.00,2.97,29108.51,1479.61,2.84,4683.69,634.10,3.10,6679.57
2546700,740.28,902.57,1.00,1,1,1,478.90,-2.76,136333.16,127.66,-1.48,87449.87,596.25,2.99,61084.97,986.74,2.90,27023.25,466.37,3.12,9124.40
2560300,748.86,901.75,1.00,1,1,1,633.21,-0.10,79543.04,567.95,0.03,42204.20,145.14,0.03,54378.67,631.07,3.02,27148.85,195.78,3.09,19906.50
2576100,756.98,903.04,1.00,1,1,1,520.32,0.16,11634.41,310.32,0.45,19770.06,291.31,-0.07,9345.38,246.92,-3.06,24846.01,65.78,0.35,16308.01
2592100,757.73,906.06,1.00,1,1,1,194.51,1.33,29909.98,129.15,-0.36,15003.38,246.46,-0.42,6394.23,185.75,-0.89,23983.02,304.41,0.00,15213.14
2624200,762.80,900.88,1.00,1,1,1,225.81,-0.80,11439.67,317.56,-0.93,6871.18,113.30,-1.32,6133.21,673.53,-0.36,16255.34,489.16,-0.08,5848.53
2640800,766.97,893.66,1.00,1,1,1,502.20,-1.05,17395.98,234.69,-2.06,18338.04,278.51,-1.22,10006.80,1150.90,-0.27,29097.55,669.14,-0.23,11947.98
2656200,759.25,894.26,1.00,2,2,2,503.05,3.06,57761.87,277.14,-1.76,5770.76,1154.28,-0.44,63390.49,1517.73,-0.22,24155.74,879.54,-0.24,13686.56
2672100,765.38,885.14,1.00,2,2,2,691.30,-0.98,67801.38,2332.56,-0.34,145041.99,2303.17,-0.25,74788.63,1892.45,-0.21,23636.14,1065.46,-0.25,11694.54
2688200,829.63,869.41,1.00,3,3,3,4108.67,-0.24,225323.95,4538.88,-0.19,140225.07,2985.01,-0.19,43477.33,2125.15,-0.17,15361.87,1027.75,-0.21,3251.75
2704200,908.40,857.30,1.00,1,1,1,4980.44,-0.15,59844.75,3443.70,-0.12,70452.72,3647.19,-0.14,42557.83,1980.44,-0.19,9679.81,989.83,-0.20,2527.82
2736300,993.99,848.81,1.00,1,1,1,2679.58,-0.10,71936.93,3055.70,-0.09,12473.16,2947.89,-0.08,22680.91,1884.08,-0.21,3101.18,926.12,-0.19,1998.19
2752000,1053.81,843.56,1.00,1,1,1,3824.85,-0.09,72984.68,2214.34,0.02,56868.12,1730.47,-0.13,77874.51,1892.09,-0.19,1456.26,959.20,-0.24,3612.11
2768100,1064.39,850.26,1.00,1,1,1,778.01,0.56,201316.39,298.56,-2.67,154439.46,780.60,-0.26,59759.14,1320.29,-0.15,35737.03,1175.90,-0.22,13547.81
2784000,1045.30,839.22,1.00,1,1,1,1387.19,-2.62,136150.26,425.38,-2.10,14974.68,236.74,-1.11,40807.96,864.41,-0.12,28764.37,1366.84,-0.17,12477.44
2816100,1054.14,832.61,1.00,1,1,1,343.92,-0.64,48438.86,439.76,-0.64,17926.30,180.57,-1.87,5091.18,342.57,-0.04,16312.61,1503.48,-0.16,4301.79
2832000,1062.21,826.58,1.00,1,1,1,633.26,-0.64,18197.47,108.51,0.21,23722.68,157.93,-0.02,17048.53,66.25,-1.37,20957.08,1585.94,-0.14,5567.39
2864200,1059.24,833.69,1.00,1,1,1,239.18,1.97,26331.38,250.42,1.69,8192.26,182.52,1.91,8711.50,338.45,-0.50,9316.65,1409.44,-0.12,5539.53
2881700,1060.73,838.94,1.00,1,1,1,311.67,1.30,11067.34,493.30,2.24,17606.68,113.81,2.34,5221.15,819.05,-0.13,29623.66,1133.86,-0.13,15750.25
2897400,1049.13,846.57,1.00,2,2,2,884.21,2.56,53760.99,247.89,-2.27,37980.43,836.25,-0.18,59291.58,1129.84,-0.08,20020.69,625.98,-0.07,32505.57
2912100,1055.89,833.16,1.00,2,2,2,1022.03,-1.10,125313.25,2168.82,-0.34,154173.31,1855.99,-0.15,69424.38,1288.10,-0.06,10970.63,112.02,1.35,42111.81
2928100,1111.82,824.13,1.00,2,2,2,3540.50,-0.16,190949.14,3747.38,-0.09,108195.48,2371.91,-0.16,32261.00,1520.06,-0.09,14729.90,487.46,2.73,29908.84
2944100,1175.28,821.91,1.00,3,3,3,3968.91,-0.03,39688.69,2537.47,-0.05,76009.60,2655.63,-0.09,20735.23,1469.53,-0.13,5130.18,651.79,2.77,10377.96
2976700,1234.96,817.46,1.00,1,1,1,1835.65,-0.07,65518.30,1933.95,-0.08,18582.90,2068.64,-0.06,18125.67,913.84,-0.08,17152.85,466.70,2.94,6353.65
2992500,1268.60,814.63,1.00,1,1,1,2136.82,-0.08,19099.05,1347.70,-0.07,37115.10,1168.92,-0.11,57176.69,285.78,1.45,59771.34,1288.10,-0.06,110835.99
3008300,1277.44,814.52,1.00,1,1,1,559.70,-0.01,99939.68,95.93,-1.66,85609.83,566.34,2.73,108739.84,1304.17,2.70,78892.40,1520.06,-0.09,14916.36
3024200,1268.34,811.60,1.00,2,2,2,601.09,-2.83,72056.67,1805.07,2.90,114638.99,2715.09,2.84,135418.19,2106.47,2.86,53053.39,1469.53,-0.13,5162.45
3056100,1193.73,835.41,1.00,2,2,2,2455.19,2.83,62582.46,4518.33,2.83,85277.49,4545.71,2.87,57478.25,2250.80,3.01,10784.47,913.84,-0.08,17529.24
3072300,1061.59,878.58,1.00,1,1,1,8581.01,2.83,378142.47,8445.70,2.86,242805.89,5364.73,2.90,51243.27,2715.09,2.84,38013.94,285.78,1.45,58295.51
3089700,920.84,913.26,1.00,1,1,1,8330.95,2.90,38815.08,6667.01,2.97,112127.61,4371.12,3.05,70803.43,4545.71,2.87,105376.79,1304.17,2.70,71637.93
3104400,850.70,915.00,1.00,1,1,1,4772.89,3.12,259222.04,1724.20,-1.68,475498.29,6667.01,2.97,158843.59,5364.73,2.90,56472.17,2106.47,2.86,57384.27
3120100,915.16,861.15,1.00,1,1,1,5350.02,-0.70,608932.22,5350.02,-0.70,294450.78,1724.20,-1.68,445211.78,4371.12,3.05,78470.05,2250.80,3.01,21912.40
