@RELATION gaze_labels

%@METADATA width_px 1920
%@METADATA height_px 1080
%@METADATA width_mm 540.00
%@METADATA height_mm 254.00
%@METADATA distance_mm 620.00


@ATTRIBUTE time INTEGER
@ATTRIBUTE x NUMERIC
@ATTRIBUTE y NUMERIC
@ATTRIBUTE confidence NUMERIC
@ATTRIBUTE handlabeller1 INTEGER
@ATTRIBUTE handlabeller2 INTEGER
@ATTRIBUTE handlabeller_final INTEGER
@ATTRIBUTE speed_1 numeric
@ATTRIBUTE direction_1 numeric
@ATTRIBUTE acceleration_1 numeric
@ATTRIBUTE speed_2 numeric
@ATTRIBUTE direction_2 numeric
@ATTRIBUTE acceleration_2 numeric
@ATTRIBUTE speed_4 numeric
@ATTRIBUTE direction_4 numeric
@ATTRIBUTE acceleration_4 numeric
@ATTRIBUTE speed_8 numeric
@ATTRIBUTE direction_8 numeric
@ATTRIBUTE acceleration_8 numeric
@ATTRIBUTE speed_16 numeric
@ATTRIBUTE direction_16 numeric
@ATTRIBUTE acceleration_16 numeric

%The number after speed, direction denotes the step size that was used for the calculation.
%Acceleration was calculated between two adjacent samples of the already low pass filtered velocity

@DATA
0,666.36,697.90,1.00,2,2,2,0.00,0.00,0.00,1252.91,-0.72,0.00,3022.80,-0.57,0.00,4220.02,-0.54,0.00,1581.33,-0.45,0.00
16100,681.54,684.62,1.00,2,2,2,1252.91,-0.72,77820.25,3022.80,-0.57,111365.37,5515.40,-0.52,155340.41,4401.16,-0.51,13495.31,493.74,0.03,72433.18
32000,747.72,645.60,1.00,3,3,3,4832.33,-0.53,226950.83,5515.40,-0.52,157294.38,4220.02,-0.54,81681.72,2890.73,-0.49,95113.85,1326.82,2.39,107672.10
47900,833.64,597.29,1.00,3,3,3,6199.04,-0.51,86244.62,5423.23,-0.52,5844.11,4401.16,-0.51,13665.06,896.87,-0.41,125694.32,2742.71,2.59,92351.39
63900,897.57,559.13,1.00,1,1,1,4653.16,-0.54,97006.35,3297.85,-0.50,132997.02,2890.73,-0.49,94519.39,1581.33,-0.45,42888.75,3710.95,2.68,62763.98
80000,926.61,546.66,1.00,1,1,1,1963.05,-0.41,168925.34,413.88,-0.06,181833.27,896.87,-0.41,124132.90,493.74,0.03,72433.18,3530.72,2.75,20566.02
96000,910.83,558.28,1.00,1,1,1,1224.66,2.51,198000.83,724.89,2.45,67994.00,599.37,2.15,89659.62,1326.82,2.39,106999.15,3109.97,2.81,28921.48
128100,899.70,568.84,1.00,2,2,2,477.88,2.38,23453.87,1187.77,2.33,14813.81,2790.62,2.46,69434.18,2742.71,2.59,45744.14,3119.41,2.81,371.21
143900,871.46,599.35,1.00,2,2,2,2631.49,2.32,136381.57,5895.73,2.47,298766.97,4661.01,2.52,119033.02,3710.95,2.68,63558.46,675.88,2.95,155174.23
160100,752.60,686.96,1.00,2,2,2,9115.08,2.51,404266.05,9878.58,2.55,249108.32,6392.82,2.61,111682.43,3530.72,2.75,20439.07,678.88,2.93,922.63
176000,608.21,776.14,1.00,4,4,4,10673.15,2.59,110376.29,6794.26,2.70,208685.54,6903.64,2.72,55221.01,3109.97,2.81,29103.37,893.16,2.85,13946.44
207900,459.03,825.85,1.00,4,4,4,4929.42,2.82,187563.15,5138.19,2.94,68449.09,4297.52,2.91,87811.15,3119.41,2.81,373.54,1194.60,2.81,9552.34
224100,366.01,825.35,1.00,2,2,2,5741.77,-3.14,118115.61,2422.64,-2.76,209672.42,2282.28,-2.95,148185.87,2682.89,2.81,26958.00,1410.15,2.79,13385.70
256200,350.64,781.77,1.00,2,2,2,1439.56,-1.91,169071.47,1969.11,-1.28,92717.59,1243.71,-1.88,62533.92,1724.75,2.99,32075.74,1482.55,2.79,2257.26
271900,393.20,735.24,1.00,2,2,2,4016.82,-0.83,227495.66,2926.44,-0.58,121435.95,1654.58,-0.73,103210.00,825.23,-2.73,71360.48,1404.77,2.83,5981.37
287900,428.40,731.19,1.00,3,3,3,2214.68,-0.11,172427.28,2229.28,0.03,104908.39,2191.64,-0.39,52253.95,786.18,-1.30,65766.47,1367.54,2.89,6062.39
304000,464.72,737.41,1.00,1,1,1,2288.99,0.17,39861.03,1608.81,-0.05,39655.00,1482.61,-0.13,52664.19,1217.48,-0.75,42779.38,1260.71,2.98,9627.56
320000,479.98,728.66,1.00,1,1,1,1099.34,-0.52,100158.97,843.05,-0.57,60850.28,963.54,-0.25,33568.79,1351.36,-0.49,22121.50,867.56,-2.98,32376.15
336000,487.42,722.82,1.00,1,1,1,590.75,-0.67,32604.72,477.12,-0.95,27266.63,674.28,-0.81,33256.99,939.19,-0.39,26665.01,599.82,-2.25,36202.63
352900,489.14,715.91,1.00,1,1,1,421.75,-1.33,21650.30,564.95,-1.16,8424.34,569.94,-0.89,6886.29,634.77,-0.73,23571.62,666.08,-1.35,32780.71
368100,494.59,706.17,1.00,1,1,1,734.32,-1.06,22753.54,669.55,-0.85,14474.75,589.29,-1.11,8288.69,565.91,-1.22,19649.96,776.14,-0.93,20924.21
384000,502.91,700.29,1.00,1,1,1,640.68,-0.62,19932.94,615.62,-1.05,8918.53,583.96,-1.41,11036.67,592.58,-1.42,7699.31,771.54,-0.76,8231.75
400000,504.31,689.10,1.00,2,2,2,704.39,-1.45,34109.78,637.23,-1.78,27705.59,566.28,-1.61,7295.57,615.99,-1.50,3245.44,524.94,-0.73,15455.76
432000,496.69,670.34,1.00,1,1,1,632.94,-1.96,10772.33,632.41,-1.95,3548.48,712.73,-1.76,5437.69,546.88,-1.42,2624.57,417.79,-0.90,4158.26
448100,492.93,660.89,1.00,1,1,1,631.37,-1.95,265.43,826.38,-1.73,15619.45,697.70,-1.76,1008.85,445.76,-1.40,6302.56,310.17,-1.21,9511.75
464000,492.43,644.24,1.00,1,1,1,1048.07,-1.60,31682.60,833.51,-1.55,9749.59,501.47,-1.44,17310.81,452.94,-1.46,1648.05,243.21,-1.32,4626.23
479900,493.59,634.40,1.00,1,1,1,623.18,-1.45,27744.78,321.51,-0.60,43724.47,356.55,-1.07,13289.48,348.12,-1.45,6595.03,206.49,-1.43,2773.86
496400,501.01,638.33,1.00,1,1,1,509.19,0.49,56765.58,271.60,0.11,12890.94,306.88,-0.71,7841.12,251.65,-1.31,6367.50,234.00,-1.34,2016.26
528100,506.60,635.86,1.00,1,1,1,192.69,-0.42,13197.69,299.00,-0.78,7840.95,198.57,-0.32,4522.07,101.05,-1.16,4812.46,211.46,-1.55,1639.64
544000,511.09,628.28,1.00,1,1,1,554.21,-1.04,25967.25,190.11,-0.98,7452.82,96.08,-0.85,7863.30,63.93,0.89,8948.77,209.87,-1.64,1147.94
575900,511.66,628.31,1.00,1,1,1,17.86,0.06,17124.00,106.29,2.47,9186.84,113.44,2.21,6562.67,132.15,1.43,2626.73,175.96,-1.69,1102.51
592000,507.08,631.44,1.00,1,1,1,344.16,2.54,22265.13,413.72,2.19,19451.78,281.49,2.01,10680.90,40.12,0.77,6429.10,131.09,-1.45,3575.68
624200,500.08,644.60,1.00,1,1,1,463.02,2.06,6986.51,466.26,1.91,4165.11,407.54,2.04,3929.55,69.45,2.90,3012.15,90.00,-1.30,1366.96
641100,499.54,653.05,1.00,1,1,1,500.99,1.64,12198.85,415.65,1.81,3846.40,147.88,1.65,16340.17,85.53,2.77,1120.34,105.44,-0.90,2463.60
656000,496.90,657.43,1.00,1,1,1,343.05,2.11,16885.60,383.90,-0.98,52868.03,116.29,-2.18,16682.06,101.99,2.81,1129.91,62.08,-0.66,3192.21
671900,506.09,643.21,1.00,1,1,1,1064.89,-1.00,88541.20,591.62,-1.63,23052.93,314.70,-1.63,14093.72,38.86,-3.02,4353.47,59.71,-0.89,866.56
688000,495.82,638.53,1.00,1,1,1,701.10,-2.71,84322.17,391.81,-2.23,21717.19,378.53,-1.54,4465.57,79.90,-1.53,5337.85,6.95,2.49,4129.98
704100,498.33,633.26,1.00,1,1,1,362.57,-1.13,49374.92,177.74,-1.23,20666.67,206.51,-1.92,12600.88,265.10,-1.20,11887.11,56.24,2.31,3069.54
720200,497.75,633.15,1.00,1,1,1,36.62,-2.94,23176.07,126.55,-0.66,6063.35,89.57,-0.86,11249.93,259.40,-1.23,657.45,34.08,2.24,1391.35
736100,501.52,630.77,1.00,1,1,1,280.18,-0.56,19350.82,57.79,-0.01,5532.04,269.58,-0.80,11332.47,144.76,-1.23,7210.10,44.89,-0.94,4965.78
768100,500.52,633.11,1.00,1,1,1,79.73,1.97,10897.10,365.74,-0.84,10290.59,199.20,-0.76,2222.07,63.92,-0.15,3986.14,50.89,-0.87,214.44
784200,513.31,617.70,1.00,1,1,1,1243.58,-0.88,81997.59,438.78,-0.90,4769.28,170.63,-0.56,2930.90,52.01,1.50,5312.80,25.46,-1.68,2366.13
800000,509.27,622.18,1.00,1,1,1,381.75,2.30,102853.41,184.33,1.61,37781.42,93.33,0.74,10826.87,51.18,0.42,3364.35,5.55,-2.41,1371.15
816000,513.10,623.56,1.00,1,1,1,254.27,0.35,33298.44,486.81,1.85,19459.82,348.59,2.11,21407.59,106.86,-0.65,5849.56,75.41,2.66,4602.86
832000,504.92,637.14,1.00,1,1,1,990.80,2.11,66871.01,476.17,2.24,11495.88,185.11,1.85,11057.64,62.53,0.03,4401.88,58.67,2.18,2219.11
864100,498.93,641.56,1.00,1,1,1,231.78,2.51,24353.47,15.80,-1.14,15313.31,46.82,-1.00,7174.41,195.49,2.06,7161.88,207.03,-0.16,7830.21
880100,505.24,636.45,1.00,1,1,1,507.20,-0.68,46176.45,832.48,-0.92,51066.94,74.11,-0.68,2062.33,229.67,1.95,2556.06,595.80,-0.20,24316.82
896100,515.12,620.41,1.00,1,1,1,1177.95,-1.02,44960.93,164.76,-0.62,42293.08,47.69,1.63,7007.65,255.19,2.30,5539.30,960.94,-0.22,22831.85
912000,509.52,633.40,1.00,1,1,1,890.03,1.98,129727.72,620.23,2.15,48817.49,276.04,2.02,14625.96,147.59,2.44,6970.85,1345.69,-0.23,24209.78
944300,498.69,645.38,1.00,1,1,1,499.93,2.31,13829.00,558.03,2.12,2043.60,557.78,2.29,9309.48,421.56,-0.28,17323.13,1371.80,-0.20,1252.19
960000,495.64,656.31,1.00,1,1,1,722.90,1.84,22600.51,488.66,2.56,15212.08,331.94,2.44,14989.42,1150.25,-0.23,46474.94,1212.37,-0.20,10167.86
975900,485.82,653.91,1.00,2,2,2,636.29,-2.90,59608.94,225.15,-2.92,23299.56,862.07,-0.33,74095.63,1826.62,-0.19,42665.08,1190.38,-0.23,2543.83
1008200,485.06,653.93,1.00,2,2,2,23.53,3.12,18997.37,1737.51,-0.38,59673.47,2481.14,-0.31,50133.78,2502.35,-0.23,21096.64,1172.68,-0.25,944.10
1024200,563.78,622.85,1.00,3,3,3,5289.71,-0.38,331988.82,6537.69,-0.29,300635.69,4102.12,-0.27,101614.17,3044.55,-0.26,34200.95,1381.08,-0.23,13138.74
1040000,684.44,595.06,1.00,1,1,1,7837.05,-0.23,172343.11,7724.42,-0.24,78209.91,6733.03,-0.27,166538.83,2545.65,-0.27,31665.73,1620.66,-0.20,15420.15
1055900,801.71,564.98,1.00,1,1,1,7613.68,-0.25,18486.68,6930.67,-0.25,50019.86,5785.61,-0.25,60129.22,2591.92,-0.28,3315.54,1861.47,-0.14,16333.77
1071900,898.91,541.34,1.00,1,1,1,6252.20,-0.24,85264.38,3865.45,-0.26,191618.49,2613.06,-0.23,198302.91,2774.29,-0.28,11456.89,2111.88,-0.15,15688.21
1087900,921.31,533.43,1.00,1,1,1,1484.80,-0.34,298580.37,176.72,2.61,252251.16,1084.20,-0.31,95905.86,2450.24,-0.21,22561.76,2324.81,-0.16,13376.06
1121400,891.35,545.75,1.00,1,1,1,966.87,2.75,73161.72,774.95,3.01,18381.23,381.21,3.00,43615.98,2090.49,-0.18,11014.15,2184.48,-0.16,4202.53
1136000,884.36,538.32,1.00,1,1,1,699.21,-2.33,66443.95,742.79,-3.13,7659.58,244.96,2.31,16985.40,1901.00,-0.09,17697.18,2133.25,-0.15,4120.84
1151900,868.70,545.53,1.00,2,2,2,1084.10,2.71,68379.55,799.03,0.38,95277.20,1563.47,-0.08,110128.90,1743.32,-0.03,12207.14,2295.18,-0.15,10199.39
1168000,908.06,547.90,1.00,2,2,2,2449.21,0.06,213855.34,3012.15,-0.07,144084.60,2754.78,-0.00,74685.70,1715.03,0.00,3778.46,1887.09,-0.11,25848.29
1200400,1014.45,535.65,1.00,3,3,3,3305.48,-0.11,30561.77,4100.24,-0.05,33625.08,3863.13,-0.04,34393.69,1820.13,0.01,3270.14,1492.36,-0.09,12245.16
1216100,1105.01,537.61,1.00,1,1,1,5769.43,0.02,161452.42,5172.93,-0.01,69303.30,3604.15,-0.05,16617.75,1693.65,0.08,11207.52,949.50,-0.01,35099.87
1232000,1177.91,533.58,1.00,1,1,1,4591.44,-0.06,78156.35,2854.04,-0.04,145950.72,2155.36,0.09,94440.63,1869.12,0.03,12384.36,476.39,0.73,42680.80
1247900,1195.71,534.35,1.00,1,1,1,1120.99,0.04,218717.25,973.72,2.64,235776.55,475.35,0.73,112964.64,1410.43,0.04,28886.55,858.19,1.66,43282.88
1263900,1150.71,548.58,1.00,1,1,1,2950.21,2.84,251363.42,2238.33,2.81,80578.40,703.20,2.68,61373.31,859.16,0.15,35256.58,1462.87,1.79,38846.65
1280100,1127.62,557.97,1.00,1,1,1,1538.44,2.76,87775.38,435.99,2.77,111284.59,825.81,2.78,8878.35,152.62,1.55,52189.07,1960.36,1.81,30822.32
1295900,1137.73,553.70,1.00,1,1,1,694.47,-0.40,141320.81,128.17,0.01,35232.48,192.57,2.75,40085.89,1239.76,2.56,73793.62,2074.43,1.90,12881.88
1328200,1133.78,558.06,1.00,1,1,1,181.89,2.31,26712.67,31.59,2.56,4806.84,233.17,2.96,1886.26,2523.42,2.40,40644.24,1911.82,2.17,17479.76
1344100,1136.46,554.54,1.00,2,2,2,277.66,-0.92,28877.59,594.84,3.00,35629.83,1600.92,2.52,87629.61,3476.87,2.26,65420.01,2252.97,2.49,46752.08
1376000,1105.63,562.01,1.00,2,2,2,994.49,2.90,38327.53,3180.10,2.52,83602.83,4295.69,2.33,85923.01,4247.99,2.18,26277.80,2457.78,2.66,14026.81
1392000,1012.50,643.07,1.00,4,4,4,7716.77,2.43,428094.14,9996.50,2.28,434712.46,6792.21,2.25,158528.47,4713.75,2.24,35008.71,2442.61,2.75,13465.34
1408200,897.13,807.24,1.00,4,4,4,12385.94,2.18,322923.76,12425.82,2.14,175117.02,10369.12,2.15,226339.81,5040.36,2.44,61055.04,2294.37,2.74,9185.47
1424100,796.23,978.22,1.00,4,4,4,12486.28,2.10,62468.04,10896.67,2.04,124412.89,9509.88,2.18,56087.98,5111.68,2.61,55100.79,1965.06,2.75,20727.86
1440000,741.70,1116.94,1.00,4,4,4,9374.29,1.95,223417.40,6584.44,2.24,291178.07,6026.63,2.53,276286.49,5446.28,2.69,33879.96,1699.85,2.81,18432.61
1455900,667.13,1143.07,1.00,4,4,4,4969.38,2.80,452327.93,5682.68,-2.64,501005.23,4644.43,-2.98,263912.73,3811.20,2.81,108792.54,1551.31,2.83,9515.19
1472300,580.68,1028.82,1.00,4,4,4,8736.05,-2.22,526199.86,8166.99,-2.24,223041.45,5667.78,-2.38,196081.20,2388.78,3.14,105564.19,1361.45,2.82,11616.43
1489100,498.05,931.10,1.00,4,4,4,7617.40,-2.27,71611.18,6031.59,-2.13,135323.34,4572.66,-2.07,115316.09,1946.21,-2.35,102406.35,1287.94,2.83,4456.10
1504000,478.78,867.03,1.00,2,2,2,4490.07,-1.86,263758.42,2356.83,-1.62,278184.74,2799.34,-1.69,148776.34,2801.57,-1.83,98797.17,1118.42,2.86,11616.93
1536100,492.74,820.46,1.00,2,2,2,1514.82,-1.28,103802.86,1994.31,-0.67,62538.23,2315.86,-0.98,57111.97,3092.43,-1.52,29570.66,670.02,-3.12,16106.33
1552000,553.62,807.36,1.00,2,2,2,3916.64,-0.21,217064.60,3585.56,-0.37,112187.58,2631.25,-0.73,43596.68,2356.59,-1.13,80895.01,649.78,-2.19,37413.72
1568000,599.36,779.04,1.00,1,1,1,3362.00,-0.55,84686.83,3569.79,-0.78,91062.02,3608.28,-0.56,69413.78,2326.85,-0.77,52560.12,1135.48,-1.61,43075.57
1584900,637.07,724.71,1.00,1,1,1,3913.35,-0.96,93231.61,3756.06,-0.74,13955.90,2776.83,-0.56,49204.43,2396.30,-0.60,24348.51,1495.64,-1.51,22594.59
1600100,688.31,697.64,1.00,1,1,1,3812.38,-0.49,120547.27,2342.43,-0.33,121851.71,2438.48,-0.57,22270.55,2277.89,-0.52,14193.75,1651.20,-1.32,22839.79
1632000,741.27,688.45,1.00,1,1,1,1685.01,-0.17,71166.52,1650.12,-0.30,21783.49,2210.73,-0.43,12221.87,1748.49,-0.61,17581.80,1706.59,-0.90,21973.56
1648000,763.71,673.95,1.00,1,1,1,1670.04,-0.57,41822.17,2061.26,-0.60,42190.18,1395.52,-0.45,50984.35,1459.77,-0.67,19022.12,1936.81,-0.58,38480.78
1664100,796.03,651.32,1.00,1,1,1,2450.74,-0.61,48718.37,1182.91,-0.65,54827.32,736.71,-0.79,46270.66,895.98,-0.58,35682.51,2032.58,-0.44,18958.46
1696000,808.85,639.50,1.00,1,1,1,546.44,-0.75,59893.50,297.79,-2.79,42808.41,555.49,-1.15,9044.96,737.31,-0.53,5088.51,2140.57,-0.36,6238.13
1712100,782.63,646.36,1.00,1,1,1,1683.30,2.89,135454.55,860.32,-2.92,35187.02,313.69,-2.73,39793.99,1245.45,-0.45,31976.30,1863.21,-0.37,17275.53
1728000,781.99,633.45,1.00,1,1,1,813.17,-1.62,126666.83,330.66,-2.67,34312.04,149.63,-2.42,11119.43,1646.84,-0.32,27811.42,1541.61,-0.36,20257.02
1759900,768.52,639.24,1.00,2,2,2,459.67,2.74,33375.38,374.82,-0.10,21229.41,1815.11,-0.31,59453.77,1742.57,-0.21,6344.27,1417.16,-0.29,5037.62
1775900,799.85,631.63,1.00,3,3,3,2015.28,-0.24,154356.43,4862.07,-0.24,280693.60,2945.07,-0.18,73105.69,2063.85,-0.15,21261.17,1249.27,-0.27,10598.52
1792200,921.09,602.00,1.00,1,1,1,7656.46,-0.24,346084.97,6770.32,-0.19,118590.90,4734.54,-0.16,109923.14,2103.71,-0.14,3145.18,1181.89,-0.32,5399.99
1808100,1014.11,591.39,1.00,1,1,1,5888.66,-0.11,123276.08,4641.24,-0.07,140456.23,4758.34,-0.12,9338.22,1756.55,-0.09,22514.71,1137.06,-0.28,3658.48
1824000,1068.36,592.37,1.00,1,1,1,3412.50,0.02,160080.34,2772.29,0.03,119403.65,2528.71,0.02,143483.91,2117.82,-0.14,23411.05,894.00,-0.23,15643.03
1840000,1102.51,593.85,1.00,1,1,1,2136.49,0.04,79865.08,583.16,0.70,146581.56,627.98,0.32,121216.81,1916.15,-0.15,12630.74,699.65,-0.17,12543.78
1856100,1082.65,604.46,1.00,1,1,1,1398.77,2.65,212145.18,898.15,2.82,80870.11,62.60,1.03,36148.06,1138.20,-0.15,48325.44,411.70,-0.13,17919.69
1887900,1061.64,607.27,1.00,1,1,1,666.59,3.01,25431.70,293.17,-2.56,23673.93,347.85,-3.05,12207.20,574.95,-0.17,17718.26,133.13,2.54,16786.55
1904100,1070.93,596.68,1.00,1,1,1,869.86,-0.85,88903.90,627.45,-0.90,44176.92,345.01,-1.54,29166.54,56.42,-0.82,32789.83,2117.82,-0.14,138124.39
1920800,1074.54,591.16,1.00,1,1,1,394.96,-0.99,28862.02,725.57,-1.01,7537.36,707.67,-0.72,32077.01,527.80,3.02,34248.46,1916.15,-0.15,12101.31
1936500,1083.37,576.73,1.00,1,1,1,1077.37,-1.02,43483.17,809.63,-0.58,21451.62,143.81,-1.26,37466.27,967.99,3.00,28055.88,1138.20,-0.15,49556.67
1952100,1095.68,577.18,1.00,1,1,1,789.20,0.04,62432.99,265.66,2.35,68650.47,723.34,2.92,51715.62,1991.84,2.98,65648.74,574.95,-0.17,36117.99
1984100,1074.50,585.74,1.00,2,2,2,713.86,2.76,45939.13,1699.39,2.81,45809.24,1847.16,2.85,35214.63,143.81,-1.26,64420.97,56.42,-0.82,16599.85
2000100,1018.62,603.93,1.00,2,2,2,3672.91,2.83,185073.70,3429.76,2.88,108723.50,3735.77,2.91,118588.40,723.34,2.92,50422.73,527.80,3.02,35746.83
2032700,913.42,628.62,1.00,1,1,1,3314.58,2.91,14220.75,5793.39,2.95,73045.36,3429.76,2.88,10075.92,1847.16,2.85,34566.51,967.99,3.00,13511.57
2047900,746.96,657.66,1.00,1,1,1,11117.04,2.97,513837.29,11117.04,2.97,350441.33,5793.39,2.95,156663.07,3735.77,2.91,124829.90,1991.84,2.98,67376.34
