@RELATION gaze_labels

%@METADATA width_px 1920
%@METADATA height_px 1080
%@METADATA width_mm 540.00
%@METADATA height_mm 254.00
%@METADATA distance_mm 620.00


@ATTRIBUTE time INTEGER
@ATTRIBUTE x NUMERIC
@ATTRIBUTE y NUMERIC
@ATTRIBUTE confidence NUMERIC
@ATTRIBUTE handlabeller1 INTEGER
@ATTRIBUTE handlabeller2 INTEGER
@ATTRIBUTE handlabeller_final INTEGER
@ATTRIBUTE speed_1 numeric
@ATTRIBUTE direction_1 numeric
@ATTRIBUTE acceleration_1 numeric
@ATTRIBUTE speed_2 numeric
@ATTRIBUTE direction_2 numeric
@ATTRIBUTE acceleration_2 numeric
@ATTRIBUTE speed_4 numeric
@ATTRIBUTE direction_4 numeric
@ATTRIBUTE acceleration_4 numeric
@ATTRIBUTE speed_8 numeric
@ATTRIBUTE direction_8 numeric
@ATTRIBUTE acceleration_8 numeric
@ATTRIBUTE speed_16 numeric
@ATTRIBUTE direction_16 numeric
@ATTRIBUTE acceleration_16 numeric

%The number after speed, direction denotes the step size that was used for the calculation.
%Acceleration was calculated between two adjacent samples of the already low pass filtered velocity

@DATA
0,1049.01,781.00,1.00,2,2,2,0.00,0.00,0.00,8763.26,-2.66,0.00,6932.76,-2.61,0.00,3499.51,-2.47,0.00,1810.44,-2.27,0.00
15900,925.59,716.33,1.00,3,3,3,8763.26,-2.66,551148.25,6932.76,-2.61,117944.73,3926.81,-2.41,199467.90,1943.17,-2.14,112081.32,989.05,-1.96,57981.79
32000,858.16,667.91,1.00,3,3,3,5156.72,-2.52,231512.21,3926.81,-2.41,196990.04,3499.51,-2.47,30015.34,1250.50,-1.67,62272.09,743.91,-1.27,39178.99
48000,831.59,632.36,1.00,1,1,1,2773.70,-2.21,165463.36,1405.05,-2.02,167486.04,1943.17,-2.14,111380.81,775.66,-1.56,30463.64,591.99,-0.92,17140.62
80300,828.44,606.90,1.00,1,1,1,794.35,-1.69,65658.29,1007.53,-1.36,26994.95,1250.50,-1.67,31039.65,1810.44,-2.27,41067.99,206.29,-2.23,17748.49
96100,841.74,584.97,1.00,1,1,1,1623.07,-1.03,70531.99,1367.56,-1.10,30049.72,775.66,-1.56,30849.25,989.05,-1.96,58348.77,950.09,2.94,55708.51
112000,848.28,568.36,1.00,1,1,1,1123.27,-1.20,34597.22,545.14,-2.14,74864.04,722.28,-0.96,27984.13,743.91,-1.27,39671.81,1645.36,2.86,44114.75
128000,832.39,570.31,1.00,1,1,1,1000.90,3.02,114168.04,329.80,-0.58,39628.43,363.15,-1.04,22579.10,591.99,-0.92,17140.62,2068.00,2.83,26692.03
160200,861.59,559.66,1.00,1,1,1,965.35,-0.35,60670.26,485.92,-0.51,4913.56,574.20,-0.48,10176.92,206.29,-2.23,17803.61,1773.57,-3.03,26545.04
192200,859.54,554.96,1.00,1,1,1,160.30,-1.98,30878.58,822.96,-0.44,10637.07,657.11,-0.40,3019.42,950.09,2.94,27506.08,1333.35,-3.14,14712.79
208000,897.19,542.93,1.00,1,1,1,2501.49,-0.31,159667.85,894.12,-0.31,8150.50,531.13,2.87,75052.33,1645.36,2.86,44393.96,1132.57,3.02,16003.51
240100,900.28,541.73,1.00,2,2,2,103.14,-0.37,74721.95,1535.63,2.80,75688.02,2164.52,2.81,50923.39,2068.00,2.83,13304.44,1058.03,2.95,3300.74
272100,804.31,575.53,1.00,3,3,3,3179.45,2.80,102578.96,5216.69,2.81,115036.89,3855.21,2.83,52867.15,2468.44,2.77,13108.17,1048.60,2.96,548.14
288100,663.17,622.22,1.00,3,3,3,9291.88,2.82,382082.71,8517.88,2.84,206658.24,5888.50,2.82,127182.63,2594.19,2.74,9237.73,1065.50,2.94,1619.83
304000,544.66,655.59,1.00,1,1,1,7743.30,2.87,100306.37,6899.39,2.82,102581.95,5855.57,2.76,21302.09,2804.94,2.75,13319.20,1038.70,2.88,4355.98
320000,454.63,692.59,1.00,1,1,1,6083.38,2.75,114943.72,3325.95,2.54,237926.24,3253.44,2.67,164239.41,3103.51,2.78,19340.29,1025.67,2.85,2013.72
336200,456.28,716.08,1.00,1,1,1,1454.07,1.50,357618.34,1018.42,0.80,224483.61,1359.64,2.40,122109.78,2495.63,2.85,39608.12,1222.69,2.83,12316.21
352100,477.32,716.12,1.00,1,1,1,1323.14,0.00,119139.76,695.37,-0.03,47425.89,454.76,0.28,103319.41,1238.84,2.95,79822.51,1318.70,2.79,6833.80
369200,479.22,715.39,1.00,1,1,1,118.84,-0.36,70930.05,508.46,-1.24,41016.21,1021.69,-0.86,54433.32,241.37,3.07,58460.40,1449.35,2.81,7816.40
384100,482.62,700.73,1.00,1,1,1,1010.03,-1.34,63682.62,1707.85,-1.19,80554.18,1108.88,-1.13,20021.51,370.06,-0.48,40205.62,1492.75,2.84,4696.87
399900,498.68,666.71,1.00,1,1,1,2381.42,-1.13,89282.96,1715.13,-1.10,10059.56,812.57,-1.08,18966.65,337.93,-0.81,7577.22,1089.43,2.91,26035.81
416000,507.55,652.03,1.00,1,1,1,1065.05,-1.03,82382.52,285.05,-0.67,90708.49,475.78,-1.04,20986.78,158.55,-1.27,12935.74,574.63,2.99,32235.54
449200,509.69,657.97,1.00,2,2,2,190.24,1.22,35965.63,352.28,1.91,18461.56,209.22,2.13,20631.33,193.52,-1.50,1619.28,160.20,2.98,12483.02
464000,501.89,667.96,1.00,2,2,2,856.65,2.23,52183.02,985.60,2.28,45234.26,605.52,2.08,26802.10,232.31,-1.37,3199.70,149.00,-0.41,20730.59
480000,489.86,680.96,1.00,3,3,3,1106.49,2.32,16422.48,997.54,2.16,7372.49,658.23,2.33,10665.56,114.57,-1.55,7564.33,171.57,-0.86,4658.99
495900,484.09,694.35,1.00,1,1,1,916.87,1.98,24520.52,347.96,2.48,42456.66,198.56,-3.14,34035.61,58.53,-2.59,6232.10,138.07,-1.19,3846.61
512000,481.10,687.82,1.00,1,1,1,445.92,-2.00,78239.78,833.62,-1.38,69523.98,423.08,-1.29,31884.44,81.97,2.70,4350.58,141.30,-1.35,1370.74
528200,489.14,667.90,1.00,1,1,1,1326.40,-1.19,66091.51,902.02,-1.14,13498.66,619.50,-1.25,12188.76,53.31,2.28,2444.88,81.21,-1.42,3742.74
560100,499.13,648.36,1.00,1,1,1,687.86,-1.10,20193.17,485.06,-1.11,13092.97,383.52,-0.94,8783.52,27.25,-1.46,2426.28,78.97,2.25,4846.30
576100,499.56,647.13,1.00,1,1,1,81.42,-1.23,37954.67,458.64,1.57,57400.14,100.38,0.74,25465.30,120.59,-1.10,5968.08,72.94,2.35,630.41
592000,499.12,662.99,1.00,1,1,1,997.84,1.60,67651.56,564.08,1.69,7634.86,369.89,1.87,21338.29,100.27,-1.08,1285.65,35.46,2.39,2359.39
624900,496.29,674.46,1.00,1,1,1,359.15,1.81,19797.12,336.80,2.14,9105.20,384.76,1.79,1019.02,43.05,1.94,4349.46,22.56,1.13,1081.05
640100,490.36,676.62,1.00,1,1,1,414.80,2.79,24166.78,140.54,2.49,13815.98,187.31,2.35,16198.23,258.89,1.97,14202.49,78.35,-0.64,5641.82
656000,492.82,677.13,1.00,1,1,1,157.72,0.20,34926.39,107.60,-2.10,11780.40,124.17,3.09,8011.57,144.18,1.95,7222.54,155.73,-0.89,5157.74
671900,488.63,673.67,1.00,1,1,1,341.40,-2.45,30588.70,139.21,-2.82,5761.78,154.49,2.22,7552.70,22.68,0.70,8714.95,126.37,-0.91,1855.86
704600,486.40,674.98,1.00,1,1,1,79.05,2.61,9876.02,291.07,2.00,9467.76,108.76,-1.77,7352.20,59.46,-0.03,1385.43,57.56,-0.68,2185.68
720000,482.87,686.43,1.00,1,1,1,778.08,1.87,46861.73,251.61,-0.94,35049.66,195.66,-0.56,12159.15,145.78,-0.49,6231.01,52.12,1.31,5972.36
736100,491.09,668.59,1.00,1,1,1,1220.18,-1.14,123857.81,890.26,-0.84,39779.42,290.29,-0.04,9592.47,199.91,-0.74,4297.40,97.44,1.59,3069.34
751900,501.88,665.34,1.00,1,1,1,713.46,-0.29,58143.17,463.90,0.39,53979.34,501.63,-0.65,19590.76,158.22,-0.78,2683.28,23.53,0.61,5477.16
768000,504.79,674.18,1.00,1,1,1,578.12,1.25,56328.53,218.52,0.19,15746.42,396.93,-0.44,8575.07,191.23,-0.84,2125.74,89.01,-1.25,6098.71
785400,509.07,666.69,1.00,1,1,1,495.44,-1.05,56396.06,587.21,-1.06,32011.11,129.25,-1.21,18230.73,212.04,-0.84,1197.04,104.55,-1.31,957.90
800300,514.11,657.65,1.00,1,1,1,694.40,-1.06,13360.87,329.56,-2.01,32148.31,271.75,-1.69,11247.93,79.56,0.79,15508.09,27.77,-1.39,5162.74
816000,504.78,657.57,1.00,1,1,1,594.31,-3.13,70652.68,359.37,-3.08,22333.15,83.55,-2.66,14973.09,24.72,0.51,3583.72,26.85,0.86,3142.50
832000,502.74,656.91,1.00,1,1,1,133.96,-2.83,29273.05,130.53,1.82,22471.93,304.40,2.24,18776.27,166.09,-1.59,11231.84,86.43,1.24,3888.86
864100,503.24,663.66,1.00,1,1,1,210.99,1.50,9027.07,419.99,1.75,9030.89,118.74,1.55,7030.14,146.52,-2.04,2263.45,58.93,0.80,1281.69
880000,499.13,676.74,1.00,1,1,1,862.34,1.88,42193.48,120.14,1.10,20933.29,85.95,-1.32,12756.36,142.33,2.63,13142.98,74.93,1.25,2092.22
896000,504.99,667.07,1.00,1,1,1,706.89,-1.03,97376.16,839.76,-1.37,58544.77,229.08,-1.83,9965.11,141.71,2.01,5428.22,83.47,1.84,2942.78
912200,504.45,650.23,1.00,1,1,1,1040.07,-1.60,36485.78,459.10,-1.86,29991.40,115.96,-2.12,7569.10,247.11,1.75,7153.93,85.91,2.40,2869.91
944100,498.61,645.93,1.00,1,1,1,227.27,-2.51,28745.34,442.99,2.07,26087.20,176.56,2.26,7561.16,210.71,1.77,1149.85,152.04,2.42,2075.52
960000,494.31,668.82,1.00,1,1,1,1464.74,1.76,99165.27,719.62,1.70,21810.66,525.18,1.76,23877.46,82.77,1.60,8170.29,98.75,1.47,7819.97
992100,494.24,680.19,1.00,1,1,1,354.40,1.58,34824.32,642.18,1.55,3998.11,564.53,1.62,2652.28,148.29,1.97,2413.74,216.48,0.28,6295.55
1008200,495.04,699.76,1.00,1,1,1,1216.43,1.53,53576.25,415.13,1.48,14246.75,238.76,1.38,20980.06,267.48,2.01,7414.57,501.38,-0.00,18619.17
1040000,495.96,700.00,1.00,1,1,1,30.00,0.26,37987.01,193.13,-1.16,18614.51,136.51,1.52,3319.94,367.19,2.03,3144.56,773.47,-0.10,8761.54
1056000,498.74,691.30,1.00,1,1,1,570.73,-1.26,35620.39,279.79,-1.70,9518.91,157.08,-2.56,16388.79,189.93,0.73,22879.14,908.28,-0.20,9818.05
1072100,494.77,691.10,1.00,1,1,1,246.85,-3.09,42059.32,445.52,3.03,32304.60,366.83,-3.08,15135.34,535.60,-0.05,26151.36,868.39,-0.16,3250.68
1087900,484.61,692.83,1.00,2,2,2,652.36,2.97,26264.82,736.04,2.82,19955.00,283.56,-0.11,41008.36,1208.40,-0.25,43881.22,800.76,-0.10,5247.16
1103900,472.57,698.51,1.00,2,2,2,832.06,2.70,16781.95,973.70,-0.11,106270.39,1213.29,-0.19,58171.01,1941.38,-0.24,45820.68,774.42,-0.19,4538.41
1121600,517.23,689.23,1.00,3,3,3,2576.90,-0.20,191611.84,3115.48,-0.22,121461.47,2847.53,-0.20,92346.74,2185.24,-0.25,13785.49,700.95,-0.02,7948.28
1136400,571.45,676.71,1.00,1,1,1,3760.00,-0.23,80074.95,4937.25,-0.22,123102.06,4226.67,-0.22,93253.46,2179.55,-0.24,1460.48,817.03,0.62,33410.65
1151900,663.13,656.19,1.00,1,1,1,6061.39,-0.22,148491.34,5369.51,-0.22,27930.82,4187.40,-0.26,11115.09,1962.48,-0.24,14028.55,899.52,1.02,22415.97
1168000,737.10,640.00,1.00,1,1,1,4703.44,-0.22,84359.46,3486.19,-0.30,119238.81,3158.81,-0.26,63888.01,1906.63,-0.36,14133.52,1189.35,1.22,22079.39
1184000,769.90,622.68,1.00,1,1,1,2318.18,-0.49,159135.50,1003.68,-0.48,156446.39,1262.69,-0.32,118753.58,1346.61,-0.13,41588.18,1346.69,1.26,10376.69
1200000,765.66,625.29,1.00,1,1,1,311.60,2.59,164324.27,220.93,2.99,75946.98,482.52,-1.76,80730.36,1260.36,0.89,79921.04,1094.97,0.78,39481.01
1232200,759.38,624.29,1.00,1,1,1,197.53,-2.98,6423.78,889.07,-2.57,22939.94,932.84,2.56,37342.37,1731.97,1.66,37459.03,1299.94,0.30,18682.79
1248000,729.84,602.09,1.00,2,2,2,2338.47,-2.50,137074.76,2043.37,2.49,122178.47,2603.71,1.97,120503.03,2502.96,1.88,56858.34,1661.57,0.09,30050.07
1264100,707.40,663.63,1.00,2,2,2,4068.36,1.92,326009.89,6886.01,1.77,342546.77,4147.42,1.94,95991.47,2896.25,1.91,24747.67,1677.25,-0.05,14726.87
1279900,685.34,817.20,1.00,4,4,4,9819.50,1.71,373260.24,5792.23,1.82,71743.82,5430.57,1.84,87179.28,1711.92,1.68,81200.86,1486.76,-0.07,12167.65
1312000,638.46,932.37,1.00,4,4,4,3873.84,1.96,191030.82,4486.38,1.90,42749.46,5088.02,1.79,13053.61,1325.16,1.06,31085.97,1117.91,0.03,12138.95
1328100,614.48,1021.50,1.00,2,2,2,5732.85,1.83,121005.75,4048.29,1.73,53104.03,1218.01,1.16,258818.35,1773.43,0.52,58028.83,1018.73,-0.04,7591.59
1344100,617.58,1060.64,1.00,2,2,2,2453.47,1.49,219933.44,3184.44,-0.69,423610.11,3193.72,-0.50,220208.87,1977.92,-0.00,62053.35,952.30,-0.06,4312.91
1375900,731.79,924.51,1.00,2,2,2,5587.80,-0.87,236978.98,7324.29,-0.80,131206.02,5694.08,-0.66,81239.60,2358.70,-0.47,33721.21,1057.97,-0.11,3672.19
1392000,862.37,809.32,1.00,1,1,1,10815.45,-0.72,332649.79,9412.57,-0.64,154077.31,7102.34,-0.77,99436.34,3135.37,-0.63,55255.32,1238.35,-0.13,11291.30
1408200,976.17,743.65,1.00,1,1,1,8110.23,-0.52,202830.93,6780.14,-0.74,169757.50,6276.04,-0.77,51140.88,4060.63,-0.74,61803.26,1340.66,-0.04,9162.85
1424200,1024.06,662.62,1.00,1,1,1,5882.60,-1.04,259718.35,3398.66,-1.14,242436.73,3137.58,-0.80,196323.84,4032.84,-0.78,11667.53,1449.40,-0.19,14318.47
1440000,1021.76,645.65,1.00,1,1,1,1083.88,-1.71,321339.31,672.18,2.99,241393.20,2120.16,-1.02,74340.33,3464.03,-0.74,37805.67,1788.23,-0.46,35230.37
1456000,1002.95,665.92,1.00,1,1,1,1728.33,2.32,159828.49,949.06,-0.61,98744.80,954.40,-0.85,74407.98,2475.48,-0.71,61950.83,2289.24,-0.56,33409.15
1472000,1046.57,628.15,1.00,1,1,1,3606.84,-0.71,333013.81,1948.92,-0.71,62972.92,1228.45,-0.61,23715.69,1572.90,-0.78,57048.57,2735.32,-0.59,28488.76
1504000,1074.14,605.24,1.00,1,1,1,1120.11,-0.69,77720.85,1413.94,-0.61,17464.13,1966.34,-0.60,23062.55,985.19,-0.61,19501.57,2997.84,-0.60,8208.24
1520200,1102.49,589.19,1.00,1,1,1,2011.06,-0.52,57415.23,2030.82,-0.45,41415.62,1255.07,-0.45,46360.82,1165.94,-0.44,15672.67,2533.77,-0.51,32236.72
1536000,1132.58,576.81,1.00,1,1,1,2059.14,-0.39,16380.77,1096.45,-0.13,66342.52,1096.37,-0.35,12563.23,1477.05,-0.39,20123.17,1889.99,-0.45,41583.52
1552100,1137.16,584.55,1.00,1,1,1,558.32,1.04,127613.71,275.74,0.54,55799.45,1137.69,-0.23,8697.28,1569.19,-0.21,18564.06,1464.62,-0.44,26432.74
1568000,1140.13,581.38,1.00,2,2,2,273.00,-0.82,43179.40,1184.00,-0.31,64378.30,1053.23,0.10,23057.45,2027.26,-0.11,30747.64,1122.51,-0.32,23707.10
1586700,1176.20,572.16,1.00,2,2,2,1991.36,-0.25,94500.61,1836.69,0.04,44172.93,2043.49,-0.02,53817.28,1861.25,-0.08,9604.88,1093.97,-0.24,5109.83
1601000,1200.69,583.67,1.00,3,3,3,1892.39,0.44,92056.22,3139.68,0.10,91787.00,2999.35,-0.03,66847.36,1550.57,-0.07,21744.51,1242.79,-0.22,10531.41
1616000,1267.70,581.67,1.00,1,1,1,4469.30,-0.03,194012.98,4242.82,-0.06,83064.12,2498.35,-0.02,33438.31,1521.75,-0.13,6328.67,1135.25,-0.10,11378.78
1632000,1332.02,576.41,1.00,1,1,1,4033.26,-0.08,30528.65,2134.09,-0.13,132452.65,1903.82,-0.13,40312.28,1290.23,-0.14,14490.33,1315.37,-0.06,11771.04
1664100,1369.55,568.84,1.00,1,1,1,1192.61,-0.20,88855.42,797.69,-0.33,42449.01,1191.28,-0.25,22848.84,1074.22,-0.04,7521.89,1188.88,0.01,4778.08
1696300,1380.55,559.81,1.00,1,1,1,442.09,-0.69,25731.58,370.73,-1.02,17551.46,374.83,-0.66,26762.95,1090.30,-0.01,1120.67,1211.87,-0.00,887.45
1712200,1378.81,553.60,1.00,1,1,1,405.22,-1.84,29191.78,377.38,-2.60,33390.87,82.95,-2.47,25307.59,798.15,0.06,18931.50,1117.81,-0.02,6041.45
1744000,1365.11,550.56,1.00,2,2,2,441.58,-2.92,13721.74,381.60,2.56,12689.06,298.34,1.08,11817.83,803.43,0.04,654.42,1193.28,-0.03,2399.08
1761000,1363.26,563.84,1.00,1,1,1,788.27,1.71,54924.12,1252.33,0.85,79914.10,589.04,0.90,17669.32,607.99,0.25,14452.64,1073.05,-0.03,7073.30
1776200,1391.69,580.88,1.00,1,1,1,2181.26,0.54,132159.19,1677.89,0.54,40759.99,1759.81,0.28,87280.89,844.95,0.13,16606.74,1129.96,-0.09,6027.16
1792000,1407.90,590.53,1.00,1,1,1,1193.64,0.54,62508.18,2567.06,0.01,88691.50,1658.78,0.28,6397.91,740.69,0.20,7501.52,814.10,-0.03,20364.28
1808000,1473.32,581.77,1.00,1,1,1,4125.47,-0.13,204690.68,1742.26,0.04,51744.82,1715.85,-0.05,34997.16,1096.50,0.12,22668.19,374.41,0.12,27969.54
1824100,1463.77,593.04,1.00,1,1,1,917.46,2.27,300970.49,885.24,-0.22,57072.98,1097.21,-0.15,39389.41,1072.01,-0.01,8970.77,221.22,2.52,34623.69
1839900,1500.86,575.53,1.00,1,1,1,2596.09,-0.44,218499.37,725.63,-0.47,15940.84,623.76,-0.24,30320.14,1187.00,-0.18,14340.37,689.84,2.87,30916.71
1872300,1495.01,577.31,1.00,1,1,1,188.88,2.85,85897.51,450.51,-0.26,9237.78,762.69,-0.52,7403.98,842.62,-0.14,10718.55,961.50,2.99,8884.62
1888000,1521.80,569.96,1.00,1,1,1,1769.86,-0.27,124756.62,823.23,-0.60,27122.33,799.02,-0.41,6132.99,115.02,2.58,60410.34,984.45,3.03,2726.36
1904000,1516.55,562.58,1.00,1,1,1,566.57,-2.19,127216.76,1334.19,-0.48,32813.02,521.68,-0.10,21336.51,953.83,3.03,53241.85,756.16,3.12,15174.06
1920000,1559.58,550.07,1.00,1,1,1,2800.93,-0.28,189696.21,507.71,0.78,79896.13,827.87,2.81,83829.67,2028.24,3.02,67157.38,826.31,-3.10,5302.90
1935900,1528.02,574.01,1.00,2,2,2,2491.32,2.49,327305.15,2207.85,2.75,154105.90,2620.51,2.91,113110.18,2821.29,3.09,51059.24,998.01,3.14,11043.10
1969900,1457.60,591.75,1.00,2,2,2,2135.97,2.89,29042.81,4541.75,2.98,71670.04,4831.96,2.97,65330.44,3046.76,3.11,6871.19,1527.99,3.06,15900.62
1984100,1312.13,610.24,1.00,3,3,3,10326.84,3.02,578192.02,9301.99,3.06,337257.51,5475.19,3.09,61663.19,2383.93,3.13,46766.75,1821.22,3.05,20650.97
2000000,1178.63,615.67,1.00,1,1,1,8402.88,3.10,131014.78,6969.86,-3.09,162923.85,6034.11,-3.12,44952.60,2620.17,3.09,15792.57,2045.12,3.05,14083.25
2016000,1090.12,598.10,1.00,1,1,1,5639.94,-2.95,200347.23,3147.70,-2.81,251869.79,2276.14,-2.91,239730.11,2497.44,3.10,7896.08,1829.48,-3.14,17417.68
2031900,1083.58,583.31,1.00,1,1,1,1017.19,-1.99,322220.01,1085.37,-0.60,245162.94,733.62,-2.27,109717.59,2988.65,3.07,31343.36,3046.76,3.11,76709.60
2064600,1133.73,568.43,1.00,1,1,1,1599.84,-0.29,61235.43,1219.28,-0.22,13956.84,80.34,-1.78,20302.32,2689.57,3.06,9189.61,2383.93,3.13,20308.50
2080000,1140.87,570.75,1.00,2,2,2,487.05,0.31,79874.15,1061.68,2.69,147059.82,1098.43,2.75,72487.59,2064.41,3.09,40751.61,2620.17,3.09,16305.32
2112000,1088.53,590.56,1.00,1,1,1,1748.56,2.78,67191.87,3408.20,2.81,73694.03,3293.57,2.85,68869.68,954.06,-3.00,35774.10,2497.44,3.10,3948.04
2128000,986.20,624.05,1.00,1,1,1,6729.86,2.83,311483.67,6624.95,2.89,202333.99,3732.80,2.93,32612.24,1098.43,2.75,35285.64,2988.65,3.07,31147.46
2144000,883.40,644.05,1.00,1,1,1,6545.59,2.95,52724.49,4296.83,3.07,157778.09,2337.81,-3.05,104006.09,3293.57,2.85,137739.36,2689.57,3.06,18781.27
2160100,848.63,633.96,1.00,1,1,1,2248.82,-2.86,289455.52,2700.50,-0.89,400940.19,4296.83,3.07,126044.63,3732.80,2.93,32409.68,2064.41,3.09,38979.80
2176400,938.66,576.22,1.00,1,1,1,6561.92,-0.57,504162.24,6561.92,-0.57,250525.06,2700.50,-0.89,396020.68,2337.81,-3.05,102091.87,954.06,-3.00,70231.36
