@RELATION gaze_labels

%@METADATA width_px 1920
%@METADATA height_px 1080
%@METADATA width_mm 540.00
%@METADATA height_mm 254.00
%@METADATA distance_mm 620.00


@ATTRIBUTE time INTEGER
@ATTRIBUTE x NUMERIC
@ATTRIBUTE y NUMERIC
@ATTRIBUTE confidence NUMERIC
@ATTRIBUTE handlabeller1 INTEGER
@ATTRIBUTE handlabeller2 INTEGER
@ATTRIBUTE handlabeller_final INTEGER
@ATTRIBUTE speed_1 numeric
@ATTRIBUTE direction_1 numeric
@ATTRIBUTE acceleration_1 numeric
@ATTRIBUTE speed_2 numeric
@ATTRIBUTE direction_2 numeric
@ATTRIBUTE acceleration_2 numeric
@ATTRIBUTE speed_4 numeric
@ATTRIBUTE direction_4 numeric
@ATTRIBUTE acceleration_4 numeric
@ATTRIBUTE speed_8 numeric
@ATTRIBUTE direction_8 numeric
@ATTRIBUTE acceleration_8 numeric
@ATTRIBUTE speed_16 numeric
@ATTRIBUTE direction_16 numeric
@ATTRIBUTE acceleration_16 numeric

%The number after speed, direction denotes the step size that was used for the calculation.
%Acceleration was calculated between two adjacent samples of the already low pass filtered velocity

@DATA
0,685.50,949.99,1.00,1,1,1,0.00,0.00,0.00,3602.59,-3.11,0.00,2571.74,-3.14,0.00,1363.61,3.09,0.00,1245.32,3.09,0.00
14700,632.57,948.43,1.00,1,1,1,3602.59,-3.11,245074.47,2571.74,-3.14,70306.15,785.27,3.04,121985.32,899.03,3.01,32237.85,874.61,3.06,25340.96
30700,606.55,949.59,1.00,1,1,1,1627.60,3.10,123939.30,785.27,3.04,112074.01,1363.61,3.09,36322.75,886.10,3.00,936.99,677.95,3.06,12291.26
62800,595.00,952.36,1.00,1,1,1,370.06,2.91,39446.57,602.96,2.95,6007.40,899.03,3.01,14763.13,1061.00,3.04,5558.85,545.40,3.05,4136.89
78900,578.04,955.23,1.00,1,1,1,1068.33,2.97,43451.33,1071.08,2.98,29114.13,886.10,3.00,931.17,1245.32,3.09,12165.58,913.98,3.11,23057.86
94800,561.19,958.00,1.00,1,1,1,1073.87,2.98,483.39,1317.48,3.04,16150.81,1061.00,3.04,11222.59,874.61,3.06,23428.44,1646.83,3.14,46156.26
110700,536.37,959.60,1.00,1,1,1,1564.18,3.08,31864.17,1054.80,3.10,17117.24,1099.03,3.10,4689.63,677.95,3.06,12368.56,2062.20,3.14,26123.84
126700,527.58,959.48,1.00,1,1,1,549.84,-3.13,63556.80,887.51,-3.10,11642.02,847.51,3.13,15823.15,545.40,3.05,8299.64,2665.74,3.13,37742.60
142700,508.00,958.44,1.00,1,1,1,1225.48,-3.09,42275.55,644.48,-3.11,15198.87,426.45,-3.07,26526.58,913.98,3.11,23201.97,2110.77,3.12,34735.44
159100,506.71,958.86,1.00,1,1,1,82.91,2.82,70034.47,40.04,-0.71,41139.58,31.68,-2.90,24102.00,1646.83,3.14,44749.06,1916.98,3.11,11895.45
175100,508.98,957.60,1.00,1,1,1,162.93,-0.51,15303.08,600.28,0.01,35662.53,729.47,3.13,43679.89,2062.20,3.14,25960.57,1876.35,3.11,2553.84
190600,525.61,958.99,1.00,2,2,2,1076.63,0.08,61010.46,1511.65,3.11,136235.38,2455.08,-3.14,111339.77,2665.74,3.13,38960.10,1968.12,3.12,5982.89
206600,461.39,959.02,1.00,2,2,2,4014.11,3.14,317984.69,5453.34,-3.14,246433.54,3383.31,3.13,58059.73,2968.39,3.13,18918.92,1867.75,3.12,6272.71
222700,350.56,958.15,1.00,3,3,3,6883.71,-3.13,178257.21,4604.23,3.14,52803.90,4765.26,3.13,85837.92,2966.56,3.12,1315.30,1715.63,3.12,9471.45
254900,239.01,959.82,1.00,1,1,1,3464.94,3.13,106229.55,4306.88,3.12,9654.17,4752.26,3.13,410.88,3083.35,3.12,3628.62,1641.59,3.13,2332.25
270800,143.46,963.11,1.00,1,1,1,6012.55,3.11,160324.48,4976.91,3.12,42143.53,3374.01,3.11,86838.27,3221.74,3.13,8792.57,1504.34,3.13,8636.21
286800,80.28,963.33,1.00,1,1,1,3948.87,3.14,129322.71,1968.28,3.08,188172.10,2708.30,3.10,41620.14,2708.35,3.12,32121.86,1393.57,3.14,6944.87
302700,80.78,966.76,1.00,1,1,1,218.15,1.43,250655.07,439.90,2.93,96549.01,1317.38,3.12,87492.10,1771.01,3.11,58966.51,1347.94,3.14,2869.92
318600,66.61,966.29,1.00,1,1,1,891.87,-3.11,60062.72,694.06,-3.07,18693.89,184.98,2.79,71926.81,1220.37,3.11,34632.93,1335.44,3.13,896.26
335800,57.86,965.23,1.00,1,1,1,512.39,-3.02,22325.46,81.72,0.44,44807.50,166.04,3.13,3611.16,462.29,-3.14,44091.33,1428.00,3.13,5381.51
351500,69.04,967.43,1.00,1,1,1,725.85,0.19,78815.65,209.42,0.17,8435.95,44.59,-2.65,8204.94,35.09,-0.83,30997.01,1171.28,3.12,16377.56
382600,67.51,966.91,1.00,1,1,1,51.86,-2.81,24991.83,132.40,-2.67,10874.81,120.96,-0.19,5083.77,114.16,-0.40,2687.52,742.18,3.10,13817.08
398800,63.46,964.59,1.00,1,1,1,288.27,-2.62,14660.25,86.16,-1.15,9508.04,179.76,-0.50,4611.07,232.65,-0.16,7706.00,414.10,3.08,20264.68
431400,69.22,963.06,1.00,2,2,2,182.81,-0.26,13427.09,443.09,-0.26,12119.86,386.83,-0.24,6704.84,211.86,-0.10,762.47,28.61,2.14,12200.82
446900,84.07,959.18,1.00,2,2,2,990.50,-0.26,52109.16,916.28,-0.12,31050.41,502.20,-0.10,8346.61,227.85,-0.05,1191.85,246.99,0.10,16853.36
462600,97.61,959.68,1.00,1,1,1,862.52,0.04,18976.64,607.90,0.07,21516.64,350.34,-0.05,9787.31,400.79,0.02,11095.00,212.42,0.08,2233.07
478800,103.42,960.47,1.00,1,1,1,362.36,0.14,31060.61,207.51,2.78,49473.27,346.57,0.29,7214.98,393.89,0.05,937.18,228.59,0.04,1111.06
494700,91.37,962.02,1.00,1,1,1,764.25,3.01,70321.01,168.03,1.22,16716.29,449.84,0.29,6495.23,551.29,0.10,10005.18,231.18,0.03,263.91
510700,105.26,965.51,1.00,1,1,1,895.04,0.25,101911.00,1076.59,0.17,62737.33,282.27,0.40,10748.30,531.35,0.17,2644.20,72.04,0.04,9947.15
526600,125.22,967.82,1.00,1,1,1,1263.75,0.12,24772.44,466.59,0.13,38408.93,755.76,0.17,30508.03,356.94,0.26,11251.66,12.63,-0.03,3739.25
542700,120.07,967.42,1.00,1,1,1,320.97,-3.06,98418.53,435.94,0.16,2087.83,719.33,0.11,3430.77,236.14,0.28,7516.48,168.71,3.10,11262.97
558600,139.00,970.02,1.00,1,1,1,1201.60,0.14,95731.49,972.18,0.10,33807.70,264.48,0.21,28749.89,259.07,0.15,2552.58,126.25,0.21,18402.13
574700,151.02,970.57,1.00,1,1,1,747.56,0.04,28716.52,96.80,0.47,54814.50,194.19,0.12,4551.53,123.58,2.96,23490.32,745.04,0.06,38544.32
590600,141.76,971.42,1.00,2,2,2,584.85,3.05,83604.93,588.86,-3.05,42745.89,236.32,-2.94,27053.52,423.74,-3.12,19087.79,1354.04,0.03,38336.75
606500,132.36,968.94,1.00,3,3,3,611.21,-2.88,13226.40,565.61,-2.89,6049.84,960.20,-3.10,45802.31,728.98,-3.13,19201.43,1907.49,0.03,34821.38
622700,124.16,966.95,1.00,1,1,1,520.91,-2.90,5619.70,1329.13,-3.13,48757.09,1107.04,-3.08,9238.86,252.23,3.13,29432.46,2176.31,0.01,16650.44
638600,89.70,968.30,1.00,1,1,1,2168.89,3.10,105276.48,1662.95,-3.14,21026.48,1459.71,-3.12,22477.63,938.91,0.01,74912.62,1748.89,0.00,26922.77
654700,70.95,966.81,1.00,1,1,1,1168.59,-3.06,63223.30,1546.33,-3.12,7497.40,272.24,2.99,74076.24,2159.85,0.01,75834.69,1790.10,0.00,2560.98
687000,14.88,966.64,1.00,2,2,2,1735.89,-3.14,17883.55,666.46,0.11,68450.86,2455.59,0.02,84339.92,3246.41,0.01,33642.43,2126.06,0.01,10409.88
702600,102.68,970.34,1.00,2,2,2,5632.98,0.04,472298.45,8585.08,0.02,507803.85,4342.35,0.02,120946.52,3712.08,0.01,29860.95,2372.71,0.01,15810.74
718600,286.13,971.51,1.00,2,2,2,11465.76,0.01,364989.97,8013.85,0.01,36092.85,7999.72,0.01,228588.77,3105.89,-0.00,37943.33,2677.35,0.01,19042.94
750600,487.33,973.31,1.00,1,1,1,6287.90,0.01,161809.36,7615.31,0.01,12454.63,7682.95,0.00,10254.48,3402.31,0.00,9292.65,2908.26,0.02,7220.17
766700,652.41,974.48,1.00,1,1,1,10253.65,0.01,246321.29,7188.80,-0.01,27663.72,3646.70,-0.01,250745.11,4705.79,0.01,80972.02,2929.87,0.02,1443.41
782700,718.08,971.18,1.00,1,1,1,4109.62,-0.05,384704.07,351.79,-2.67,468945.54,2276.46,-0.02,85649.77,4733.64,0.01,1740.77,2891.44,0.02,2468.94
814900,637.27,966.84,1.00,2,2,2,2513.22,-3.09,205417.06,1016.66,-3.11,22146.77,1424.38,-0.00,26478.04,4240.88,0.01,15314.38,3004.23,0.02,3519.68
830600,669.41,969.58,1.00,3,3,3,2054.42,0.09,290896.64,4065.63,0.06,323699.31,1782.04,0.05,23329.15,3737.16,0.02,32149.04,3048.68,0.02,2838.83
846700,766.36,974.02,1.00,1,1,1,6028.05,0.05,246960.58,5958.21,0.04,117621.74,5143.35,0.04,208777.28,2578.23,0.03,71997.51,3631.02,0.02,36170.84
862700,860.50,977.66,1.00,1,1,1,5888.01,0.04,9130.30,6218.22,0.03,16493.95,5552.71,0.04,25585.61,1980.94,0.05,37463.59,3455.01,0.01,11027.24
878600,964.60,980.92,1.00,1,1,1,6550.59,0.03,41771.87,5150.98,0.04,67218.72,4019.72,0.04,96414.64,2866.23,0.05,55680.41,3240.39,0.01,13498.37
895100,1027.22,985.16,1.00,1,1,1,3803.82,0.07,166832.07,1842.87,0.08,200571.26,2229.65,0.06,108517.82,2564.44,0.04,18299.77,3020.56,0.02,13328.16
910800,1023.77,985.38,1.00,1,1,1,220.03,3.08,256181.09,768.24,3.11,166116.75,604.04,0.09,103578.04,2290.74,0.04,17461.76,2649.74,0.01,23621.77
926700,1002.96,985.92,1.00,1,1,1,1309.69,3.12,68544.37,647.10,-3.10,8224.10,466.18,-3.11,67272.80,2033.63,0.03,16249.93,2295.13,0.02,22312.30
942700,1003.15,984.59,1.00,1,1,1,84.17,-1.43,82893.69,175.14,-2.85,29960.15,556.90,-0.00,63935.02,2129.52,0.02,6119.58,2691.00,0.02,24745.82
958700,997.58,984.33,1.00,2,2,2,348.06,-3.09,22858.76,1756.79,0.01,120367.32,1878.53,-0.00,82601.53,2299.60,0.01,10697.88,2404.17,0.02,17952.29
974700,1059.36,985.27,1.00,2,2,2,3861.45,0.02,263084.18,3242.88,0.01,92883.60,3353.49,0.01,92195.79,2721.87,0.00,26415.84,2094.92,0.01,19335.91
1006700,1153.24,985.44,1.00,3,3,3,2933.70,0.00,29026.38,4417.98,0.00,36723.45,4498.33,0.01,35779.78,2578.96,-0.00,4481.14,1714.56,0.01,11886.49
1022700,1271.42,986.15,1.00,1,1,1,7386.56,0.01,278306.20,6381.53,0.01,122750.17,4451.14,0.00,3765.53,2552.46,-0.00,1675.60,1395.34,0.01,19956.72
1038700,1357.43,987.91,1.00,1,1,1,5376.82,0.02,125737.24,4500.94,-0.00,117634.55,3276.77,-0.00,73407.66,2288.93,-0.01,16494.37,1142.88,-0.00,15806.67
1054700,1415.45,985.83,1.00,1,1,1,3628.49,-0.04,110369.14,1222.04,-0.06,205087.59,1750.72,-0.02,95397.75,1953.41,-0.01,20973.47,1151.76,-0.00,563.85
1087000,1416.36,984.56,1.00,1,1,1,48.56,-0.95,111427.37,95.95,-2.71,40475.50,453.11,-0.15,40349.52,1453.81,-0.00,15473.71,1191.93,-0.00,1243.82
1102600,1411.28,983.89,1.00,1,1,1,328.20,-3.01,22668.45,341.06,-2.94,15943.53,139.38,-2.83,37242.44,795.11,-0.01,42228.40,1170.79,0.00,1374.40
1134700,1400.42,981.29,1.00,1,1,1,347.91,-2.91,1262.43,183.90,-2.89,4910.29,75.90,3.09,2299.00,278.61,-0.08,16119.38,1142.64,0.01,908.08
1150500,1402.75,981.71,1.00,1,1,1,149.62,0.18,31478.10,196.32,0.40,23997.99,8.87,1.30,4953.90,25.25,-2.88,19149.41,988.30,0.00,9771.95
1182700,1409.11,984.95,1.00,1,1,1,221.59,0.47,2778.12,191.36,0.33,439.00,110.97,0.24,3320.53,74.27,3.12,1569.60,780.47,-0.00,6456.29
1198900,1411.51,984.71,1.00,1,1,1,149.06,-0.10,7720.98,41.73,-0.59,10462.04,88.40,0.34,1530.44,83.92,3.08,618.29,452.86,-0.02,20229.83
1230700,1410.77,983.83,1.00,1,1,1,36.31,-2.27,5415.34,15.86,-2.97,1707.27,72.40,-3.13,4987.36,33.22,1.62,2729.93,205.86,-0.06,7780.63
1246800,1410.76,984.58,1.00,1,1,1,46.86,1.58,4852.34,235.73,3.00,13708.06,187.72,3.14,7163.55,36.27,0.81,1706.85,14.22,-0.10,11903.39
1262600,1403.32,984.88,1.00,1,1,1,471.23,3.10,29828.68,446.17,3.13,13575.40,138.81,2.84,4337.56,39.83,-0.04,2004.56,74.27,3.12,5598.45
1278700,1396.53,984.76,1.00,1,1,1,421.95,-3.12,3456.82,80.87,2.53,23744.81,50.51,2.69,5541.20,75.77,-0.10,2241.17,83.92,3.08,622.13
1311000,1400.13,987.14,1.00,1,1,1,133.47,0.58,16697.45,223.96,0.15,8912.11,151.73,-0.02,6149.52,108.96,-0.02,1049.69,33.22,1.62,2687.67
1326600,1407.14,986.35,1.00,1,1,1,452.47,-0.11,23105.72,490.34,-0.16,18269.90,338.21,-0.05,11962.11,60.55,0.08,3146.75,36.27,0.81,1761.56
1342700,1415.47,984.69,1.00,1,1,1,527.89,-0.20,5339.26,519.08,-0.17,1829.24,417.35,-0.14,5369.80,151.73,-0.02,5689.95,39.83,-0.04,1967.21
1358700,1423.56,983.51,1.00,1,1,1,510.57,-0.14,2007.51,345.27,-0.11,10977.43,165.84,-0.08,15752.18,338.21,-0.05,11663.06,75.77,-0.10,2255.18
1374700,1426.46,983.46,1.00,1,1,1,181.05,-0.02,20735.37,74.79,2.62,25926.69,345.27,-0.11,11226.02,417.35,-0.14,5403.36,108.96,-0.02,2119.06
1407000,1420.43,985.33,1.00,2,2,2,195.13,2.84,11530.73,195.13,2.84,3819.70,74.79,2.62,12842.94,165.84,-0.08,7802.94,60.55,0.08,1519.79
