@RELATION gaze_labels

%@METADATA width_px 1920
%@METADATA height_px 1080
%@METADATA width_mm 540.00
%@METADATA height_mm 254.00
%@METADATA distance_mm 620.00


@ATTRIBUTE time INTEGER
@ATTRIBUTE x NUMERIC
@ATTRIBUTE y NUMERIC
@ATTRIBUTE confidence NUMERIC
@ATTRIBUTE handlabeller1 INTEGER
@ATTRIBUTE handlabeller2 INTEGER
@ATTRIBUTE handlabeller_final INTEGER
@ATTRIBUTE speed_1 numeric
@ATTRIBUTE direction_1 numeric
@ATTRIBUTE acceleration_1 numeric
@ATTRIBUTE speed_2 numeric
@ATTRIBUTE direction_2 numeric
@ATTRIBUTE acceleration_2 numeric
@ATTRIBUTE speed_4 numeric
@ATTRIBUTE direction_4 numeric
@ATTRIBUTE acceleration_4 numeric
@ATTRIBUTE speed_8 numeric
@ATTRIBUTE direction_8 numeric
@ATTRIBUTE acceleration_8 numeric
@ATTRIBUTE speed_16 numeric
@ATTRIBUTE direction_16 numeric
@ATTRIBUTE acceleration_16 numeric

%The number after speed, direction denotes the step size that was used for the calculation.
%Acceleration was calculated between two adjacent samples of the already low pass filtered velocity

@DATA
0,450.51,949.58,1.00,1,1,1,0.00,0.00,0.00,374.08,1.31,0.00,324.40,2.42,0.00,182.23,2.67,0.00,40.25,-2.69,0.00
16000,452.03,955.37,1.00,1,1,1,374.08,1.31,23379.71,324.40,2.42,23030.58,638.90,-3.13,28386.00,47.05,-3.03,9061.56,518.52,-2.98,30006.02
32100,442.71,956.49,1.00,1,1,1,582.92,3.02,45632.90,638.90,-3.13,28209.69,182.23,2.67,30089.94,45.99,-2.36,1900.54,1264.78,-3.06,46516.49
48000,431.58,955.13,1.00,1,1,1,704.81,-3.02,12322.98,97.46,-2.69,34732.69,47.05,-3.03,9118.55,144.28,-0.48,10341.92,2285.45,-3.10,64383.65
66400,439.70,955.03,1.00,1,1,1,441.12,-0.01,62146.72,346.32,-0.01,23683.15,45.99,-2.36,1662.97,40.25,-2.69,9311.59,3424.74,-3.12,62008.77
96200,448.28,954.97,1.00,1,1,1,287.78,-0.01,5146.08,25.95,-1.24,11363.24,144.28,-0.48,5518.01,518.52,-2.98,16110.62,3987.24,-3.14,18942.34
112200,440.08,953.90,1.00,1,1,1,516.43,-3.01,50156.07,159.41,-2.19,9105.16,102.30,-1.03,4887.89,1264.78,-3.06,46807.22,4118.08,-3.14,8181.73
144000,443.88,948.75,1.00,2,2,2,201.26,-0.94,20081.19,174.74,-1.00,5890.47,992.44,-2.98,32528.26,2285.45,-3.10,32191.82,4578.99,3.13,14616.39
160900,444.68,946.75,1.00,2,2,2,127.83,-1.19,4950.89,2313.41,-3.05,141950.70,2498.95,-3.07,89555.94,3424.74,-3.12,67512.51,2188.15,3.13,141470.21
176000,370.16,941.92,1.00,2,2,2,4945.58,-3.08,330275.05,6547.24,-3.11,280754.64,5902.64,-3.12,225807.95,3987.24,-3.14,37382.89,2168.98,3.14,1451.86
192000,241.20,939.30,1.00,3,3,3,8061.71,-3.12,195544.15,9499.28,-3.14,185236.02,8631.51,-3.14,170771.33,4118.08,-3.14,8181.73,2163.05,3.14,436.79
208000,66.19,940.95,1.00,1,1,1,10938.91,3.13,180670.68,10663.47,3.12,74168.83,6981.79,3.12,103570.89,4578.99,3.13,29050.07,2019.76,3.14,8960.87
224000,-99.96,946.01,1.00,1,1,1,10389.21,3.11,37098.27,5313.77,3.10,334567.55,5742.03,3.11,77564.29,4608.04,3.13,2084.18,1939.78,3.14,5038.48
256200,-189.68,952.46,1.00,1,1,1,2793.36,3.07,235997.19,2461.95,3.09,88568.45,3525.58,3.09,68926.48,4012.10,3.11,18612.16,1815.88,3.14,3854.33
272000,-217.98,952.00,1.00,1,1,1,1791.78,-3.13,64597.25,818.18,3.01,104310.34,1439.43,3.05,132135.97,3169.15,3.10,53438.26,1618.71,3.13,12539.29
288000,-215.46,955.96,1.00,1,1,1,293.25,1.00,123049.29,169.98,0.91,57191.49,294.12,2.80,72332.58,1733.13,3.07,89844.31,1599.35,3.11,2393.57
304000,-214.66,956.30,1.00,1,1,1,54.70,0.41,15611.77,269.24,0.34,9788.78,120.02,1.09,20783.42,324.00,2.94,88287.21,1580.36,3.09,1674.80
320000,-207.33,958.82,1.00,2,2,2,483.94,0.33,26839.53,78.38,1.48,15429.64,471.61,0.09,26178.81,901.25,0.04,76131.45,1230.21,3.07,21955.30
335900,-214.42,958.79,1.00,2,2,2,445.88,-3.14,57699.55,677.64,-0.00,42461.97,1073.76,-0.01,38148.89,1503.78,0.05,37897.39,764.83,2.99,29682.28
353200,-184.83,958.71,1.00,3,3,3,1710.22,-0.00,124629.67,2129.34,-0.05,83970.51,2072.21,-0.01,57713.75,1755.96,0.04,14606.78,178.26,2.63,34745.26
368200,-145.73,955.42,1.00,1,1,1,2616.44,-0.08,61493.81,3570.61,-0.01,96318.02,2944.06,0.01,58259.70,1807.28,0.05,3610.64,364.66,0.18,34357.37
384100,-74.51,957.33,1.00,1,1,1,4480.52,0.03,119637.17,3778.13,0.05,19221.31,3090.16,0.03,9738.62,1552.71,0.03,16088.61,635.37,0.04,17518.03
400000,-25.72,961.25,1.00,1,1,1,3078.34,0.08,89065.98,2632.04,0.09,72463.24,2547.07,0.07,35012.74,1652.86,0.06,6707.96,766.71,0.04,8260.82
416000,9.14,964.54,1.00,1,1,1,2188.64,0.09,55651.86,1332.01,0.14,81536.95,1140.93,0.10,87918.78,1282.64,0.04,23173.21,749.22,-0.00,2137.17
432100,16.59,967.40,1.00,1,1,1,495.55,0.37,106611.99,155.40,0.22,73114.02,628.61,0.22,32441.00,971.78,0.06,19370.95,767.62,0.01,1329.51
464200,16.45,966.19,1.00,1,1,1,37.89,-1.69,16021.16,172.32,0.60,2006.82,104.41,0.28,16336.52,422.84,0.04,17110.93,767.41,0.02,102.85
480000,23.38,972.08,1.00,1,1,1,576.20,0.70,38260.40,53.98,0.43,7564.96,80.41,-2.88,11697.38,230.95,-0.01,12172.94,819.33,0.03,3318.56
512100,18.80,967.27,1.00,1,1,1,207.23,-2.33,24379.55,328.22,-2.70,11906.47,303.21,-2.87,6941.11,52.35,-1.21,6785.14,717.97,0.01,3176.65
527900,9.14,965.42,1.00,1,1,1,621.99,-2.95,29696.03,836.96,-2.86,32589.75,145.35,-2.22,13098.97,45.67,-1.32,534.70,579.03,0.04,8864.23
544100,-6.90,959.72,1.00,1,1,1,1051.09,-2.80,27558.64,151.40,-0.65,57671.83,163.05,-2.09,1699.89,62.28,-0.31,3335.98,260.93,0.02,19643.05
576000,14.92,960.99,1.00,1,1,1,685.25,0.06,53909.69,409.38,-0.20,8833.40,138.64,-0.55,6590.26,80.91,-0.52,739.85,45.01,-0.01,6769.06
592100,12.38,955.91,1.00,1,1,1,352.81,-2.04,56770.75,122.96,-0.36,17930.89,412.98,0.10,19531.58,104.14,-0.39,1618.68,121.50,3.11,10341.33
607900,18.60,959.62,1.00,1,1,1,458.49,0.54,49324.04,481.14,0.49,25955.15,316.76,0.23,6780.82,146.64,-0.14,3330.82,25.27,2.76,6212.06
624000,25.92,963.14,1.00,1,1,1,504.35,0.45,3927.05,534.37,0.36,5220.70,329.06,0.27,1088.83,81.24,-0.08,4079.61,484.65,0.04,31539.97
640000,34.64,965.69,1.00,2,2,2,568.10,0.29,6728.31,215.65,-0.22,23382.74,184.82,0.25,9021.92,210.65,3.14,18233.22,1093.00,0.00,38057.18
656200,32.69,961.59,1.00,3,3,3,280.19,-2.02,48347.83,172.02,-2.54,21940.18,338.31,-2.94,32283.38,323.27,2.90,7923.41,1883.65,0.01,48807.79
672100,30.09,962.56,1.00,1,1,1,174.17,2.79,19910.75,886.03,-3.04,46538.87,732.85,-3.04,25034.43,99.79,2.29,15593.64,2334.45,0.01,28354.92
687900,4.74,958.78,1.00,1,1,1,1622.16,-2.99,93167.57,1321.59,-3.11,27947.17,948.76,3.07,16263.39,957.80,0.06,64681.33,2559.95,0.01,14281.69
704000,-12.04,961.16,1.00,1,1,1,1052.96,3.00,42366.92,1033.88,2.93,25314.28,280.00,2.78,42545.72,2229.74,0.02,79088.78,2552.21,0.01,772.17
720100,-27.78,965.87,1.00,1,1,1,1020.61,2.85,9837.92,478.96,0.41,90001.37,1989.45,0.08,139502.27,3675.06,0.02,89774.73,2394.99,0.02,9850.48
752200,9.10,970.44,1.00,2,2,2,1157.78,0.12,66420.66,3996.94,0.03,110820.20,4598.33,0.03,81410.68,4307.64,0.01,19711.21,2610.14,0.02,6703.57
768000,163.58,971.61,1.00,2,2,2,9777.82,0.01,546129.62,10898.22,0.01,436909.93,7370.38,0.01,175648.93,4782.44,0.01,30051.19,3030.32,0.02,26594.49
784000,355.66,972.35,1.00,3,3,3,12004.65,0.00,139199.06,12422.25,-0.00,95466.58,8888.14,0.00,94908.52,4761.10,0.01,2166.80,3492.07,0.02,28860.85
800000,561.09,970.29,1.00,1,1,1,12840.44,-0.01,53334.39,7559.34,-0.00,303932.40,7574.12,-0.00,82177.30,4365.56,0.00,24760.14,3922.56,0.02,26925.08
832100,719.26,971.51,1.00,1,1,1,4927.45,0.01,246549.60,4362.11,-0.01,99603.98,4925.94,-0.01,82516.69,5027.30,0.00,20616.42,4097.90,0.02,5469.20
848300,771.78,969.09,1.00,1,1,1,3245.42,-0.05,104672.42,976.58,-0.14,209718.99,1864.96,-0.01,188949.68,4893.09,0.01,8407.86,4125.81,0.02,1763.84
864100,750.19,967.04,1.00,1,1,1,1372.67,-3.05,291680.06,664.19,-3.11,103455.89,1161.98,0.03,44654.06,4619.02,0.02,17521.33,4201.32,0.02,4805.68
896000,740.11,968.04,1.00,2,2,2,317.34,3.04,33323.51,1300.52,0.11,61544.57,2205.04,0.06,32726.66,4145.12,0.03,14925.70,4234.46,0.01,1281.24
911900,811.95,974.12,1.00,0,0,0,4534.01,0.08,304803.19,6442.07,0.05,323564.96,4321.19,0.05,133092.29,3864.85,0.03,17636.15,4285.34,0.01,3704.36
928300,947.91,978.87,1.00,1,1,1,8295.47,0.03,230102.62,8648.51,0.04,134671.76,7568.51,0.04,198034.16,3393.38,0.04,28775.23,3730.47,0.01,33837.80
945300,1100.59,985.37,1.00,1,1,1,8989.20,0.04,40987.91,8716.76,0.04,4261.77,7234.99,0.03,20341.48,3579.14,0.04,10943.49,3032.25,0.00,41073.19
960000,1224.05,988.86,1.00,1,1,1,8402.16,0.03,40810.89,5692.99,0.02,205905.00,4886.64,0.02,159769.00,4055.61,0.03,32462.20,2339.91,0.01,47106.46
975900,1274.77,988.31,1.00,1,1,1,3190.02,-0.01,328054.45,1097.33,-0.06,289316.69,2618.18,0.01,142707.84,3364.76,0.01,43666.00,1915.09,0.01,26725.47
992000,1259.09,986.61,1.00,1,1,1,979.42,-3.03,258641.87,324.00,-3.02,88012.43,560.28,-0.12,128175.44,2271.21,-0.00,67991.96,1816.81,0.03,6303.33
1007900,1264.48,987.05,1.00,1,1,1,339.84,0.08,82966.65,63.70,-1.23,21600.74,478.88,-2.87,64112.04,1017.48,-0.08,79140.25,1808.99,0.03,658.79
1024200,1259.78,984.67,1.00,1,1,1,323.18,-2.67,39921.26,636.01,-2.79,39168.02,359.55,-2.74,8025.08,129.47,-0.87,57141.08,1622.63,0.03,11439.44
1040600,1244.95,979.89,1.00,1,1,1,949.82,-2.83,38568.74,722.32,-2.83,5472.11,576.88,-2.83,13495.03,282.64,-2.87,21717.95,709.22,-0.02,55785.43
1056000,1237.94,977.55,1.00,1,1,1,480.07,-2.82,30506.50,516.64,-2.88,13516.55,415.14,-2.82,10511.38,61.51,-0.56,21236.04,441.95,-3.01,74533.81
1072100,1229.24,975.65,1.00,1,1,1,553.08,-2.93,5691.17,109.22,-2.75,25381.65,82.38,-2.87,20677.03,52.54,-0.55,558.06,1437.61,-3.08,61938.27
1087900,1234.73,976.20,1.00,1,1,1,348.99,0.10,57003.95,346.44,0.26,28789.75,439.36,0.17,32999.39,546.64,-3.08,37371.44,1890.92,-3.09,28711.34
1104000,1239.92,978.48,1.00,1,1,1,352.43,0.41,6793.82,977.08,0.20,39232.70,529.34,0.18,5589.97,1677.20,-3.10,70228.74,1986.05,-3.10,6093.12
1120300,1265.77,982.40,1.00,1,1,1,1603.85,0.15,77713.71,651.68,0.15,20111.59,668.70,3.07,72939.25,2591.19,-3.10,56074.19,1889.98,-3.11,5951.76
1152100,1270.93,983.08,1.00,2,2,2,163.65,0.13,45290.54,1771.45,-3.11,76091.76,2944.46,-3.11,71724.21,3377.13,-3.11,24721.06,1939.27,-3.10,1560.76
1168000,1181.30,980.08,1.00,2,2,2,5640.03,-3.11,364964.66,8378.52,-3.09,415570.96,4608.04,-3.09,104658.02,3321.66,-3.11,3491.54,1960.86,-3.11,1578.97
1183900,1004.81,970.05,1.00,1,1,1,11118.02,-3.08,344723.53,7381.08,-3.09,62743.32,7278.52,-3.10,167961.44,3231.00,-3.11,5772.13,1887.57,-3.12,4698.44
1216800,821.58,961.60,1.00,1,1,1,5575.23,-3.10,168493.15,6552.99,-3.10,25334.58,5538.65,-3.10,52884.09,3306.49,-3.11,2294.64,1781.90,-3.12,3222.45
1232100,689.18,958.15,1.00,1,1,1,8656.50,-3.12,201594.74,3634.45,-3.11,190781.12,3469.09,-3.12,135386.00,3725.33,-3.11,27387.76,1781.96,-3.13,619.79
1264000,650.10,956.85,1.00,1,1,1,1225.78,-3.11,232939.12,384.10,2.92,102293.60,1726.54,3.11,54780.66,3231.28,-3.11,15491.94,1806.37,-3.12,786.96
1280100,671.18,962.13,1.00,1,1,1,1349.65,0.25,159067.19,1113.46,0.25,91089.24,192.67,2.77,96057.63,2076.18,-3.13,71785.51,1862.43,-3.11,3653.56
1296100,684.73,965.71,1.00,1,1,1,875.83,0.26,29626.36,124.53,0.43,61945.54,254.73,0.53,25213.59,875.72,3.10,75156.19,2039.95,-3.10,11219.91
1312200,674.82,963.79,1.00,1,1,1,627.08,-2.95,93297.60,642.02,-3.11,47101.64,54.59,1.20,13328.49,64.75,1.74,53698.80,3725.33,-3.11,104695.10
1328100,664.19,965.10,1.00,1,1,1,673.20,3.02,13094.85,89.68,2.55,35941.37,179.23,0.06,10330.61,287.21,0.25,18201.08,3231.28,-3.11,31081.32
1344000,672.45,965.38,1.00,1,1,1,519.54,0.03,74788.63,1000.40,0.04,67556.55,207.41,0.27,3151.81,19.03,0.12,16877.44,2076.18,-3.13,72688.47
1360100,696.18,966.35,1.00,1,1,1,1475.30,0.04,59365.30,475.50,0.13,32827.83,337.15,0.04,8899.30,305.53,-2.90,20151.14,875.72,3.10,74689.38
1376100,687.59,967.34,1.00,1,1,1,540.76,3.03,125704.75,330.27,-3.11,50308.18,49.37,-1.20,20280.35,207.41,0.27,32055.51,64.75,1.74,54034.41
1391900,685.69,965.97,1.00,1,1,1,148.15,-2.52,28008.34,461.81,-2.80,11164.30,788.66,-2.94,50544.59,337.15,0.04,9068.27,287.21,0.25,18316.27
1408200,673.60,962.43,1.00,1,1,1,772.72,-2.86,38947.54,1248.28,-2.90,48454.74,461.81,-2.80,20695.74,49.37,-1.20,19907.09,19.03,0.12,16463.27
1424000,646.78,956.37,1.00,1,1,1,1739.97,-2.92,61393.97,1739.97,-2.92,31175.13,1248.28,-2.90,49988.11,788.66,-2.94,50544.59,305.53,-2.90,20533.76
