@RELATION gaze_labels

%@METADATA width_px 1920
%@METADATA height_px 1080
%@METADATA width_mm 540.00
%@METADATA height_mm 254.00
%@METADATA distance_mm 620.00


@ATTRIBUTE time INTEGER
@ATTRIBUTE x NUMERIC
@ATTRIBUTE y NUMERIC
@ATTRIBUTE confidence NUMERIC
@ATTRIBUTE handlabeller1 INTEGER
@ATTRIBUTE handlabeller2 INTEGER
@ATTRIBUTE handlabeller_final INTEGER
@ATTRIBUTE speed_1 numeric
@ATTRIBUTE direction_1 numeric
@ATTRIBUTE acceleration_1 numeric
@ATTRIBUTE speed_2 numeric
@ATTRIBUTE direction_2 numeric
@ATTRIBUTE acceleration_2 numeric
@ATTRIBUTE speed_4 numeric
@ATTRIBUTE direction_4 numeric
@ATTRIBUTE acceleration_4 numeric
@ATTRIBUTE speed_8 numeric
@ATTRIBUTE direction_8 numeric
@ATTRIBUTE acceleration_8 numeric
@ATTRIBUTE speed_16 numeric
@ATTRIBUTE direction_16 numeric
@ATTRIBUTE acceleration_16 numeric

%The number after speed, direction denotes the step size that was used for the calculation.
%Acceleration was calculated between two adjacent samples of the already low pass filtered velocity

@DATA
0,197.90,934.95,1.00,1,1,1,0.00,0.00,0.00,561.13,0.94,0.00,428.82,0.71,0.00,230.46,0.25,0.00,962.76,3.08,0.00
16100,203.24,942.23,1.00,1,1,1,561.13,0.94,34853.09,428.82,0.71,10734.23,304.68,0.00,17391.43,527.10,-0.05,19495.68,2150.34,3.13,73931.60
32000,208.30,943.90,1.00,1,1,1,334.85,0.32,21875.22,304.68,0.00,17610.19,230.46,0.25,6196.83,655.90,-0.02,8147.45,3018.27,-3.14,54625.96
48300,213.05,942.25,1.00,1,1,1,308.79,-0.33,12756.23,204.38,-0.92,14917.57,527.10,-0.05,19256.47,215.77,3.06,53462.29,3660.05,-3.14,39372.76
64700,212.36,938.60,1.00,1,1,1,227.02,-1.76,21680.84,752.86,-0.07,38814.54,655.90,-0.02,7899.05,962.76,3.08,45550.06,3672.52,3.14,1897.28
80100,236.93,940.61,1.00,1,1,1,1601.33,0.08,108834.73,1218.64,0.11,32265.46,215.77,3.06,56586.71,2150.34,3.13,77292.13,3745.52,-3.14,4833.13
96000,250.26,942.87,1.00,1,1,1,850.01,0.17,47672.80,860.16,3.07,130199.10,1924.45,3.11,107479.13,3018.27,-3.14,54625.96,3818.95,-3.14,4618.29
127900,195.93,943.61,1.00,2,2,2,1703.35,3.13,79750.39,3954.47,3.14,97078.65,4268.16,3.13,73497.67,3660.05,-3.14,20118.37,3833.40,3.13,1052.96
144300,59.26,943.91,1.00,3,3,3,8333.32,3.14,404275.45,9192.27,3.14,319378.56,5467.56,-3.14,73256.78,3672.52,3.14,1897.28,1980.18,3.12,113015.66
161000,-108.33,944.93,1.00,3,3,3,10035.82,3.14,101968.08,6999.85,-3.14,131378.44,7083.60,-3.13,96791.39,3745.52,-3.14,4456.90,2041.47,3.14,4016.81
192000,-274.62,941.87,1.00,1,1,1,5365.16,-3.12,150778.07,5599.53,-3.12,45274.64,5421.91,-3.13,53603.09,3818.95,-3.14,2368.73,1845.20,3.13,6334.67
208000,-371.45,939.35,1.00,1,1,1,6053.75,-3.12,43124.28,3062.56,-3.12,158565.25,3212.61,-3.12,138112.05,3833.40,3.13,2099.35,1363.65,3.12,30120.42
223900,-372.31,940.23,1.00,1,1,1,77.48,2.34,377468.37,271.72,0.07,209682.77,1376.58,3.14,115513.80,3003.97,3.14,52173.30,953.38,3.08,25985.50
240200,-362.72,939.94,1.00,1,1,1,588.26,-0.03,39630.39,264.47,0.23,2635.76,260.13,0.50,98718.20,1931.20,-3.14,65816.77,693.63,3.04,16068.15
256800,-363.83,942.18,1.00,1,1,1,150.64,2.03,40493.65,297.22,0.90,11358.58,74.36,1.53,13891.55,380.53,3.02,93634.55,564.53,3.03,7779.90
272100,-356.84,947.37,1.00,1,1,1,569.03,0.64,36717.77,281.14,2.81,30906.85,349.02,2.93,22507.33,1175.48,0.06,101369.08,462.93,3.00,6752.43
287900,-372.11,944.99,1.00,1,1,1,978.27,-2.99,95282.33,871.34,-3.04,39634.58,654.43,0.14,62632.86,2057.69,0.06,55843.67,68.21,2.16,26596.37
304000,-384.49,944.61,1.00,2,2,2,769.72,-3.11,14584.18,1539.58,0.06,149718.01,1925.87,0.02,79407.21,2716.53,0.06,40923.18,528.56,0.09,35049.79
319900,-322.92,947.86,1.00,2,2,2,3877.69,0.05,292279.57,3760.33,0.03,139730.78,3696.51,0.04,111412.97,3072.06,0.04,22497.57,1159.56,0.04,39758.34
352600,-201.83,950.29,1.00,3,3,3,3703.94,0.02,6526.75,5131.69,0.04,41941.56,5151.83,0.04,44508.59,2916.94,0.04,4783.31,1484.56,0.04,9942.74
368000,-76.24,956.58,1.00,1,1,1,8165.16,0.05,289888.49,7306.32,0.05,141380.24,4953.28,0.03,13222.39,2917.67,0.04,183.38,1469.15,0.04,1109.49
384000,27.27,962.39,1.00,1,1,1,6479.75,0.06,105373.70,4694.01,0.03,163438.83,4168.07,0.05,49227.87,2968.41,0.03,3212.31,1454.27,0.05,1376.61
401100,79.05,961.62,1.00,1,1,1,3028.23,-0.01,202678.46,1127.31,0.02,208589.74,1944.50,0.03,130070.47,2521.50,0.02,26209.14,1394.09,0.05,3534.76
416400,63.79,963.01,1.00,1,1,1,1001.35,3.05,263229.33,991.38,-3.10,138462.25,247.46,-0.22,111497.02,1835.71,0.02,44828.54,1360.67,0.05,2229.25
432100,48.35,960.23,1.00,1,1,1,999.51,-2.96,17096.04,679.29,-2.95,21307.81,617.88,-2.99,54316.48,880.85,0.01,60822.16,1369.59,0.05,580.63
448000,42.72,958.91,1.00,1,1,1,363.46,-2.91,40051.57,282.77,-2.60,26721.52,512.06,-2.86,7932.07,195.15,-0.02,43131.35,1348.37,0.05,1337.80
464100,40.59,955.56,1.00,1,1,1,246.39,-2.14,15823.10,355.09,-2.70,4916.00,42.07,-0.84,33034.83,130.31,3.09,20212.22,1168.13,0.05,11195.28
480200,32.38,954.03,1.00,1,1,1,519.12,-2.96,24535.24,213.60,0.21,35108.96,162.47,0.23,9128.01,61.60,2.43,5603.98,788.84,0.05,23559.07
512000,50.59,957.73,1.00,1,1,1,584.50,0.20,34703.91,507.60,0.33,9322.31,199.56,0.38,1438.54,48.63,2.17,600.59,370.91,0.01,13153.50
528100,55.39,961.89,1.00,1,1,1,394.31,0.72,19238.72,191.77,0.57,20140.53,297.04,0.57,6711.72,118.02,2.79,5166.80,14.58,-0.52,22266.44
560000,58.37,962.66,1.00,1,1,1,96.48,0.25,9749.09,158.73,1.44,4764.07,138.84,2.21,10540.52,83.07,2.29,1879.04,171.55,-3.10,5767.91
576200,56.36,969.46,1.00,1,1,1,438.06,1.86,27893.09,465.78,2.87,29022.60,382.34,3.02,18774.98,64.27,2.41,1288.93,133.78,-3.12,2344.95
592100,43.96,966.65,1.00,1,1,1,799.50,-2.92,55762.31,990.38,-3.02,37032.15,416.61,3.03,2167.21,139.10,3.12,6254.71,102.84,2.99,2331.15
608100,25.01,965.50,1.00,1,1,1,1186.32,-3.08,26110.81,380.72,-3.05,38129.04,513.08,-2.88,12328.52,151.52,-3.07,1144.76,96.72,2.80,1206.66
624000,31.86,965.57,1.00,1,1,1,430.83,0.01,101681.83,144.80,-1.64,24278.02,248.13,-2.58,17963.54,218.07,-3.03,4205.88,106.99,2.65,1178.10
640100,24.71,960.88,1.00,1,1,1,531.01,-2.56,57350.11,234.90,-1.74,5732.77,100.56,-0.72,18194.13,236.06,-2.93,1864.92,92.23,2.47,1437.52
656000,30.57,958.16,1.00,1,1,1,405.80,-0.43,51636.72,132.46,-0.11,17405.55,98.18,-2.22,8527.78,184.37,-3.08,3828.01,161.24,2.92,5561.04
688700,31.11,960.16,1.00,1,1,1,63.44,1.31,12878.04,75.70,2.83,6334.70,26.08,2.40,3176.65,73.07,2.83,3645.16,209.86,-3.10,2063.72
704200,27.10,959.30,1.00,2,2,2,264.84,-2.93,19316.22,262.38,2.88,12054.46,185.17,2.65,10327.56,142.81,2.87,4508.69,255.18,-3.05,3028.79
720000,23.18,962.28,1.00,2,2,2,312.04,2.49,15525.29,353.31,2.60,7886.16,288.15,2.65,6517.68,123.39,2.50,3363.13,261.50,-2.95,1614.26
736000,17.47,965.09,1.00,3,3,3,397.33,2.68,6823.49,325.10,2.48,3173.86,295.75,2.49,3106.60,187.97,2.78,4839.66,261.73,-3.00,792.11
752000,15.00,968.71,1.00,1,1,1,274.27,2.17,13023.40,246.04,2.33,5585.82,244.31,2.51,3248.04,283.56,-3.13,8059.15,183.21,-3.02,4916.14
769300,11.85,971.05,1.00,1,1,1,226.66,2.50,5545.13,165.19,2.59,5554.22,195.48,2.93,5951.27,297.06,-3.06,1298.42,251.88,-3.07,4015.91
784400,10.45,971.54,1.00,1,1,1,97.89,2.80,9013.72,241.10,-2.67,13882.11,343.24,-2.71,14567.18,290.23,-2.98,1711.64,204.39,3.11,3488.81
800000,5.24,967.71,1.00,1,1,1,414.61,-2.51,23620.87,616.90,-2.48,24548.82,429.87,-2.56,6641.83,339.82,-2.96,3200.31,235.09,3.05,2145.08
816100,-5.01,959.57,1.00,1,1,1,813.11,-2.47,24789.49,612.31,-2.52,1580.10,446.29,-2.57,1046.57,301.30,-2.92,2497.05,254.86,3.06,1247.54
832100,-10.78,956.32,1.00,1,1,1,413.73,-2.63,25616.47,285.18,-2.77,21417.94,470.69,-2.83,7562.49,374.01,-2.95,4567.19,217.11,3.01,2501.82
848100,-13.51,956.24,1.00,1,1,1,170.59,-3.11,17143.30,414.63,-3.14,11294.60,279.80,-3.13,13708.69,304.28,-2.96,4374.04,105.97,2.89,7038.63
880200,-30.72,956.23,1.00,1,1,1,536.30,-3.14,11396.14,296.39,2.92,4419.25,375.89,3.00,3374.15,286.97,-3.08,1191.65,106.62,-3.12,915.86
896100,-27.39,959.34,1.00,1,1,1,286.41,0.75,48487.99,337.29,2.72,4769.08,258.12,2.87,7815.78,234.02,2.97,5052.83,79.54,-3.07,1724.19
912100,-40.54,960.64,1.00,1,1,1,825.63,3.04,64834.95,220.93,2.80,7401.97,163.94,2.43,8161.02,166.38,2.70,5393.54,127.26,-2.91,3153.49
944300,-37.43,962.90,1.00,1,1,1,119.41,0.63,28517.63,87.09,1.59,6430.19,199.27,2.72,1953.11,96.94,1.09,6074.68,107.89,-2.77,787.16
960100,-40.61,964.82,1.00,1,1,1,235.40,2.60,19151.64,170.04,2.55,8832.60,114.03,0.89,16024.13,130.50,0.44,5008.30,98.32,-2.90,1022.44
976100,-41.91,965.93,1.00,1,1,1,106.50,2.43,8220.73,203.40,0.46,20172.17,500.37,0.22,26050.50,145.74,0.38,1093.55,181.51,3.10,5726.48
992000,-34.81,967.73,1.00,1,1,1,460.38,0.25,33269.56,1121.86,0.11,58709.75,409.29,-0.02,8893.52,118.30,0.12,2757.76,338.51,3.11,9874.58
1008000,-6.35,969.99,1.00,1,1,1,1784.42,0.08,83305.17,627.60,-0.15,33927.66,530.42,0.04,7714.19,149.79,-0.14,2902.66,441.54,3.10,6441.28
1026400,-13.48,964.40,1.00,1,1,1,492.18,-2.48,120188.52,100.11,-2.06,36270.91,191.91,-0.43,20035.17,147.08,-0.21,624.64,471.17,3.12,1661.94
1040300,-7.88,967.14,1.00,1,1,1,448.58,0.45,67306.49,349.64,-2.97,21496.86,242.35,-2.47,26681.52,123.89,-2.88,18949.46,449.24,-3.13,1935.26
1055900,-23.65,962.66,1.00,1,1,1,1050.86,-2.86,95802.06,397.00,-2.57,10090.58,153.37,-2.75,6723.80,549.36,-3.04,27412.10,352.13,-3.10,6284.92
1072100,-18.47,960.26,1.00,1,1,1,352.27,-0.43,82587.36,71.96,-0.91,25275.19,780.01,-3.03,39137.54,982.70,-3.08,26811.56,408.30,-3.07,3551.06
1088000,-22.23,960.83,1.00,2,2,2,239.32,2.99,36850.26,1219.00,3.10,79661.59,1121.37,-3.11,21951.30,1078.75,-3.11,6280.41,437.69,-3.08,1912.69
1103900,-57.20,961.82,1.00,2,2,2,2200.31,3.11,123459.38,1896.85,-3.13,42892.24,1617.45,3.13,31401.36,1037.67,-3.08,3216.73,226.51,-3.06,13290.79
1136200,-113.65,959.99,1.00,1,1,1,1748.70,-3.11,14455.57,1881.86,3.14,727.72,1797.39,-3.13,5674.79,815.80,-3.09,6871.22,255.44,-0.05,14891.10
1151900,-147.53,961.85,1.00,1,1,1,2160.96,3.09,28388.84,1647.58,-3.14,14941.55,1243.30,-3.11,35392.48,852.03,-3.10,2346.11,814.08,-0.01,35600.20
1168200,-166.37,959.65,1.00,1,1,1,1163.97,-3.03,63375.45,307.93,-2.77,83741.62,442.80,-3.01,49286.04,858.77,-3.12,1224.33,1475.84,0.02,40638.56
1184000,-156.72,958.22,1.00,1,1,1,617.56,-0.15,111869.80,722.00,-0.14,63387.74,130.91,-2.31,22387.65,302.88,-3.11,35182.80,1822.04,0.01,21921.84
1201700,-142.42,956.30,1.00,1,1,1,815.25,-0.13,11183.73,97.37,-1.09,37864.64,78.25,-2.82,4158.59,912.86,0.03,68686.00,1843.08,0.02,1302.69
1232000,-154.56,954.07,1.00,1,1,1,407.48,-2.96,39911.23,497.53,3.11,18209.91,481.81,0.05,18399.34,2282.09,0.02,45191.11,1906.90,0.02,2107.15
1264200,-173.50,957.28,1.00,1,1,1,596.46,2.97,7920.85,926.82,0.14,44085.87,1716.01,0.04,38329.16,3507.43,0.02,38059.02,2188.93,0.01,8762.17
1280000,-110.51,960.30,1.00,1,1,1,3991.01,0.05,289583.99,4602.78,0.03,233097.80,4263.60,0.03,161243.36,4153.57,0.02,40894.56,2686.56,0.01,31495.12
1312100,46.87,964.03,1.00,1,1,1,4904.31,0.02,28647.07,7613.16,0.02,93794.95,7686.01,0.03,106627.53,4065.60,0.02,2747.75,3370.90,0.02,21321.44
1327900,254.07,968.31,1.00,1,1,1,13116.60,0.02,519767.76,11979.32,0.02,276342.99,8548.83,0.02,54660.61,4663.85,0.02,37867.08,3650.36,0.01,17705.91
1346500,458.84,974.03,1.00,1,1,1,11013.39,0.03,113174.35,9936.40,0.02,109845.01,8119.16,0.02,23134.29,5923.28,0.02,67742.22,3699.69,0.01,2651.99
1360200,574.94,975.27,1.00,2,2,2,8475.01,0.01,185683.14,3633.93,-0.00,460141.03,5263.63,0.01,208487.76,6339.81,0.01,30409.11,3863.60,0.02,11993.91
1376100,566.40,973.93,1.00,2,2,2,543.48,-2.99,566862.57,533.76,-0.23,196031.93,3566.61,-0.01,106923.67,6733.08,0.02,24736.45,4116.97,0.02,15949.56
1392000,591.45,971.35,1.00,2,2,2,1583.88,-0.10,132948.55,3504.75,-0.03,187685.55,3568.42,-0.01,1709.73,5527.36,0.01,75844.66,4489.56,0.02,23473.50
1408000,678.16,970.84,1.00,1,1,1,5419.32,-0.01,240367.57,6589.26,0.01,193131.37,5360.00,0.01,112072.83,3973.14,0.00,97189.31,5058.26,0.02,35564.91
1424100,802.95,973.69,1.00,1,1,1,7753.24,0.02,145423.22,7173.50,0.03,37035.70,5790.72,0.01,26791.75,3464.19,0.00,31622.97,4847.43,0.02,13184.30
1440700,912.64,977.50,1.00,1,1,1,6611.47,0.03,68972.79,4992.28,0.02,131442.38,4363.93,0.01,85951.57,4187.24,0.01,43582.62,4445.36,0.01,24244.23
1456200,963.18,976.74,1.00,2,2,2,3260.94,-0.02,216678.20,1443.14,-0.06,229420.93,3360.47,0.02,64746.59,4296.57,0.03,8023.82,3705.94,0.01,47704.60
1472100,957.86,974.63,1.00,2,2,2,359.69,-2.76,226152.55,1713.30,0.01,18585.78,2990.40,0.01,23289.28,4194.56,0.03,6417.37,2753.79,0.00,59900.64
1488000,1017.66,977.43,1.00,3,3,3,3764.74,0.05,258273.75,4518.90,0.04,176506.09,3102.68,0.04,8894.63,3354.02,0.02,52917.33,2362.78,0.01,24592.45
1504000,1101.91,980.03,1.00,1,1,1,5268.63,0.03,94099.40,4014.25,0.05,31706.75,4059.18,0.04,59791.71,2392.50,0.00,60155.16,2316.21,0.01,3009.65
1536500,1212.11,987.09,1.00,1,1,1,3397.53,0.06,57734.90,3753.66,0.04,8186.44,3348.87,0.01,21996.83,2081.97,0.01,9577.61,2162.37,0.02,4765.56
1552000,1281.97,986.48,1.00,1,1,1,4507.71,-0.01,73946.30,2341.38,-0.08,93661.66,1919.85,-0.02,92322.98,1796.04,0.01,18447.32,1725.70,0.02,28175.10
1568100,1285.87,981.35,1.00,1,1,1,399.97,-0.92,265499.52,871.97,-2.82,196489.13,804.59,-0.14,69969.07,1483.02,0.01,19446.65,1157.53,0.02,35289.92
1584000,1255.48,977.71,1.00,1,1,1,1924.84,-3.02,135541.71,723.94,-3.07,15663.56,475.55,-2.90,79126.54,957.30,0.01,33064.44,652.71,0.01,31757.33
1600100,1262.76,979.81,1.00,1,1,1,470.10,0.28,148449.79,217.78,-3.11,31449.65,388.56,-3.06,6846.74,232.98,-0.10,45095.01,449.42,0.01,12627.15
1632000,1245.04,977.37,1.00,1,1,1,560.74,-3.01,32231.65,164.79,-3.01,1768.18,160.35,0.23,17169.69,495.13,-3.09,22766.45,489.83,0.05,1366.46
1648000,1254.94,978.75,1.00,1,1,1,624.63,0.14,74085.75,535.19,0.15,43747.82,146.71,2.88,18619.62,820.71,3.14,20473.22,284.90,0.06,12813.13
1680100,1270.49,981.22,1.00,3,3,3,490.64,0.16,4187.77,154.73,2.46,20242.24,530.34,3.03,12020.20,905.61,3.13,2658.81,26.78,0.12,8042.86
1696200,1249.13,983.43,1.00,1,1,1,1333.58,3.04,112549.31,2114.79,3.13,123939.15,1254.19,3.11,45160.68,884.63,-3.13,1722.46,324.11,-3.06,21792.96
1712100,1202.82,982.13,1.00,1,1,1,2913.80,-3.11,100712.23,2972.09,-3.12,54171.87,2502.41,-3.13,78626.55,817.07,3.11,4850.39,556.79,-3.09,14657.82
1728000,1154.64,981.57,1.00,1,1,1,3030.59,-3.13,7970.58,2892.36,-3.11,5319.67,1778.00,-3.11,45667.30,915.47,3.11,6195.17,666.92,-3.13,7043.61
1744000,1110.60,979.42,1.00,1,1,1,2755.99,-3.09,18426.81,990.85,-3.08,118902.80,1106.85,-3.14,42047.42,1112.37,-3.14,12459.84,805.25,-3.13,8646.04
1776200,1106.98,978.49,1.00,1,1,1,115.98,-2.89,82065.71,95.35,0.60,33359.27,576.34,3.11,16499.50,939.37,-3.11,5458.43,1092.18,-3.11,8926.81
1792000,1114.39,981.99,1.00,1,1,1,518.41,0.44,40044.31,155.85,1.23,6169.38,20.91,1.68,36315.67,625.22,-3.10,19892.51,1213.49,-3.11,7692.03
1807900,1108.62,983.15,1.00,1,1,1,370.07,2.94,53122.37,127.13,-2.92,15604.44,110.82,0.10,7096.25,496.52,-3.09,8095.14,1204.46,-3.12,574.52
1824000,1110.42,981.08,1.00,1,1,1,170.23,-0.85,32026.93,207.57,-0.63,19041.20,64.69,-1.99,9546.86,694.60,-3.09,12305.14,1294.76,-3.11,5611.91
1840100,1114.02,979.22,1.00,2,2,2,252.07,-0.48,6998.29,113.73,-0.91,6401.35,403.66,-2.95,23001.41,1378.87,-3.09,42501.11,1114.72,-3.12,11183.55
1856400,1112.69,978.18,1.00,2,2,2,103.67,-2.48,19026.85,966.16,-3.11,63639.77,1561.68,-3.07,71295.34,1711.75,-3.08,20439.48,941.96,-3.12,10600.71
1872000,1083.22,978.20,1.00,1,1,1,1889.10,3.14,115925.42,3229.65,-3.10,145097.68,2868.43,-3.09,83784.82,1527.51,-3.08,11810.72,680.15,-3.12,16782.81
1888000,1010.71,974.12,1.00,1,1,1,4538.81,-3.09,165933.63,4765.08,-3.08,96109.31,3412.45,-3.10,34057.64,1477.73,-3.09,3383.16,558.05,-3.13,7645.88
1904000,931.02,968.86,1.00,1,1,1,4991.47,-3.08,28439.24,3592.55,-3.09,73318.61,2429.97,-3.10,61405.94,1272.54,-3.12,13015.01,1144.30,-3.11,36654.38
1920100,895.55,968.07,1.00,1,1,1,2203.77,-3.12,173382.15,878.35,3.13,168737.86,1411.11,-3.11,63309.54,1228.35,-3.13,2847.11,2163.95,-3.09,63351.33
1952100,888.78,969.40,1.00,1,1,1,215.74,2.95,62300.80,75.02,0.87,28996.49,221.22,2.86,37563.22,845.52,-3.13,11963.82,3298.85,-3.10,35468.41
1968000,897.87,970.81,1.00,1,1,1,578.82,0.15,49376.18,468.51,0.24,25809.22,232.61,0.35,27158.28,447.54,3.10,25114.25,4243.90,-3.11,59464.09
2000000,910.60,974.66,1.00,1,1,1,415.38,0.29,5542.99,401.12,0.26,2122.83,744.33,0.13,16252.47,974.55,-3.14,16500.36,4731.72,-3.11,15255.47
2016100,916.54,975.70,1.00,1,1,1,374.67,0.17,3895.53,1162.84,0.06,48048.86,361.63,0.19,23873.13,2493.53,-3.10,94397.46,4823.02,-3.12,5828.17
2032100,947.86,976.84,1.00,2,2,2,1958.89,0.04,99283.16,323.81,0.12,52486.75,1890.56,-3.10,140552.99,4895.66,-3.11,150134.37,4720.99,-3.12,6389.19
2064100,931.98,977.51,1.00,2,2,2,496.80,3.10,76702.52,3936.74,-3.09,133120.20,5756.25,-3.09,120805.30,6733.63,-3.11,57442.17,4228.13,-3.12,15406.64
2080000,759.51,967.79,1.00,2,2,2,10864.27,-3.09,652199.61,14903.98,-3.09,689772.37,10532.87,-3.10,300466.99,8572.89,-3.11,115676.92,3991.12,-3.12,14921.38
2096000,457.26,951.34,1.00,3,3,3,18918.46,-3.09,503389.08,20375.84,-3.10,342390.50,17397.28,-3.11,429054.02,8809.72,-3.11,14945.18,3845.50,-3.13,9121.13
2112100,105.96,941.71,1.00,1,1,1,21827.85,-3.11,183893.59,19887.56,-3.12,37997.36,16926.09,-3.11,30267.69,9032.84,-3.12,13895.10,4053.42,-3.13,12914.25
2128000,-178.99,937.60,1.00,1,1,1,17923.69,-3.13,246075.14,13457.99,-3.13,404507.19,12619.67,-3.13,271272.36,8836.66,-3.12,12339.27,4103.84,-3.13,3189.78
2144000,-323.32,936.75,1.00,1,1,1,9020.41,-3.14,556496.00,5378.63,3.12,505292.89,7160.05,3.14,341386.05,7675.57,-3.12,72607.30,4449.60,-3.12,21631.78
2160100,-351.60,941.56,1.00,1,1,1,1782.02,2.97,451675.86,912.85,2.88,279259.66,2056.26,3.09,317177.60,5498.14,-3.14,135412.00,4343.04,-3.13,6656.48
2176000,-351.56,944.23,1.00,1,1,1,167.45,1.55,110976.16,169.66,0.54,65333.38,306.86,2.78,111110.24,3119.83,3.12,149690.64,3961.16,-3.13,24018.08
2208600,-344.53,945.77,1.00,1,1,1,220.76,0.22,7497.78,111.78,0.23,2205.20,231.57,0.39,15399.09,1191.29,3.05,59304.92,3338.28,-3.13,19108.98
2224100,-346.32,945.43,1.00,1,1,1,117.51,-2.95,21821.77,332.38,0.27,14243.29,130.66,0.60,6916.27,344.67,2.84,55332.07,1763.46,3.13,101644.73
2240000,-334.47,948.55,1.00,1,1,1,770.62,0.26,55841.16,181.14,0.94,13898.58,141.48,2.22,12446.96,147.60,0.77,27355.14,63.38,1.69,110497.81
2256000,-342.90,950.09,1.00,1,1,1,535.93,2.96,79770.15,501.86,2.87,36887.96,393.31,2.89,18494.57,1103.47,0.10,61998.26,1415.95,0.05,88835.64
2272100,-349.98,952.91,1.00,1,1,1,472.94,2.76,7334.35,869.33,3.09,24538.15,124.77,1.80,21994.97,2900.12,0.06,111697.57,2304.95,0.04,55240.31
2288000,-370.68,951.59,1.00,2,2,2,1304.83,-3.08,56643.49,434.88,0.25,81186.67,2336.57,0.07,148407.45,4894.72,0.04,125498.74,2764.90,0.04,28928.40
2304600,-336.28,956.40,1.00,2,2,2,2092.46,0.14,204518.24,5517.23,0.05,306742.65,5862.08,0.04,212486.62,5481.75,0.03,35651.22,2793.79,0.03,1906.27
2320200,-193.23,960.07,1.00,2,2,2,9173.00,0.03,454990.51,11489.98,0.03,382998.41,10150.61,0.03,274924.04,5913.73,0.01,28030.36,2817.36,0.03,1512.17
2336000,24.36,966.56,1.00,3,3,3,13777.68,0.03,291450.61,14828.76,0.02,211352.54,9956.75,0.02,14966.15,5446.89,0.01,29559.65,2896.45,0.03,5096.24
2352100,279.68,971.11,1.00,1,1,1,15860.78,0.02,129856.47,8956.79,0.01,364911.61,8759.02,0.00,74770.77,5546.79,0.02,6435.29,2761.53,0.03,8380.27
2384100,455.17,969.48,1.00,1,1,1,5484.41,-0.01,324357.58,4805.11,-0.04,130038.34,5172.84,-0.01,112087.02,5226.70,0.01,10017.47,2734.84,0.02,925.70
2401000,514.50,962.60,1.00,1,1,1,3533.71,-0.12,118684.66,1386.59,-0.09,202444.50,2471.66,-0.02,159852.78,4363.94,0.02,51052.07,3152.24,0.02,24700.08
2432100,521.46,963.51,1.00,1,1,1,225.90,0.13,106592.78,101.25,1.10,43465.32,526.87,-0.03,62536.41,2895.49,0.00,47244.67,3844.66,0.02,22264.43
2448000,516.67,966.83,1.00,1,1,1,366.45,2.54,34903.91,768.12,2.96,50507.18,153.41,2.42,41058.03,1057.31,-0.03,115672.41,4653.30,0.03,50870.02
2464100,497.30,968.01,1.00,1,1,1,1205.70,3.08,56672.24,369.54,2.82,25185.02,510.92,3.03,24566.86,36.87,-1.99,66571.83,5030.21,0.02,23504.22
2480300,505.36,970.63,1.00,1,1,1,523.20,0.31,105145.20,264.91,-3.03,10616.38,1059.85,-3.12,34381.84,355.10,0.15,23226.29,4646.80,0.02,23693.17
2496400,488.80,967.02,1.00,1,1,1,1052.72,-2.93,97775.32,1787.69,-3.05,94587.39,695.24,-3.07,22834.58,1843.71,0.06,92559.35,3811.56,0.01,51891.71
2512100,448.75,965.39,1.00,2,2,2,2552.82,-3.10,97250.80,1135.37,-3.07,41614.55,931.97,-0.01,103551.28,3536.58,0.05,107857.58,2869.54,0.01,60004.09
2528000,453.00,964.64,1.00,2,2,2,271.34,-0.18,177259.55,3638.38,0.04,300217.12,4214.02,0.04,206517.04,4785.46,0.03,78684.33,2443.57,0.01,26792.73
2544000,564.72,970.07,1.00,3,3,3,6990.89,0.05,420413.68,9479.77,0.04,365090.48,8154.33,0.04,246270.12,5001.44,0.02,13894.00,2446.44,0.01,187.60
2560100,757.00,978.27,1.00,3,3,3,11953.28,0.04,308241.78,12670.29,0.04,198169.77,10256.87,0.03,130755.87,4959.88,0.02,2667.87,2840.19,-0.01,24754.70
2575900,968.51,987.87,1.00,1,1,1,13400.95,0.05,91652.04,11040.36,0.02,104665.06,9052.22,0.02,76549.06,5138.13,0.02,11282.39,3206.64,-0.01,23193.41
2592000,1109.11,985.46,1.00,1,1,1,8734.02,-0.02,292898.95,5468.19,-0.03,347079.80,5700.53,0.00,208312.85,5208.23,0.02,4384.08,3549.83,0.00,21473.88
2608000,1143.94,981.96,1.00,1,1,1,2187.95,-0.10,409753.88,479.79,-0.38,313738.42,2146.27,-0.07,222673.09,4786.87,-0.00,26984.54,3390.14,0.00,10002.56
2624400,1123.54,979.67,1.00,1,1,1,1252.08,-3.03,208668.01,1196.75,-3.06,99971.73,208.89,-0.68,120648.00,3844.31,-0.05,58828.46,3455.61,0.01,4049.86
2640000,1105.78,978.71,1.00,2,2,2,1139.62,-3.09,8487.69,150.58,-2.57,68336.85,556.00,-0.34,23394.02,2890.70,-0.08,61568.01,3437.21,-0.00,2486.30
2656000,1119.54,977.09,1.00,2,2,2,865.55,-0.12,124873.05,2255.95,-0.12,148353.01,2000.86,-0.20,90812.67,2321.73,-0.06,35815.41,3451.45,-0.02,3187.17
2672000,1177.44,969.96,1.00,2,2,2,3646.35,-0.12,173800.43,4078.21,-0.17,114306.81,3635.57,-0.09,103725.51,1962.62,-0.03,22768.24,3092.62,-0.03,22490.63
2688100,1248.50,954.57,1.00,2,2,2,4515.70,-0.21,58653.81,5012.31,-0.08,63760.34,4471.73,-0.03,54268.52,2116.80,-0.02,9629.30,2413.13,-0.04,42269.20
2704100,1337.84,957.31,1.00,2,2,2,5586.58,0.03,101594.97,4943.58,0.09,52521.56,3113.08,0.02,85592.25,2080.79,-0.05,4391.05,1661.51,-0.07,47177.28
2720100,1406.05,968.75,1.00,2,2,2,4322.89,0.17,89238.18,1883.18,0.19,192191.54,2252.33,0.11,55797.30,2053.20,-0.09,5592.52,1119.32,-0.09,33933.52
2752000,1426.45,974.18,1.00,2,2,2,661.76,0.26,114877.87,461.92,0.23,44567.43,1049.26,0.05,37802.03,1741.91,-0.08,9772.95,920.11,-0.10,6244.83
2768100,1427.66,973.71,1.00,2,2,2,80.65,-0.37,37175.00,345.02,-0.77,24807.68,476.00,-0.48,42421.21,1269.34,-0.02,29928.42,868.61,-0.08,3342.27
2800000,1438.32,962.63,1.00,2,2,2,481.94,-0.80,12858.35,671.54,-0.94,10554.55,491.22,-0.74,4027.54,677.01,-0.04,18585.01,885.42,-0.06,674.54
2815900,1446.53,947.74,1.00,2,2,2,1069.38,-1.07,38788.80,710.18,-0.72,9834.05,412.04,-0.76,4991.56,172.89,-0.52,33294.92,843.63,-0.05,2766.48
2832100,1455.42,947.56,1.00,2,2,2,548.97,-0.02,57137.36,190.26,0.57,42209.79,198.56,-0.92,13485.33,178.82,-2.39,17471.14,1741.91,-0.08,55505.71
2848200,1451.69,951.08,1.00,2,2,2,318.98,2.38,50562.35,331.32,2.65,28282.24,281.10,2.73,28878.81,268.35,-2.79,7771.71,1269.34,-0.02,29928.42
2864100,1446.06,952.52,1.00,2,2,2,365.68,2.89,11156.03,692.02,2.96,24512.12,762.49,2.95,30978.91,442.90,-3.13,13144.50,677.01,-0.04,37286.91
2880000,1430.03,954.98,1.00,0,0,0,1019.65,2.99,41303.15,1215.27,3.03,33166.56,806.92,3.02,4289.67,505.82,2.90,8485.28,172.89,-0.52,33294.92
2895900,1407.63,956.64,1.00,0,0,0,1412.71,3.07,25421.67,882.88,3.05,20923.97,901.79,3.01,5977.61,762.49,2.95,16267.44,178.82,-2.39,17800.78
2928800,1387.13,958.98,1.00,0,0,0,627.08,3.03,23907.00,695.39,2.99,5879.16,690.40,2.96,6555.18,806.92,3.02,2073.12,268.35,-2.79,3803.18
2944100,1374.51,961.77,1.00,2,2,2,845.02,2.92,15063.33,413.80,2.66,21755.12,695.39,2.99,1351.46,901.79,3.01,6212.03,442.90,-3.13,13659.97
2960000,1375.72,965.02,1.00,2,2,2,217.96,1.21,56703.92,217.96,1.21,27806.73,413.80,2.66,20934.17,690.40,2.96,13563.87,505.82,2.90,8485.28
