@RELATION gaze_labels

%@METADATA width_px 1920
%@METADATA height_px 1080
%@METADATA width_mm 540.00
%@METADATA height_mm 254.00
%@METADATA distance_mm 620.00


@ATTRIBUTE time INTEGER
@ATTRIBUTE x NUMERIC
@ATTRIBUTE y NUMERIC
@ATTRIBUTE confidence NUMERIC
@ATTRIBUTE handlabeller1 INTEGER
@ATTRIBUTE handlabeller2 INTEGER
@ATTRIBUTE handlabeller_final INTEGER
@ATTRIBUTE speed_1 numeric
@ATTRIBUTE direction_1 numeric
@ATTRIBUTE acceleration_1 numeric
@ATTRIBUTE speed_2 numeric
@ATTRIBUTE direction_2 numeric
@ATTRIBUTE acceleration_2 numeric
@ATTRIBUTE speed_4 numeric
@ATTRIBUTE direction_4 numeric
@ATTRIBUTE acceleration_4 numeric
@ATTRIBUTE speed_8 numeric
@ATTRIBUTE direction_8 numeric
@ATTRIBUTE acceleration_8 numeric
@ATTRIBUTE speed_16 numeric
@ATTRIBUTE direction_16 numeric
@ATTRIBUTE acceleration_16 numeric

%The number after speed, direction denotes the step size that was used for the calculation.
%Acceleration was calculated between two adjacent samples of the already low pass filtered velocity

@DATA
0,983.92,955.59,1.00,1,1,1,0.00,0.00,0.00,112.19,-0.44,0.00,34.02,-1.19,0.00,35.17,2.06,0.00,178.26,-3.07,0.00
31300,987.09,954.09,1.00,1,1,1,112.19,-0.44,3584.21,34.02,-1.19,2883.31,228.13,2.97,7917.04,150.60,2.49,3817.25,1480.20,-3.10,41598.82
47300,984.52,954.10,1.00,1,1,1,160.94,3.14,16674.65,228.13,2.97,15487.71,35.17,2.06,13015.52,129.95,1.40,9115.46,3389.71,-3.10,119345.68
63400,979.89,955.37,1.00,1,1,1,298.53,2.87,9269.04,137.25,2.02,11484.18,150.60,2.49,7421.11,214.56,0.36,11577.04,5089.99,-3.11,105625.97
79300,982.61,958.05,1.00,1,1,1,240.42,0.78,29425.50,143.17,1.69,2947.99,129.95,1.40,9172.79,178.26,-3.07,24453.17,6741.32,-3.12,103878.82
96200,979.34,960.04,1.00,1,1,1,226.34,2.60,21805.30,167.83,0.91,7093.68,214.56,0.36,11029.01,1480.20,-3.10,77043.96,6933.16,-3.12,11397.98
111400,985.91,962.31,1.00,2,2,2,457.55,0.33,41235.57,428.44,0.02,22966.52,383.32,-2.96,39181.89,3389.71,-3.10,125627.03,7085.50,-3.12,10345.70
127500,992.75,960.24,1.00,2,2,2,443.61,-0.29,17279.67,900.05,-2.84,81766.03,2885.50,-3.07,155557.57,5089.99,-3.11,105625.97,6616.92,-3.13,29176.00
143400,958.43,953.70,1.00,2,2,2,2197.32,-2.95,163425.67,6146.60,-3.07,331736.55,6817.94,-3.08,247382.18,6741.32,-3.12,103878.82,3639.25,-3.13,187277.26
159300,797.79,946.16,1.00,2,2,2,10113.91,-3.09,499658.78,12783.62,-3.10,417812.70,9325.80,-3.11,158058.45,6933.16,-3.12,12114.83,3844.57,-3.14,12960.66
175300,550.95,937.52,1.00,2,2,2,15437.06,-3.11,332825.63,11422.40,-3.12,85903.22,11839.37,-3.12,157437.24,7085.50,-3.12,9828.42,3771.62,-3.14,4565.37
207600,246.25,932.95,1.00,3,3,3,9434.56,-3.13,185986.86,11215.79,-3.14,8843.18,9596.97,-3.13,69491.14,6616.92,-3.13,14542.83,3767.17,-3.13,439.20
223400,11.49,934.00,1.00,1,1,1,14858.75,3.14,343611.73,7750.79,3.13,219447.93,7269.38,3.13,147694.49,6457.89,-3.13,10245.83,3692.20,-3.13,4753.05
255300,-123.45,935.52,1.00,1,1,1,4230.29,3.13,333184.92,3320.28,3.08,139135.35,4358.60,3.11,91343.99,5561.13,3.14,28181.13,3574.63,-3.13,3717.02
271400,-147.61,943.42,1.00,1,1,1,1578.57,2.83,171756.23,1015.89,2.92,144372.20,1983.41,3.08,147615.49,4051.66,3.12,93861.05,3446.31,-3.12,8043.90
303400,-171.08,946.43,1.00,1,1,1,739.60,3.01,26977.63,649.32,3.08,12147.92,762.73,2.91,38688.69,2578.62,3.11,46066.71,3197.74,-3.13,7772.70
319500,-178.77,945.47,1.00,1,1,1,481.34,-3.02,18542.26,385.77,2.90,17256.95,205.79,2.69,35023.40,954.23,3.04,101086.97,3029.18,-3.13,10573.27
335700,-183.18,949.41,1.00,1,1,1,365.01,2.41,22592.97,537.27,0.30,54926.86,81.06,0.26,16803.02,154.25,0.54,66774.14,2612.04,3.14,25826.56
351400,-162.42,950.60,1.00,1,1,1,1324.50,0.06,102114.27,539.14,-0.09,13579.79,600.62,0.10,33174.53,594.44,0.01,29799.79,1938.63,3.12,42930.86
367600,-166.06,947.78,1.00,2,2,2,284.03,-2.48,96726.27,683.54,-0.06,9000.10,1237.27,-0.03,39899.49,979.08,-0.01,23759.67,1059.54,3.10,54324.67
383500,-140.52,949.26,1.00,3,3,3,1608.89,0.06,116359.75,1938.99,-0.01,79035.96,1570.27,-0.06,21112.32,1166.76,0.01,11856.47,239.09,2.89,51988.88
399400,-104.41,946.98,1.00,3,3,3,2275.96,-0.06,44397.34,2459.78,-0.06,33413.87,1704.02,-0.02,9565.13,1010.70,0.00,9821.36,284.54,0.20,32115.79
415500,-61.96,944.45,1.00,1,1,1,2641.34,-0.06,22700.85,1548.37,-0.02,56827.94,1622.71,-0.02,5050.72,645.44,-0.02,22735.11,380.29,0.05,6724.28
447400,-30.10,945.49,1.00,1,1,1,999.17,0.03,51691.55,1067.68,0.05,15350.36,831.44,0.05,24912.16,614.92,0.00,1082.51,529.65,0.02,4692.98
463400,-10.89,947.14,1.00,1,1,1,1205.30,0.09,13385.27,288.24,2.61,82397.76,106.18,2.67,57817.19,565.73,0.03,3263.51,475.27,0.01,3426.88
479300,-38.05,950.11,1.00,1,1,1,1718.56,3.03,183047.75,1832.32,3.12,99777.56,714.62,3.09,38948.65,426.90,0.08,8863.17,413.21,-0.01,3956.81
495400,-69.51,948.32,1.00,1,1,1,1957.19,-3.08,24012.99,1157.92,-3.08,42473.02,753.53,3.05,3159.34,167.70,0.17,16173.77,312.34,-0.04,6289.76
512800,-76.78,947.88,1.00,1,1,1,418.38,-3.08,88437.66,342.29,0.32,85704.17,84.02,2.80,38635.03,42.34,0.98,8137.86,274.25,-0.03,2194.79
527600,-59.04,951.77,1.00,1,1,1,1226.71,0.22,110899.33,1107.30,0.12,52349.71,488.92,0.01,38422.37,302.12,-3.13,22159.91,114.97,-0.30,11232.44
543400,-43.13,951.90,1.00,1,1,1,1006.99,0.01,20145.28,661.67,-0.15,31719.94,794.82,0.04,19403.53,182.90,-3.06,7630.29,23.66,-2.28,7991.74
559500,-38.17,948.62,1.00,1,1,1,369.46,-0.58,45361.36,505.65,-0.12,9755.13,167.44,-0.48,40674.74,22.08,-2.80,10041.91,151.76,-3.12,8517.72
575400,-27.06,949.98,1.00,1,1,1,703.76,0.12,30576.85,361.20,-2.99,54027.83,269.43,-2.96,26058.10,40.58,-2.76,1165.35,236.91,3.11,5392.53
591400,-49.56,946.85,1.00,1,1,1,1419.33,-3.00,132689.87,777.22,-3.09,26203.36,429.50,-3.10,10474.22,311.15,-2.88,16933.28,256.19,-3.10,1646.56
623400,-64.31,947.91,1.00,1,1,1,462.32,3.07,30373.33,477.11,3.12,9479.21,581.34,-3.06,4787.41,417.23,-2.99,3509.47,151.29,-2.97,3367.58
639500,-72.50,947.24,1.00,1,1,1,510.36,-3.06,5499.67,386.61,-3.01,6870.46,604.98,-3.01,2473.53,436.75,-3.07,2475.83,62.38,-2.69,5772.21
671500,-82.75,945.48,1.00,1,1,1,324.91,-2.97,5904.51,742.43,-2.91,11247.55,565.21,-3.00,1250.15,445.48,-3.11,620.47,75.35,-3.04,846.20
687400,-107.11,939.05,1.00,1,1,1,1584.48,-2.88,79316.81,834.57,-2.99,7095.01,444.43,-3.03,7670.95,219.74,-3.06,14229.04,198.84,-3.00,7772.17
703400,-109.07,941.51,1.00,1,1,1,196.62,2.25,94723.99,135.25,1.82,52012.54,245.46,3.01,13375.89,121.30,-2.84,6529.67,355.86,-3.06,9853.78
720300,-108.20,943.36,1.00,1,1,1,121.37,1.13,10637.77,385.69,0.51,22149.30,360.94,0.21,35366.28,102.88,-2.67,1577.11,504.62,-3.08,8817.38
735400,-98.30,947.53,1.00,2,2,2,711.43,0.40,41497.92,762.45,0.03,30313.63,439.75,0.05,6855.07,116.05,3.13,3536.30,134.77,-2.92,24636.32
751300,-84.57,943.96,1.00,2,2,2,891.82,-0.25,34029.57,562.05,-0.27,17393.36,359.36,-0.12,6615.35,87.30,2.78,2856.77,723.86,0.00,53837.28
767300,-81.00,942.80,1.00,1,1,1,234.70,-0.32,41107.22,112.30,-1.89,36177.06,28.00,-2.13,23251.51,290.78,3.11,13130.21,1758.34,0.02,64666.78
783400,-85.70,940.54,1.00,1,1,1,323.86,-2.69,32262.71,385.65,2.99,23807.38,428.28,-3.13,25698.81,580.90,-3.09,18149.43,2563.20,0.02,49992.27
815800,-99.49,945.62,1.00,1,1,1,453.59,2.79,10056.19,693.80,3.05,9564.02,872.95,-3.14,13726.73,221.60,-0.20,24606.15,3031.95,0.02,14467.48
831400,-118.88,943.47,1.00,1,1,1,1250.00,-3.03,55648.86,1630.13,-3.09,60813.32,1318.02,-3.13,28550.91,1765.20,0.01,99321.50,2919.72,0.03,7411.81
847400,-150.93,942.76,1.00,2,2,2,2003.68,-3.12,47901.84,2259.70,-3.08,39362.92,515.67,-0.14,114332.82,3624.43,0.03,116229.63,2683.12,0.03,14811.19
863500,-191.26,938.80,1.00,2,2,2,2517.30,-3.04,33602.55,2629.68,-0.02,303423.36,4480.77,0.01,246688.64,5217.49,0.03,98948.43,2609.03,0.02,4748.26
879300,-67.06,941.15,1.00,2,2,2,7862.53,0.02,656574.75,11115.56,0.02,537282.42,9209.15,0.03,299307.46,6591.89,0.02,87049.83,2714.07,0.01,6720.55
896100,171.00,947.41,1.00,3,3,3,14175.09,0.03,375776.49,15650.42,0.03,270041.20,13409.74,0.03,250042.52,6295.30,0.03,17720.54,2952.62,0.02,14245.29
911900,442.86,958.25,1.00,1,1,1,17219.87,0.04,193174.66,15799.48,0.03,9461.85,12617.91,0.03,50119.75,5648.34,0.02,40952.63,3440.32,0.02,30868.04
927400,665.26,963.62,1.00,1,1,1,14352.58,0.02,185670.46,9480.12,0.02,407843.13,8150.50,0.03,288234.73,5780.92,0.02,8557.52,3915.26,0.02,30649.47
943400,741.43,963.97,1.00,1,1,1,4760.61,0.00,599584.14,668.85,0.03,550707.48,2773.90,0.02,336063.88,5208.42,0.02,35781.55,4443.45,0.02,33039.84
959400,686.65,964.28,1.00,1,1,1,3423.55,3.14,511503.39,1590.69,-3.12,141219.42,310.70,-2.92,192440.57,4031.34,0.02,73567.36,4549.39,0.02,6626.56
991800,664.46,962.37,1.00,1,1,1,687.62,-3.06,84553.90,958.18,-3.01,19973.38,730.15,-3.05,13073.48,3273.49,0.01,23413.17,4644.75,0.02,2953.82
1007500,640.96,958.23,1.00,2,2,2,1519.41,-2.97,53291.68,608.19,-0.20,98436.83,1319.20,-0.01,130360.17,2744.20,0.02,33712.72,4858.94,0.02,13700.19
1023400,683.28,958.47,1.00,2,2,2,2661.24,0.01,262069.33,3593.98,0.03,188991.22,3775.63,0.01,154530.25,2735.43,0.02,559.17,4477.93,0.03,23964.68
1055500,813.42,962.64,1.00,3,3,3,4056.34,0.03,43544.81,5875.13,0.03,71064.00,5796.87,0.03,63002.14,3152.11,0.01,13001.64,3653.84,0.02,25672.97
1071300,964.60,965.85,1.00,1,1,1,9570.54,0.02,349025.88,9101.20,0.03,204181.41,6177.52,0.02,24095.33,3635.65,0.02,30646.90,2631.89,0.02,64700.55
1087500,1104.56,970.29,1.00,1,1,1,8643.70,0.03,57517.21,6621.84,0.02,153053.56,5913.53,0.01,16749.45,3936.33,0.03,18756.02,1846.36,0.01,48505.58
1103900,1180.41,970.87,1.00,1,1,1,4625.51,0.01,245187.78,2708.56,-0.03,238940.63,3462.12,0.02,149484.30,3746.97,0.03,11561.86,1555.37,0.02,17762.50
1119300,1190.66,968.13,1.00,1,1,1,688.82,-0.26,257505.07,193.25,-0.09,163359.92,1607.03,0.03,120470.35,3183.37,0.03,36607.63,1765.30,0.02,13632.31
1135400,1186.48,970.32,1.00,1,1,1,293.51,2.66,60701.02,540.79,0.31,23003.05,666.71,0.08,58497.39,1845.82,0.02,83082.12,1966.59,0.02,12526.25
1151400,1207.20,973.41,1.00,1,1,1,1309.47,0.15,97263.21,1136.02,0.11,38453.96,470.83,0.16,12575.36,725.75,-0.03,70101.05,2112.87,0.03,9233.72
1167400,1222.61,974.32,1.00,1,1,1,964.78,0.06,22436.05,413.91,-0.03,45514.65,276.06,0.01,12630.76,69.91,-0.02,40990.51,1887.00,0.03,14117.09
1183400,1220.44,973.05,1.00,1,1,1,157.13,-2.61,69193.79,538.25,-2.94,59112.39,176.86,-2.58,27316.50,47.25,0.77,3100.43,1571.63,0.03,19714.43
1201400,1204.69,970.58,1.00,1,1,1,885.40,-2.99,41186.20,729.88,-2.90,10722.32,523.06,-3.03,20663.11,100.30,0.33,3396.11,1096.85,0.04,26394.93
1215700,1197.55,967.39,1.00,1,1,1,546.93,-2.72,26923.01,512.30,3.13,18632.43,397.66,-3.11,9134.32,69.76,0.42,2203.91,414.69,0.02,47711.47
1231400,1189.33,970.73,1.00,1,1,1,565.54,2.76,27797.97,176.20,2.05,29143.11,115.77,2.57,19673.95,32.01,0.42,2404.18,354.27,-3.05,48952.93
1247400,1195.00,972.35,1.00,1,1,1,368.80,0.28,55343.56,312.62,0.38,23314.47,317.57,0.50,24182.41,140.43,0.10,6910.79,978.73,-3.08,39039.52
1263500,1198.64,974.46,1.00,1,1,1,261.33,0.52,8158.99,650.95,0.23,21450.72,472.48,0.15,12797.43,413.30,0.13,16958.02,1463.51,-3.08,30111.24
1279500,1215.36,977.06,1.00,1,1,1,1057.26,0.15,51184.93,586.97,0.06,7522.65,570.57,0.06,6755.71,168.58,0.21,15350.79,1712.70,-3.10,15643.15
1311600,1226.82,976.21,1.00,1,1,1,358.12,-0.07,22214.97,528.11,-0.08,3099.21,804.71,0.06,7294.45,691.59,-3.06,26758.44,32.01,0.42,54284.31
1327400,1240.57,974.98,1.00,1,1,1,873.49,-0.09,32622.43,1133.02,0.06,38927.77,97.74,-0.44,45596.52,1716.91,-3.07,64893.99,140.43,0.10,6998.27
1343500,1262.90,978.44,1.00,1,1,1,1403.31,0.15,36867.76,352.39,-3.03,92240.09,1857.81,-3.05,120658.14,2599.87,-3.07,54850.83,413.30,0.13,16958.02
1375200,1223.83,973.10,1.00,2,2,2,1243.83,-3.01,83502.54,3840.97,-3.05,110053.09,3621.09,-3.07,55654.57,3007.33,-3.09,12931.48,168.58,0.21,7748.03
1391600,1078.88,961.95,1.00,2,2,2,8864.37,-3.06,464821.83,6856.22,-3.07,183941.20,5439.96,-3.07,110917.89,1857.81,-3.05,70374.14,691.59,-3.06,52374.75
1423500,893.52,949.43,1.00,1,1,1,5823.92,-3.07,95334.98,7050.38,-3.09,6984.88,6699.01,-3.10,39716.98,3621.09,-3.07,55305.64,1716.91,-3.07,32141.85
1439400,742.40,943.15,1.00,1,1,1,9512.77,-3.10,232320.56,6471.03,-3.14,43353.60,7050.38,-3.09,22655.76,5439.96,-3.07,114405.87,2599.87,-3.07,55540.78
1455400,687.10,949.32,1.00,1,1,1,3477.90,3.03,381145.08,3477.90,3.03,189975.13,6471.03,-3.14,43082.64,6699.01,-3.10,79185.72,3007.33,-3.09,25620.49
