%@metadata width_px 1920.0
%@metadata height_px 1080.0
%@metadata width_mm 540.0
%@metadata height_mm 254.0
%@metadata distance_mm 620.0
% The number after speed, direction denotes the step size that was used for the calculation.
% Acceleration was calculated between two adjacent samples of the already low pass filtered velocity
@RELATION gaze_labels

@ATTRIBUTE time INTEGER
@ATTRIBUTE x NUMERIC
@ATTRIBUTE y NUMERIC
@ATTRIBUTE confidence NUMERIC
@ATTRIBUTE handlabeller_final INTEGER
@ATTRIBUTE EYE_MOVEMENT_TYPE {UNKNOWN, FIX, SACCADE, SP, NOISE, BLINK, NOISE_CLUSTER, PSO}

@DATA
0,346.04,530.23,1.0,1,FIX
36500,313.02,549.56,1.0,1,FIX
50900,399.19,631.7,1.0,1,FIX
65100,367.36,577.01,1.0,1,FIX
100300,404.0,559.43,1.0,1,FIX
114500,393.56,600.12,1.0,2,FIX
128500,320.25,531.41,1.0,2,SACCADE
142700,370.42,598.82,1.0,2,SACCADE
164000,406.23,587.71,1.0,1,SP
178000,277.89,617.49,1.0,1,FIX
192500,194.64,576.09,1.0,1,FIX
206700,210.36,634.28,1.0,1,FIX
228400,248.87,646.66,1.0,1,FIX
243000,258.67,665.47,1.0,1,FIX
257100,246.04,664.8,1.0,1,FIX
271600,241.94,640.05,1.0,2,SACCADE
286300,269.22,661.81,1.0,2,SACCADE
308000,240.43,685.2,1.0,2,SP
322000,371.36,678.73,1.0,3,FIX
336300,641.02,622.07,1.0,1,FIX
351200,659.71,653.52,1.0,1,FIX
366000,652.03,627.48,1.0,1,FIX
388100,632.78,608.92,1.0,1,FIX
416900,661.5,632.09,1.0,1,FIX
430900,621.73,607.9,1.0,1,FIX
466500,632.86,616.27,1.0,1,FIX
480500,657.97,612.76,1.0,1,FIX
494400,596.85,600.01,1.0,1,FIX
515900,637.04,634.74,1.0,1,FIX
530900,639.55,625.62,1.0,1,FIX
544900,650.78,658.46,1.0,2,FIX
559200,606.77,601.18,1.0,2,SACCADE
574000,654.07,630.29,1.0,2,SACCADE
595500,653.46,619.22,1.0,3,NOISE
609700,825.99,624.2,1.0,1,NOISE
623600,878.76,614.6,1.0,1,NOISE
638100,936.69,636.07,1.0,1,NOISE
659900,866.34,621.01,1.0,1,NOISE
674400,964.41,630.51,1.0,2,NOISE
688900,929.57,608.54,1.0,2,NOISE
702900,813.44,590.15,1.0,3,NOISE
724600,553.77,558.24,1.0,1,NOISE
738200,438.46,572.87,1.0,1,NOISE
752300,454.24,599.64,1.0,1,NOISE
