%@metadata width_px 1920.0
%@metadata height_px 1080.0
%@metadata width_mm 540.0
%@metadata height_mm 254.0
%@metadata distance_mm 620.0
% The number after speed, direction denotes the step size that was used for the calculation.
% Acceleration was calculated between two adjacent samples of the already low pass filtered velocity
@RELATION gaze_labels

@ATTRIBUTE time INTEGER
@ATTRIBUTE x NUMERIC
@ATTRIBUTE y NUMERIC
@ATTRIBUTE confidence NUMERIC
@ATTRIBUTE handlabeller_final INTEGER
@ATTRIBUTE EYE_MOVEMENT_TYPE {UNKNOWN, FIX, SACCADE, SP, NOISE, BLINK, NOISE_CLUSTER, PSO}

@DATA
0,402.23,617.34,1.0,1,FIX
21700,315.84,598.73,1.0,1,FIX
36800,393.91,609.72,1.0,2,FIX
50700,389.85,609.2,1.0,2,SACCADE
65600,415.48,622.29,1.0,2,SACCADE
79500,333.06,601.14,1.0,3,FIX
100700,237.48,607.11,1.0,1,FIX
115200,179.48,611.83,1.0,1,NOISE
129200,201.22,661.53,1.0,1,NOISE
143500,180.03,672.36,1.0,2,SACCADE
179300,239.78,687.75,1.0,3,NOISE
193800,386.15,675.43,1.0,1,FIX
229700,433.66,696.33,1.0,1,FIX
244200,480.0,686.44,1.0,1,FIX
258300,435.77,685.95,1.0,1,FIX
272700,499.42,717.29,1.0,1,FIX
293700,426.43,708.25,1.0,1,FIX
307800,457.68,674.9,1.0,1,FIX
321900,465.83,714.96,1.0,1,FIX
335900,446.32,699.03,1.0,1,FIX
357400,438.2,703.26,1.0,2,SACCADE
372000,425.17,687.45,1.0,2,SACCADE
386700,482.5,702.17,1.0,3,SP
401100,546.68,648.79,1.0,1,FIX
415700,687.29,711.62,1.0,1,FIX
436600,694.87,685.5,1.0,1,FIX
450600,718.59,671.23,1.0,1,FIX
465400,717.33,643.87,1.0,1,FIX
479400,717.33,643.87,1.0,1,FIX
500800,656.21,626.84,1.0,1,FIX
514900,697.37,684.1,1.0,1,FIX
544000,680.89,672.8,1.0,1,FIX
565000,705.07,637.19,1.0,1,FIX
594100,706.63,692.39,1.0,1,FIX
608100,684.74,672.93,1.0,1,FIX
629500,688.93,677.29,1.0,1,FIX
644300,725.49,668.9,1.0,1,FIX
658200,670.09,650.86,1.0,1,FIX
672300,697.65,689.49,1.0,2,FIX
694200,721.39,656.15,1.0,2,SACCADE
709000,707.77,635.28,1.0,2,SACCADE
723900,730.06,660.98,1.0,3,FIX
738100,893.39,633.28,1.0,1,FIX
752600,952.0,651.19,1.0,1,FIX
767500,978.07,660.07,1.0,1,FIX
788600,966.13,662.12,1.0,1,SACCADE
802900,992.85,655.37,1.0,2,SACCADE
831600,959.99,646.7,1.0,3,SP
852900,805.48,626.66,1.0,1,FIX
867200,645.93,649.7,1.0,1,FIX
881500,685.7,666.94,1.0,1,FIX
916600,678.99,649.22,1.0,1,FIX
930700,690.84,670.18,1.0,1,FIX
945200,706.1,655.34,1.0,1,FIX
980900,699.31,676.69,1.0,3,FIX
