%@metadata width_px 1920.0
%@metadata height_px 1080.0
%@metadata width_mm 540.0
%@metadata height_mm 254.0
%@metadata distance_mm 620.0
% The number after speed, direction denotes the step size that was used for the calculation.
% Acceleration was calculated between two adjacent samples of the already low pass filtered velocity
@RELATION gaze_labels

@ATTRIBUTE time INTEGER
@ATTRIBUTE x NUMERIC
@ATTRIBUTE y NUMERIC
@ATTRIBUTE confidence NUMERIC
@ATTRIBUTE handlabeller_final INTEGER
@ATTRIBUTE EYE_MOVEMENT_TYPE {UNKNOWN, FIX, SACCADE, SP, NOISE, BLINK, NOISE_CLUSTER, PSO}

@DATA
0,113.17,878.15,1.0,1,FIX
14000,241.64,876.6,1.0,1,FIX
42600,292.44,875.37,1.0,1,FIX
56700,285.59,876.31,1.0,1,FIX
78400,275.6,886.94,1.0,1,FIX
92400,299.62,878.83,1.0,1,FIX
106800,248.29,884.95,1.0,1,FIX
120800,263.09,878.61,1.0,1,FIX
142400,262.03,881.83,1.0,1,FIX
156700,306.24,881.5,1.0,2,FIX
171000,295.54,882.79,1.0,2,FIX
184900,314.89,887.48,1.0,2,FIX
206600,350.32,880.22,1.0,1,FIX
234600,415.87,880.21,1.0,1,FIX
248900,361.0,875.08,1.0,1,FIX
270000,401.69,876.42,1.0,1,FIX
284300,431.45,880.19,1.0,1,FIX
298300,409.39,875.45,1.0,1,SACCADE
319800,521.51,887.28,1.0,2,SACCADE
333900,432.64,887.79,1.0,2,SP
361900,258.77,880.0,1.0,1,FIX
377100,166.93,881.06,1.0,1,FIX
398500,96.2,879.05,1.0,1,FIX
427700,178.0,882.24,1.0,1,FIX
441700,136.9,880.92,1.0,1,FIX
456900,235.23,888.22,1.0,2,SACCADE
477900,190.03,885.17,1.0,2,SACCADE
491900,186.9,883.56,1.0,1,SP
506600,557.73,903.42,1.0,1,FIX
520800,575.25,896.83,1.0,1,FIX
542200,657.23,889.45,1.0,1,FIX
570800,625.55,887.06,1.0,4,FIX
585200,773.34,889.68,1.0,4,SACCADE
606900,675.97,893.27,1.0,4,SACCADE
621000,751.9,906.25,1.0,4,SACCADE
635900,887.59,955.15,1.0,4,FIX
650400,1031.11,989.63,1.0,4,FIX
665000,1003.07,980.77,1.0,4,FIX
685800,1119.44,982.59,1.0,4,FIX
714500,1084.73,953.05,1.0,4,FIX
750000,935.32,901.4,1.0,1,FIX
763900,899.01,895.39,1.0,1,FIX
799900,995.35,897.86,1.0,1,FIX
813900,933.1,892.68,1.0,2,FIX
828800,967.06,885.63,1.0,2,SACCADE
842800,962.25,882.82,1.0,3,SACCADE
857500,980.57,896.37,1.0,1,FIX
879000,1042.73,883.17,1.0,1,FIX
893300,1119.18,885.63,1.0,1,FIX
921800,1064.37,879.67,1.0,1,FIX
937100,1102.17,880.63,1.0,1,FIX
957800,1102.61,885.06,1.0,1,FIX
971800,1144.36,885.44,1.0,1,FIX
985900,1091.59,875.37,1.0,2,SACCADE
1007400,1153.7,882.68,1.0,2,SP
1021400,1117.27,879.69,1.0,3,FIX
1035900,1301.77,890.99,1.0,1,FIX
1064800,1390.13,901.52,1.0,1,FIX
1086800,1299.03,878.69,1.0,1,NOISE
1115100,1310.74,886.6,1.0,2,SACCADE
1130000,1324.13,894.1,1.0,2,SACCADE
1151100,1184.18,884.46,1.0,2,SP
1180100,873.0,880.76,1.0,1,FIX
1194900,692.44,879.11,1.0,1,FIX
1210400,554.98,881.29,1.0,1,FIX
1224900,642.77,882.58,1.0,1,UNKNOWN
1247200,621.4,889.16,1.0,1,FIX
1261100,547.87,883.11,1.0,1,FIX
1289600,554.3,882.57,1.0,1,FIX
1311300,607.52,890.52,1.0,1,FIX
