@RELATION gaze_labels

%@METADATA width_px 1920
%@METADATA height_px 1080
%@METADATA width_mm 540.00
%@METADATA height_mm 254.00
%@METADATA distance_mm 620.00


@ATTRIBUTE time INTEGER
@ATTRIBUTE x NUMERIC
@ATTRIBUTE y NUMERIC
@ATTRIBUTE confidence NUMERIC
@ATTRIBUTE handlabeller1 INTEGER
@ATTRIBUTE handlabeller2 INTEGER
@ATTRIBUTE handlabeller_final INTEGER
@ATTRIBUTE speed_1 numeric
@ATTRIBUTE direction_1 numeric
@ATTRIBUTE acceleration_1 numeric
@ATTRIBUTE speed_2 numeric
@ATTRIBUTE direction_2 numeric
@ATTRIBUTE acceleration_2 numeric
@ATTRIBUTE speed_4 numeric
@ATTRIBUTE direction_4 numeric
@ATTRIBUTE acceleration_4 numeric
@ATTRIBUTE speed_8 numeric
@ATTRIBUTE direction_8 numeric
@ATTRIBUTE acceleration_8 numeric
@ATTRIBUTE speed_16 numeric
@ATTRIBUTE direction_16 numeric
@ATTRIBUTE acceleration_16 numeric

%The number after speed, direction denotes the step size that was used for the calculation.
%Acceleration was calculated between two adjacent samples of the already low pass filtered velocity

@DATA
0,-15.16,708.82,1.00,0,0,0,0.00,0.00,0.00,1731.45,-0.11,0.00,654.40,-0.14,0.00,97.95,-0.58,0.00,52.98,-2.25,0.00
14100,9.11,706.19,1.00,0,0,0,1731.45,-0.11,122797.76,654.40,-0.14,76418.31,98.10,-2.81,52719.64,383.07,-3.09,33025.74,72.31,-2.72,2473.89
43000,12.71,704.97,1.00,0,0,0,131.60,-0.33,55473.98,98.10,-2.81,25721.35,97.95,-0.58,6094.72,639.22,-3.13,8888.44,103.07,-0.36,5635.28
64600,4.42,704.59,1.00,0,0,0,384.32,-3.10,23573.10,594.66,-3.12,23247.07,383.07,-3.09,21558.47,580.62,-3.12,2721.64,409.15,-0.12,14351.88
79000,-8.69,704.57,1.00,0,0,0,910.53,-3.14,36590.19,895.86,3.14,20938.88,639.22,-3.13,17838.61,52.98,-2.25,38051.97,817.99,-0.08,28431.24
93100,-21.11,704.59,1.00,0,0,0,880.89,3.14,2108.77,694.74,-3.13,14271.71,580.62,-3.12,4169.32,72.31,-2.72,2473.89,1184.32,-0.06,26006.15
107900,-28.77,704.41,1.00,0,0,0,517.51,-3.12,24580.17,270.63,-3.05,28761.55,177.40,-3.00,27378.13,103.07,-0.36,11004.04,1526.04,-0.06,23096.18
122000,-28.90,703.87,1.00,0,0,0,39.03,-1.81,36078.21,255.50,-0.17,37003.72,254.48,-0.15,30301.83,409.15,-0.12,21985.86,1862.61,-0.05,23887.86
143000,-19.93,702.92,1.00,0,0,0,429.79,-0.11,20798.33,555.86,-0.08,14379.32,710.47,-0.08,21759.32,817.99,-0.08,19495.71,1037.64,-0.06,39297.28
171800,-1.32,701.56,1.00,0,0,0,647.89,-0.07,7596.02,1082.73,-0.07,18299.93,1072.86,-0.07,12593.05,1184.32,-0.06,12732.18,1019.88,-0.06,645.64
186000,26.53,699.84,1.00,0,0,0,1964.69,-0.06,92736.50,1798.29,-0.06,50398.57,1619.08,-0.06,38471.99,1526.04,-0.06,24072.08,1121.31,-0.06,7144.57
207300,62.42,697.86,1.00,0,0,0,1687.38,-0.06,13031.91,2256.24,-0.05,21503.07,2313.30,-0.05,32602.21,1862.61,-0.05,15813.09,1093.15,-0.05,1368.75
222200,108.08,695.42,1.00,0,0,0,3069.46,-0.05,92757.68,2935.29,-0.04,45608.84,2503.39,-0.05,12769.20,2099.67,-0.04,15925.68,1080.49,-0.04,932.50
236700,148.63,694.09,1.00,0,0,0,2797.73,-0.03,19204.76,2812.06,-0.04,8557.21,3012.58,-0.04,35147.77,2212.46,-0.04,7781.10,1016.44,-0.04,4417.72
251200,189.57,692.26,1.00,0,0,0,2826.49,-0.04,3032.88,3090.48,-0.03,19227.50,2688.42,-0.03,22409.01,2136.54,-0.04,5236.53,859.95,-0.03,10806.38
265900,238.82,691.04,1.00,0,0,0,3351.18,-0.02,35932.89,2588.11,-0.02,34228.09,2129.23,-0.03,38042.52,1709.56,-0.03,29060.47,742.82,-0.02,8019.64
286900,281.94,690.06,1.00,0,0,0,2053.96,-0.02,61772.63,1559.89,-0.03,48971.34,1833.44,-0.04,14087.96,1319.39,-0.02,18594.25,664.03,0.00,3826.93
315200,315.68,688.48,1.00,0,0,0,1193.46,-0.05,30435.70,1210.28,-0.06,12417.05,946.03,-0.03,31360.15,864.00,-0.02,16092.74,604.36,0.01,2108.83
330100,334.14,686.96,1.00,0,0,0,1242.73,-0.08,4362.70,349.24,-0.00,57838.32,368.21,0.01,38804.74,326.17,0.04,36166.37,374.51,-0.09,15699.93
365900,333.39,688.40,1.00,0,0,0,45.32,2.05,35403.16,365.18,2.96,19874.71,390.95,3.05,21178.04,169.42,2.85,13673.13,89.10,-0.38,8114.83
380000,316.22,690.31,1.00,0,0,0,1224.81,3.03,85119.48,1706.08,3.08,95347.32,872.20,3.05,34131.47,549.20,2.99,27102.72,229.35,-2.97,21898.46
394400,284.86,691.40,1.00,0,0,0,2179.54,3.11,66853.47,1384.33,3.08,22347.65,1595.14,3.05,50204.11,805.67,3.03,17905.77,445.90,-3.04,15114.08
429600,247.71,694.81,1.00,0,0,0,1059.79,3.05,31904.59,1531.53,3.03,4546.60,1643.14,3.04,1553.11,1184.28,3.13,11054.53,551.66,-3.08,3058.44
443600,209.95,699.58,1.00,0,0,0,2718.40,3.02,118544.82,2102.73,2.99,41206.06,1193.51,3.03,32121.16,1742.30,-3.14,39902.57,607.37,3.11,5544.70
457800,189.11,703.89,1.00,0,0,0,1498.68,2.94,86614.78,725.10,3.02,97055.37,1680.15,-3.10,37658.87,1944.81,-3.12,14525.51,556.01,2.95,7266.35
479100,184.40,702.72,1.00,0,0,0,227.86,-2.90,60897.24,1414.75,-2.86,37554.74,1938.78,-3.05,12873.71,1835.48,-3.10,5356.07,496.65,2.61,9002.15
493100,141.12,690.06,1.00,0,0,0,3220.77,-2.86,213793.88,3499.18,-2.99,150294.00,2342.04,-3.01,29405.61,1652.15,-3.09,13238.29,461.92,1.68,30794.82
507200,87.20,687.87,1.00,0,0,0,3827.46,-3.10,74358.83,3506.44,-3.08,22351.16,2719.73,-3.01,26796.76,1162.30,-3.13,35002.72,921.06,0.98,45269.44
521900,40.33,683.85,1.00,0,0,0,3200.28,-3.06,44008.50,2104.28,-3.04,95664.47,1629.75,-3.08,74708.36,564.77,2.91,42794.75,1472.86,0.74,42261.44
542700,12.88,680.34,1.00,0,0,0,1330.42,-3.01,89990.58,548.86,-3.06,74785.94,555.24,2.92,53291.98,444.42,1.57,30513.15,2129.52,0.61,33255.75
571900,12.98,681.59,1.00,0,0,0,42.96,1.49,45886.61,833.81,0.50,46388.55,894.95,0.54,46335.32,1567.82,0.66,45955.76,2777.90,0.54,22942.72
585900,44.57,697.46,1.00,0,0,0,2525.32,0.47,178808.07,2837.11,0.42,143337.26,2412.18,0.46,108642.27,3125.86,0.51,113759.32,2987.20,0.50,17421.71
608000,106.53,723.28,1.00,0,0,0,3037.26,0.39,24808.82,4285.99,0.46,65835.09,5231.22,0.45,127595.21,4410.96,0.46,58700.66,3111.18,0.48,6231.94
622300,184.54,766.36,1.00,4,4,4,6231.94,0.50,225877.45,8233.91,0.46,276078.24,7431.63,0.45,153880.50,6002.26,0.44,111501.53,2946.22,0.48,11580.70
636800,319.36,827.86,1.00,4,4,4,10219.48,0.43,278201.01,11449.54,0.44,221926.39,9101.07,0.45,115143.76,7001.37,0.43,68976.45,2708.70,0.47,16478.01
650800,479.19,906.58,1.00,4,4,4,12726.06,0.46,180658.83,9798.84,0.45,117932.24,10447.60,0.44,96833.28,6451.36,0.43,39418.56,2389.30,0.44,23241.11
672600,635.63,979.62,1.00,4,4,4,7919.84,0.44,220676.59,9650.70,0.43,11566.83,8450.47,0.43,91647.98,6463.69,0.43,643.63,1972.43,0.42,19212.14
686600,793.75,1049.48,1.00,4,4,4,12347.24,0.42,316585.14,7343.63,0.41,165128.28,5822.07,0.41,187962.84,5231.18,0.41,88214.94,1517.31,0.41,32538.53
716100,928.75,1106.62,1.00,4,4,4,4969.36,0.40,250131.58,3714.93,0.39,123058.64,4663.19,0.39,39393.57,3653.85,0.40,53498.57,1100.92,0.39,14145.93
751600,1017.21,1140.99,1.00,4,4,4,2673.25,0.37,64752.39,2374.89,0.36,37848.75,2139.81,0.35,71189.22,1813.87,0.35,51960.67,609.10,0.29,14065.28
767000,1042.06,1148.71,1.00,4,4,4,1690.27,0.30,64536.07,307.74,-2.02,169179.38,237.47,-1.84,148415.42,214.74,-1.98,127791.84,117.14,-0.59,35172.06
794900,1011.43,1128.98,1.00,4,4,4,1306.23,-2.57,106435.28,2772.24,-2.64,90642.71,3323.74,-2.66,113475.94,2220.23,-2.66,73767.70,430.55,-2.50,17291.45
816100,922.46,1083.72,1.00,4,4,4,4708.06,-2.67,160903.00,7068.76,-2.69,202867.91,6009.46,-2.69,126921.37,4293.98,-2.69,97872.45,966.05,-2.63,25581.19
830500,785.32,1018.52,1.00,0,0,0,10545.74,-2.70,405605.91,11555.59,-2.71,311986.76,9522.69,-2.71,244180.70,6138.94,-2.68,128124.67,1508.56,-2.66,37717.76
844800,620.90,945.70,1.00,0,0,0,12574.59,-2.72,143520.73,12549.90,-2.73,70840.47,11455.12,-2.71,135137.25,6416.98,-2.68,19443.07,2022.18,-2.66,35930.07
859400,453.14,872.91,1.00,0,0,0,12525.88,-2.73,7261.38,11356.03,-2.71,82776.34,9563.65,-2.70,130145.88,7200.35,-2.70,54117.98,2454.39,-2.67,29622.93
873900,320.37,808.29,1.00,0,0,0,10183.44,-2.69,165066.34,7179.73,-2.65,290775.55,6816.72,-2.68,189749.70,6702.26,-2.71,34535.89,2927.37,-2.67,32627.99
895400,225.45,750.58,1.00,0,0,0,5166.81,-2.60,235444.31,4202.02,-2.62,138714.50,5315.39,-2.68,69838.85,5633.71,-2.71,49712.44,3453.97,-2.69,24544.30
924200,137.29,702.66,1.00,0,0,0,3483.92,-2.64,58865.58,3776.52,-2.73,21338.07,3523.19,-2.69,62256.26,4242.80,-2.70,48314.70,3328.94,-2.69,4341.16
938800,75.26,684.96,1.00,0,0,0,4418.65,-2.86,87048.98,2629.22,-2.86,83289.41,2425.04,-2.76,76343.43,2736.12,-2.68,103347.58,3304.43,-2.69,2023.60
960300,46.18,676.07,1.00,0,0,0,1414.24,-2.84,139756.99,807.62,-2.92,84817.15,1108.53,-2.90,62183.48,1496.49,-2.64,57755.46,2829.80,-2.69,22079.74
974800,46.92,678.44,1.00,0,0,0,171.66,1.27,104671.51,819.98,0.41,111756.63,449.03,0.43,107010.50,774.71,-2.70,49976.66,2310.37,-2.69,35825.12
988900,67.66,685.48,1.00,0,0,0,1553.06,0.33,103440.59,2036.48,0.33,86613.89,1247.80,0.31,57043.52,44.47,0.78,57925.24,1566.84,-2.67,52789.93
1003100,101.45,697.10,1.00,0,0,0,2516.50,0.33,67849.73,1596.60,0.27,32043.37,1256.86,0.31,638.90,607.70,0.35,39965.96,993.75,-2.64,40483.34
1024500,122.51,700.38,1.00,0,0,0,995.97,0.15,72246.55,652.02,0.26,44141.87,974.63,0.28,13244.83,717.17,0.34,5135.64,552.86,-2.62,20614.89
1039500,124.42,703.09,1.00,0,0,0,221.20,0.96,57179.02,468.85,0.34,12586.06,738.44,0.31,15835.94,747.61,0.32,2229.47,210.64,-2.60,22818.44
1068200,141.84,707.17,1.00,0,0,0,623.56,0.23,16788.89,813.74,0.35,12022.26,353.82,0.41,13518.36,590.67,0.30,5487.30,99.68,0.43,10797.33
1082200,157.00,715.16,1.00,0,0,0,1223.94,0.48,45731.60,255.81,0.54,40291.25,391.23,0.35,3198.14,412.42,0.28,12746.11,312.20,0.31,15250.91
1117900,152.77,713.67,1.00,0,0,0,125.70,-2.80,37770.15,28.64,0.18,6418.66,286.56,0.34,2932.19,272.21,0.40,4074.39,424.47,0.31,3145.08
1131900,158.40,715.42,1.00,0,0,0,421.28,0.30,39064.94,325.28,0.19,21188.85,155.86,0.17,9705.11,268.07,0.29,2118.90,398.42,0.30,1885.35
1168200,168.82,716.83,1.00,0,0,0,289.69,0.13,3960.70,281.57,0.17,1226.37,176.12,0.36,1051.74,150.98,0.34,3237.79,321.92,0.32,2113.10
1182200,172.37,717.76,1.00,0,0,0,261.98,0.26,3122.13,121.61,2.60,27314.30,127.86,0.08,4566.84,61.14,-0.05,6941.92,214.74,0.34,7663.04
1197100,165.80,718.63,1.00,0,0,0,444.37,3.01,46572.15,143.85,-2.77,7933.07,59.25,-2.78,12451.27,106.52,0.12,3184.28,163.88,0.42,3565.35
1211100,168.49,716.26,1.00,0,0,0,256.11,-0.72,48021.55,90.17,-1.74,8864.30,92.23,-2.61,2519.46,54.94,0.07,3693.99,159.62,0.39,482.28
1232700,165.25,715.47,1.00,0,0,0,154.51,-2.90,16993.67,56.43,-2.28,2342.97,57.95,-0.95,5241.89,18.96,2.65,3317.71,126.95,0.36,1522.46
1248100,167.13,714.67,1.00,0,0,0,132.81,-0.40,17720.32,93.86,0.04,8996.20,17.46,-3.00,4405.75,40.22,2.73,1388.87,95.57,0.19,2369.18
1262000,168.00,715.58,1.00,0,0,0,89.88,0.81,9440.55,32.52,1.59,7093.45,36.53,1.16,3458.54,34.51,0.61,4704.17,149.80,0.16,3909.10
1290900,167.11,716.06,1.00,0,0,0,34.99,2.64,3614.45,59.86,2.13,1248.51,68.71,1.59,1340.66,44.44,1.14,797.90,195.64,0.07,1681.46
1312000,166.42,718.12,1.00,0,0,0,102.74,1.90,3812.76,111.98,1.59,3213.49,78.27,1.26,1224.79,98.21,0.40,3425.12,284.62,-0.03,4346.58
1326700,167.04,720.07,1.00,0,0,0,139.38,1.27,5631.54,166.47,0.77,8308.84,112.28,0.98,2916.48,138.50,0.31,2819.04,375.25,-0.07,6239.87
1340900,169.89,721.45,1.00,0,0,0,223.08,0.45,11462.49,158.87,0.46,3562.42,199.63,0.22,9946.44,193.33,0.18,4131.66,513.27,-0.08,9730.97
1355600,171.15,722.10,1.00,0,0,0,96.86,0.47,8588.58,271.02,-0.10,10915.00,294.16,0.04,7118.87,351.87,0.07,10980.84,602.88,-0.06,6138.95
1369800,177.68,720.65,1.00,0,0,0,470.53,-0.22,28209.42,418.64,-0.09,10399.57,392.53,-0.03,7109.58,587.07,-0.04,16919.42,648.06,-0.06,3203.14
1391200,186.00,720.75,1.00,0,0,0,388.81,0.01,5979.88,491.16,0.00,3902.72,589.87,-0.06,9239.53,754.41,-0.09,7944.12,653.15,-0.07,448.01
1405700,195.31,720.67,1.00,0,0,0,642.27,-0.01,17495.84,732.26,-0.04,16715.71,853.98,-0.08,18252.93,956.66,-0.10,13994.88,629.21,-0.10,2043.68
1434100,217.38,719.48,1.00,0,0,0,778.43,-0.05,4920.18,1117.61,-0.11,13732.00,1075.39,-0.11,7849.89,1117.63,-0.10,5674.51,637.61,-0.11,378.88
1455400,250.54,714.75,1.00,0,0,0,1572.29,-0.14,37550.28,1371.29,-0.14,12054.51,1350.20,-0.12,12918.20,1074.85,-0.09,2080.49,638.79,-0.12,428.31
1484200,285.43,709.97,1.00,0,0,0,1222.65,-0.14,12143.41,1616.74,-0.13,8536.01,1597.15,-0.11,8586.88,1088.89,-0.11,936.85,672.23,-0.13,1165.43
1498800,320.12,705.68,1.00,0,0,0,2394.22,-0.12,80258.57,1909.53,-0.08,20836.44,1275.15,-0.09,22148.00,999.59,-0.14,6546.15,670.88,-0.12,304.40
1520600,354.70,704.24,1.00,0,0,0,1587.57,-0.04,37711.55,987.05,-0.03,42423.50,1104.66,-0.11,7878.86,890.72,-0.17,5112.80,780.95,-0.09,5130.18
1549800,370.43,703.95,1.00,0,0,0,538.83,-0.02,35923.09,428.86,-0.20,19472.09,589.76,-0.20,17804.66,688.44,-0.18,6941.84,933.49,-0.04,5408.55
1563800,372.85,700.54,1.00,0,0,0,298.48,-0.95,30974.58,303.09,-2.11,42909.10,155.20,-0.83,33865.34,584.42,-0.18,7430.82,1107.05,-0.02,12541.01
1578200,366.04,696.54,1.00,0,0,0,548.41,-2.61,44912.34,313.16,-2.64,11361.27,234.77,-2.50,20387.93,387.94,-0.15,13675.04,1248.66,-0.00,9919.74
1599800,362.96,695.14,1.00,0,0,0,156.94,-2.72,18180.04,219.54,-2.93,5564.07,109.92,-2.19,6209.51,432.30,-0.08,2519.49,1439.45,0.02,8922.63
1614500,358.25,694.87,1.00,0,0,0,320.60,-3.08,12458.51,196.01,-0.07,27985.40,189.63,-0.02,18218.47,760.94,0.03,22753.56,1531.10,0.04,6537.57
1629000,368.66,694.73,1.00,0,0,0,718.24,-0.01,71605.48,527.10,0.06,23021.16,755.65,0.06,39096.10,1139.79,0.09,26346.37,1614.55,0.06,6156.04
1658100,381.19,696.25,1.00,0,0,0,433.63,0.12,10112.72,1077.85,0.08,18931.56,1536.94,0.10,26887.83,1562.91,0.10,14564.81,1445.14,0.08,5900.11
1679900,423.36,698.99,1.00,0,0,0,1938.48,0.07,69069.38,2750.58,0.11,76780.65,2121.96,0.12,26860.33,2121.09,0.11,25612.82,1309.98,0.10,6320.19
1694400,480.40,707.49,1.00,0,0,0,3977.30,0.15,141499.07,3919.48,0.14,80774.36,3224.74,0.11,76058.37,2478.27,0.11,24650.64,1273.88,0.11,2899.29
1709500,538.32,714.65,1.00,0,0,0,3864.57,0.12,9889.34,3802.32,0.11,9851.96,3982.61,0.12,50259.35,2663.56,0.11,12305.80,1200.96,0.13,4997.09
1724200,593.01,720.11,1.00,0,0,0,3738.90,0.10,10467.27,4047.18,0.11,16657.52,3630.08,0.11,24381.11,2621.25,0.11,2940.25,1264.71,0.13,4336.73
1738700,655.76,727.79,1.00,0,0,0,4360.22,0.12,43291.47,3485.58,0.10,38817.57,3339.62,0.11,20032.70,2283.41,0.13,23498.24,1332.79,0.12,4719.56
1759700,716.11,732.64,1.00,0,0,0,2882.94,0.08,70694.81,2754.44,0.10,34818.74,2114.40,0.12,58358.88,1789.28,0.15,23574.92,1538.02,0.11,9814.77
1774000,752.52,737.36,1.00,0,0,0,2567.63,0.13,23913.67,988.84,0.16,123665.63,1123.32,0.15,69420.39,1258.94,0.16,37133.24,1770.39,0.10,16288.03
1802900,758.29,739.40,1.00,0,0,0,211.69,0.34,81698.70,104.65,1.79,34634.99,306.84,0.56,29392.96,990.83,0.17,9277.35,2023.68,0.10,8768.96
1824800,751.35,742.54,1.00,0,0,0,347.83,2.72,23812.83,611.95,2.86,25991.03,210.85,2.61,20359.97,723.21,0.15,12231.46,2181.05,0.09,7246.39
1839300,736.87,745.51,1.00,0,0,0,1019.47,2.94,47212.14,384.27,2.84,15715.81,156.99,2.58,3730.82,746.67,0.12,2133.12,2175.69,0.08,1792.20
1868200,735.40,747.43,1.00,0,0,0,83.52,2.22,33151.83,251.00,0.05,21668.58,354.37,0.15,16762.34,1023.42,0.08,9675.94,2179.82,0.06,1050.42
1882500,747.70,746.03,1.00,0,0,0,865.27,-0.11,64689.24,973.49,0.00,50550.50,1152.73,0.03,56085.72,1501.74,0.07,33458.98,2177.04,0.05,1251.66
1918200,784.08,747.47,1.00,0,0,0,1019.85,0.04,5900.67,1936.57,0.03,26996.11,2452.14,0.02,36400.86,2091.26,0.04,16573.72,2010.91,0.04,4745.04
1932200,843.91,748.67,1.00,0,0,0,4274.51,0.02,232494.32,4993.19,0.03,218330.69,3012.18,0.04,40212.42,2537.09,0.03,31914.70,1776.04,0.02,16884.91
1947300,929.33,751.34,1.00,0,0,0,5659.67,0.03,91804.77,4489.33,0.05,34133.59,4621.50,0.03,106619.81,3208.95,0.02,44552.00,1611.48,0.00,11125.21
1968400,1006.22,756.71,1.00,0,0,0,3653.21,0.07,95455.96,4313.37,0.03,9141.10,4512.63,0.03,5165.99,3495.66,0.02,13590.19,1570.70,0.00,1944.89
1982400,1080.65,756.11,1.00,0,0,0,5316.51,-0.01,121307.61,4544.74,0.00,19102.61,4138.54,0.01,27089.96,3795.86,0.01,21622.96,1452.88,-0.01,8558.18
1997300,1137.57,756.88,1.00,0,0,0,3820.10,0.01,100640.99,3931.05,-0.01,41316.35,4220.49,-0.01,8004.83,3008.27,-0.01,52954.11,1348.46,-0.03,7176.98
2011700,1195.83,754.94,1.00,0,0,0,4048.04,-0.03,20339.57,3893.19,-0.02,3248.76,2994.25,-0.03,85281.45,2323.61,-0.04,47864.37,1321.00,-0.04,2044.28
2025900,1248.89,754.96,1.00,0,0,0,3737.28,0.00,23755.85,2245.24,-0.05,116230.73,1786.35,-0.08,85498.46,1662.79,-0.08,46837.57,1250.74,-0.04,4956.25
2048300,1277.91,750.98,1.00,0,0,0,1307.25,-0.14,109316.37,625.89,-0.30,73458.70,879.45,-0.23,41354.16,771.89,-0.18,40110.28,1190.56,-0.04,2691.72
2077000,1279.50,745.66,1.00,0,0,0,193.69,-1.28,43198.79,422.66,-2.42,32125.20,266.35,-2.33,36235.33,170.76,-1.33,25082.40,890.77,-0.07,10482.93
2091500,1264.16,738.96,1.00,0,0,0,1153.79,-2.73,79068.47,1581.30,-3.01,86247.74,1121.36,-2.98,63607.54,589.04,-2.88,42000.84,407.90,-0.19,33655.90
2105900,1234.21,739.52,1.00,0,0,0,2080.47,3.12,79070.29,2060.39,-3.11,35496.76,2139.40,-3.05,71146.00,1001.88,-2.97,29144.88,100.43,-1.31,26065.00
2127200,1190.65,736.32,1.00,0,0,0,2050.34,-3.07,9027.39,2601.98,-3.07,25711.48,2355.44,-3.10,11491.19,1191.96,-3.04,9445.25,294.84,-2.84,14439.37
2140900,1143.37,733.05,1.00,0,0,0,3459.66,-3.07,102873.67,2731.70,-3.10,10650.49,1999.52,-3.08,26288.08,1503.69,-3.07,23002.50,458.76,-2.96,12404.48
2155200,1114.25,732.80,1.00,0,0,0,2036.58,-3.13,100142.15,1270.02,-3.09,102222.32,1284.35,-3.10,50090.24,1544.70,-3.10,4250.91,563.49,-3.02,7669.79
2169800,1106.72,731.04,1.00,0,0,0,529.44,-2.91,104417.06,155.81,3.12,76349.86,876.39,-3.12,27977.46,1478.65,-3.09,4563.19,592.31,-3.05,2275.39
2191100,1108.66,732.91,1.00,0,0,0,126.47,0.77,30104.18,559.28,3.10,18943.93,889.32,-3.10,1126.06,1338.28,-3.11,6709.11,524.34,-3.08,3285.17
2205500,1086.77,731.79,1.00,0,0,0,1521.86,-3.09,112442.88,1503.45,-3.09,65808.90,1089.50,-3.12,13983.63,896.09,-3.13,30746.55,355.18,3.13,11922.87
2234000,1044.24,729.63,1.00,0,0,0,1494.15,-3.09,972.83,1471.30,-3.10,1271.94,1382.15,-3.12,10269.38,551.74,3.12,12110.34,122.78,2.90,8335.53
2255200,1013.70,728.90,1.00,0,0,0,1440.89,-3.12,3109.61,1239.33,3.12,11697.66,909.72,3.14,22310.00,249.17,2.96,14544.51,135.11,0.31,11698.55
2269900,999.76,730.76,1.00,0,0,0,956.75,3.01,35243.97,289.97,2.91,65113.49,229.60,2.85,47149.03,89.98,0.66,21522.60,422.37,0.12,19776.49
2299600,1001.17,731.82,1.00,0,0,0,59.17,0.65,33658.76,617.20,0.15,30057.98,660.80,0.18,29331.09,578.60,0.16,16875.29,763.54,0.11,11490.70
2314000,1026.66,734.95,1.00,0,0,0,1783.61,0.12,120324.46,1802.67,0.10,82404.20,1507.07,0.09,59127.61,1287.45,0.10,49381.88,948.90,0.09,12931.27
2335800,1066.06,738.64,1.00,0,0,0,1815.55,0.09,2769.35,2599.17,0.07,36685.60,2734.24,0.08,56295.57,1793.32,0.09,23211.96,1004.49,0.09,2549.95
2350000,1119.99,741.63,1.00,0,0,0,3803.37,0.06,140166.06,3918.32,0.07,92897.74,3138.10,0.06,28788.89,2160.00,0.07,26004.23,982.93,0.07,1968.47
2364300,1177.45,746.57,1.00,0,0,0,4033.36,0.09,18119.54,3809.72,0.05,8931.46,3224.41,0.06,6042.42,2801.94,0.07,44894.62,1058.09,0.07,5266.04
2378900,1229.93,747.53,1.00,0,0,0,3594.94,0.02,34799.72,2667.55,0.05,78230.44,2974.29,0.05,17342.80,2797.27,0.06,1725.76,1190.28,0.08,9054.50
2399800,1272.02,751.66,1.00,0,0,0,2023.24,0.10,75895.34,2292.29,0.05,17978.36,2870.60,0.06,5015.00,2619.85,0.05,8523.77,1269.64,0.07,3800.65
2414300,1310.99,751.26,1.00,0,0,0,2688.24,-0.01,49029.35,3120.91,0.06,57186.23,2450.57,0.06,28972.74,1993.30,0.04,43254.75,1274.78,0.07,702.82
2428600,1361.75,756.84,1.00,0,0,0,3570.66,0.11,66914.29,2648.33,0.07,33175.51,2015.60,0.04,30544.48,1595.49,0.04,27821.63,1371.18,0.07,6756.76
2442700,1386.01,756.69,1.00,0,0,0,1720.71,-0.01,132766.68,1112.48,0.00,109263.13,1191.05,0.02,58504.33,1096.40,0.05,35417.01,1322.07,0.07,3484.79
2463800,1400.91,756.90,1.00,0,0,0,706.12,0.01,48097.17,375.00,-0.16,35319.36,550.05,-0.03,30456.28,737.84,0.04,17007.66,1212.36,0.07,5200.51
2492900,1404.58,753.60,1.00,0,0,0,169.70,-0.73,20374.06,96.08,-0.35,9661.36,84.41,-0.09,16006.80,372.69,0.07,12560.82,1065.55,0.07,5051.31
2506900,1404.80,755.48,1.00,0,0,0,134.98,1.46,19371.53,332.19,2.93,30539.86,307.98,-3.08,27975.99,66.04,0.14,21917.74,880.10,0.06,13250.69
2528000,1393.18,756.06,1.00,0,0,0,551.09,3.09,27286.21,795.66,-3.14,22574.88,648.42,3.11,16249.09,52.96,0.64,1530.05,754.97,0.07,5949.51
2542000,1376.87,755.43,1.00,0,0,0,1166.18,-3.10,44227.76,1054.48,-3.10,18673.43,537.25,3.06,8194.72,70.76,0.70,1300.56,613.88,0.07,10083.05
2556000,1363.68,754.82,1.00,0,0,0,942.79,-3.10,15966.27,230.55,2.71,61104.48,85.40,1.73,37400.94,135.42,0.46,4930.07,410.31,0.08,14552.04
2570000,1371.00,758.12,1.00,0,0,0,573.03,0.42,106470.01,832.15,0.23,73191.43,432.05,0.26,30867.08,255.92,0.19,9310.11,81.97,0.18,23486.76
2591300,1392.31,761.40,1.00,0,0,0,1012.48,0.15,22773.19,780.13,0.15,3663.81,751.48,0.12,15431.14,428.93,0.13,8175.06,190.94,-3.13,12773.56
2619700,1409.32,764.05,1.00,0,0,0,605.86,0.15,14317.62,691.69,0.02,4623.94,751.24,0.07,1426.42,501.84,0.11,2586.09,465.79,-3.10,9683.79
2633800,1421.70,762.02,1.00,0,0,0,890.26,-0.16,26003.72,728.17,-0.02,3314.87,726.99,0.05,2023.50,442.88,0.10,4212.27,805.32,-3.10,24080.33
2669700,1445.72,763.32,1.00,0,0,0,669.85,0.05,7692.81,757.47,0.07,2047.77,579.13,0.00,4209.81,95.77,0.21,9689.45,999.20,-3.08,5418.99
2683700,1459.41,764.70,1.00,0,0,0,982.81,0.10,22515.19,319.06,0.08,31318.80,165.72,-0.02,29532.47,412.03,-3.06,36229.10,1132.51,-3.07,9557.21
2698200,1454.78,764.09,1.00,0,0,0,322.03,-3.01,89981.36,650.29,-3.02,66839.50,920.25,-3.11,74881.08,1034.32,-3.05,42917.37,1163.57,-3.08,2252.26
2720000,1435.99,761.75,1.00,0,0,0,868.64,-3.02,25074.01,1901.08,-3.10,57539.36,2021.03,-3.08,50532.84,1715.36,-3.07,31254.10,1246.71,-3.08,3813.69
2734200,1386.39,761.33,1.00,0,0,0,3492.56,-3.13,185326.94,3732.73,-3.09,129007.30,2986.88,-3.07,68018.25,2567.43,-3.07,60005.92,1375.20,-3.08,9054.00
2749100,1327.51,756.11,1.00,0,0,0,3967.39,-3.05,37591.80,4345.45,-3.06,41914.26,4519.73,-3.07,102876.21,2994.71,-3.06,28691.00,1491.99,-3.08,7843.78
2763000,1261.66,751.09,1.00,0,0,0,4750.87,-3.07,56493.05,5318.48,-3.06,70013.17,4187.93,-3.06,24447.73,3156.36,-3.07,11820.49,1687.97,-3.09,14166.68
2777800,1175.34,744.16,1.00,0,0,0,5851.60,-3.06,74386.70,4064.68,-3.06,84751.90,3973.23,-3.05,14538.86,3504.72,-3.07,23550.84,1834.67,-3.11,10150.22
2799800,1112.64,738.21,1.00,0,0,0,2862.75,-3.05,135883.78,2912.99,-3.04,52401.72,3323.55,-3.07,29626.57,3227.72,-3.07,12598.36,2110.71,-3.12,12604.30
2814200,1069.85,733.45,1.00,0,0,0,2989.99,-3.03,9425.97,2381.18,-3.10,38315.80,2600.74,-3.08,50214.80,2669.01,-3.08,38871.94,2281.95,-3.13,12001.04
2828700,1043.89,735.09,1.00,0,0,0,1793.44,3.08,87053.32,2207.99,-3.13,13347.06,2255.42,-3.10,24142.41,2332.80,-3.11,23593.55,2338.12,3.14,4090.72
2842700,1006.92,732.97,1.00,0,0,0,2645.26,-3.08,63658.54,2153.91,-3.10,6372.74,1607.98,3.14,46634.03,1956.05,3.14,27520.82,2602.11,3.14,18862.52
2864500,966.85,731.99,1.00,0,0,0,1838.85,-3.12,37140.57,1274.09,3.13,40541.58,1523.40,3.10,4763.95,1709.89,3.08,12198.98,2491.12,3.14,5095.46
2893900,941.69,733.65,1.00,0,0,0,857.46,3.08,33601.79,1025.68,2.96,10651.94,1445.62,3.03,4383.72,1661.41,3.03,3363.09,2481.64,-3.14,406.38
2908500,922.42,739.95,1.00,0,0,0,1388.60,2.83,40899.07,1776.95,2.91,51740.55,1293.38,2.94,13716.52,1683.44,3.03,1510.28,2341.55,3.14,9603.27
2922600,892.11,745.57,1.00,0,0,0,2186.80,2.96,58958.22,1618.67,2.92,11298.52,1750.83,2.91,32587.19,1923.15,3.04,17033.89,2165.47,3.14,12493.40
2944800,865.15,753.08,1.00,0,0,0,1260.44,2.87,42252.44,1730.64,2.91,5061.44,1851.90,2.97,6791.91,1948.60,3.05,1501.50,2063.70,3.14,4590.82
2959700,829.60,760.26,1.00,0,0,0,2433.97,2.94,79219.12,2052.61,3.01,24794.19,2403.73,3.04,38388.23,2317.18,3.08,25156.60,1917.42,-3.14,9836.72
2987700,777.89,764.91,1.00,0,0,0,1854.25,3.05,22313.60,3013.70,3.11,35479.61,2530.13,3.10,6781.28,2351.62,3.11,2658.46,1827.36,-3.13,3290.36
3002000,702.20,764.55,1.00,0,0,0,5293.54,-3.14,241396.90,2958.80,-3.13,10624.41,2753.27,-3.12,19261.67,2349.59,3.14,4741.87,1627.08,-3.12,14021.00
3036900,632.33,762.90,1.00,0,0,0,2002.34,-3.12,94320.17,2535.33,-3.07,12997.94,2845.80,-3.09,3785.98,2394.34,-3.10,3027.76,1521.99,-3.12,3023.07
3050900,578.55,755.49,1.00,0,0,0,3878.02,-3.00,135864.29,2697.02,-3.03,13629.09,2319.71,-3.05,38204.18,2172.05,-3.06,17632.30,1494.17,-3.11,2163.29
3072400,537.19,752.21,1.00,0,0,0,1929.83,-3.06,90912.95,2031.39,-3.02,30968.96,2231.99,-2.98,8899.41,2015.72,-3.01,8521.59,1423.43,-3.09,3550.92
3087300,505.13,746.71,1.00,0,0,0,2182.96,-2.97,21086.81,1689.39,-2.88,29371.47,1395.98,-2.88,57331.67,1351.61,-2.94,45320.05,1227.55,-3.07,13239.35
3102100,488.78,739.00,1.00,0,0,0,1221.30,-2.70,71499.51,731.51,-2.35,75449.72,882.13,-2.64,38969.28,1019.43,-2.82,24439.17,1128.05,-3.05,6961.00
3116600,490.02,731.51,1.00,0,0,0,523.48,-1.41,82063.02,418.04,-1.29,44252.21,360.56,-1.65,51576.12,653.63,-2.74,25561.23,1002.62,-3.02,8989.26
3130700,492.08,727.51,1.00,0,0,0,319.27,-1.10,17040.12,435.78,-0.55,21910.20,400.49,-0.80,22483.55,403.58,-2.46,20432.19,917.13,-2.97,6667.43
3152300,503.27,723.35,1.00,0,0,0,552.53,-0.36,17735.71,454.29,-0.44,2387.60,162.87,-1.45,13350.13,201.83,-1.27,17527.10,690.05,-2.90,10836.48
3166800,506.89,720.47,1.00,0,0,0,319.48,-0.67,18495.28,291.57,-2.77,47422.91,130.29,-1.38,2337.78,290.29,-0.43,14899.80,529.21,-2.79,11988.40
3195300,491.59,718.79,1.00,0,0,0,540.08,-3.03,28040.08,307.69,-2.91,1543.50,143.41,-0.40,4540.83,284.63,-0.23,2057.48,409.23,-2.71,4424.22
3209900,494.00,717.37,1.00,0,0,0,191.40,-0.53,48132.43,609.87,0.00,62472.42,250.60,0.05,9388.21,186.30,-0.24,6737.65,305.23,-2.63,7403.55
3231600,513.73,718.89,1.00,0,0,0,911.99,0.08,35165.20,911.56,0.13,14506.16,588.13,0.09,15568.38,59.81,-0.77,6365.61,231.87,-2.60,3399.19
3246100,526.74,721.48,1.00,0,0,0,914.86,0.20,7553.87,567.38,0.20,24024.31,376.15,0.15,14766.03,89.43,-2.57,8151.98,216.46,-2.73,2256.89
3260900,530.02,722.19,1.00,0,0,0,226.97,0.21,46480.97,298.04,-3.09,58321.84,81.51,-2.87,30888.72,139.82,-2.55,3410.39,238.01,-2.92,3263.38
3274900,518.17,721.08,1.00,0,0,0,850.74,-3.05,76890.94,736.75,-2.93,31839.98,489.98,-2.89,29178.21,225.56,-2.91,7664.75,256.85,-3.01,2083.50
3289900,509.16,717.60,1.00,0,0,0,643.72,-2.77,19302.87,650.90,-2.81,7755.87,857.87,-2.89,24526.89,460.70,-3.04,15923.61,305.46,-3.10,3640.28
3310800,496.06,713.51,1.00,0,0,0,656.64,-2.84,2115.49,957.90,-2.87,14862.69,719.46,-2.94,6903.86,662.61,-3.06,9677.21,316.39,3.13,960.09
3325200,476.57,708.58,1.00,0,0,0,1396.04,-2.89,51480.78,784.45,-3.04,15563.50,721.68,-3.05,5493.13,701.43,-3.08,2852.76,283.45,3.10,2365.99
3354000,462.36,709.92,1.00,0,0,0,495.46,3.05,32769.69,578.51,3.01,8989.96,812.92,3.14,4033.56,635.39,-3.10,2340.82,277.44,3.11,230.96
3374900,448.05,712.24,1.00,0,0,0,693.73,2.98,9670.57,859.68,3.01,13453.40,613.87,3.02,10315.14,596.09,3.12,2503.80,335.54,-3.14,2822.17
3389900,431.76,713.92,1.00,0,0,0,1091.78,3.04,26749.43,654.75,3.02,13671.40,575.75,3.00,2643.37,536.90,3.05,4868.63,352.25,-3.10,1442.78
3417900,420.10,715.60,1.00,0,0,0,420.83,3.00,23982.91,372.41,2.98,10111.02,472.98,2.95,3763.72,428.29,2.94,4275.93,353.76,-3.05,578.93
3440000,413.34,716.93,1.00,0,0,0,311.30,2.95,5022.71,266.18,2.76,5728.81,275.70,2.80,9292.41,341.40,2.94,3931.50,312.88,-3.02,1901.09
3454500,411.05,719.23,1.00,0,0,0,224.00,2.35,12246.93,168.07,2.06,12124.85,183.08,2.59,7121.61,218.38,2.94,8484.10,306.11,-3.03,536.18
3469900,411.00,721.37,1.00,0,0,0,139.20,1.60,10116.89,101.56,2.03,4324.32,46.87,1.40,11140.86,73.87,2.90,9391.28,274.45,-3.04,2057.36
3484400,409.71,721.95,1.00,0,0,0,97.74,2.72,9045.92,113.62,-0.55,14256.33,91.65,-0.13,6983.50,32.27,-0.72,7147.05,194.11,-3.12,5681.05
3499000,413.82,719.65,1.00,0,0,0,322.98,-0.51,28796.02,227.99,-0.45,7906.93,133.75,-0.46,3790.97,80.27,-0.70,3288.64,161.02,3.12,2329.75
3519900,416.99,718.43,1.00,0,0,0,162.58,-0.37,7829.62,146.02,-0.42,3931.31,214.10,-0.59,3996.26,86.20,-1.24,2154.18,97.45,2.96,3185.55
3548300,420.40,716.72,1.00,0,0,0,134.13,-0.47,1123.57,206.38,-0.73,2830.78,154.97,-0.88,2762.08,115.95,-1.42,1222.36,46.02,2.39,2252.24
3562900,423.63,712.53,1.00,0,0,0,362.07,-0.91,16991.67,208.77,-1.32,8367.29,140.83,-1.74,8508.31,117.80,-1.07,2788.73,32.31,1.56,2317.93
3583800,422.21,709.53,1.00,0,0,0,158.81,-2.01,15430.21,275.23,-2.60,14067.64,210.08,-2.10,4427.00,63.36,-1.33,2817.81,39.06,0.89,1163.03
3598900,415.11,707.46,1.00,0,0,0,489.43,-2.86,26627.35,334.65,-2.66,4072.94,121.67,-2.39,6617.38,24.78,-0.34,3563.57,40.19,0.61,747.62
3613100,413.53,704.96,1.00,0,0,0,208.33,-2.13,25401.94,95.27,-0.11,29353.31,109.12,2.93,7546.32,47.41,1.39,4013.32,33.41,0.37,784.52
3627800,417.85,707.15,1.00,0,0,0,329.16,0.47,35316.14,221.03,1.17,14622.97,171.07,1.08,15447.48,89.43,1.84,3470.87,32.79,0.12,544.01
3642000,416.00,710.86,1.00,0,0,0,291.73,2.03,30885.75,289.38,1.33,5528.12,253.78,1.16,5943.12,104.70,1.66,1654.66,16.82,0.21,1134.47
3663700,420.35,717.23,1.00,0,0,0,355.85,0.97,15331.06,272.51,1.15,2398.95,226.83,1.44,3339.55,123.87,1.26,2232.65,2.94,-0.31,660.84
3692600,421.61,723.45,1.00,0,0,0,219.54,1.37,6084.21,178.46,1.59,4661.74,158.53,1.27,2620.60,123.92,1.22,179.10,12.18,-2.88,510.21
3706900,420.18,724.94,1.00,0,0,0,144.06,2.33,12667.75,55.76,1.87,8794.92,95.76,1.49,4797.68,90.64,1.42,2768.57,23.28,2.91,967.98
3743000,420.78,726.14,1.00,0,0,0,37.03,1.11,3768.71,29.94,0.96,1226.71,19.71,1.97,2183.26,57.66,1.26,968.33,20.20,2.30,368.97
3757400,421.05,726.18,1.00,0,0,0,19.22,0.15,2114.42,22.72,-1.47,3429.06,16.67,-1.55,2481.41,15.20,2.79,4092.64,37.72,0.86,2805.03
3786500,420.88,725.15,1.00,0,0,0,35.65,-1.74,1560.14,60.47,-1.85,1384.25,69.84,-1.87,1864.97,56.99,-2.13,1923.19,75.57,0.73,1322.15
3807500,420.22,723.26,1.00,0,0,0,95.32,-1.91,2880.16,128.74,-1.95,3278.71,108.73,-1.95,1881.44,68.31,-1.89,882.30,90.64,1.42,2776.91
3822900,419.15,720.80,1.00,0,0,0,174.52,-1.98,5181.63,192.04,-2.00,4142.75,157.71,-1.98,3191.88,85.77,-1.79,1247.32,57.66,1.26,2269.91
3836800,417.88,718.15,1.00,0,0,0,211.52,-2.02,2704.20,194.98,-2.00,216.18,150.26,-1.95,622.20,71.08,-1.42,2289.94,15.20,2.79,4239.86
3851300,416.83,715.77,1.00,0,0,0,179.17,-1.99,2262.97,116.25,-1.88,5573.52,106.23,-1.72,3630.65,78.92,-0.38,5158.99,56.99,-2.13,3859.65
3872300,416.62,714.22,1.00,0,0,0,74.66,-1.70,5212.83,59.95,-0.91,4584.72,79.60,-0.41,5469.32,150.26,-1.95,8066.51,68.31,-1.89,882.30
3886700,418.14,714.10,1.00,0,0,0,105.58,-0.08,9213.50,217.47,0.31,14193.53,196.46,0.34,10339.13,106.23,-1.72,3655.86,85.77,-1.79,1333.94
3900900,422.55,716.09,1.00,0,0,0,341.11,0.42,17865.66,345.40,0.48,9589.58,217.47,0.31,1563.76,79.60,-0.41,8088.43,71.08,-1.42,2241.57
3929800,431.37,720.92,1.00,0,0,0,347.86,0.50,956.14,347.86,0.50,315.02,345.40,0.48,4711.83,196.46,0.34,5151.68,78.92,-0.38,2588.42
