@RELATION gaze_labels

%@METADATA width_px 1920
%@METADATA height_px 1080
%@METADATA width_mm 540.00
%@METADATA height_mm 254.00
%@METADATA distance_mm 620.00


@ATTRIBUTE time INTEGER
@ATTRIBUTE x NUMERIC
@ATTRIBUTE y NUMERIC
@ATTRIBUTE confidence NUMERIC
@ATTRIBUTE handlabeller1 INTEGER
@ATTRIBUTE handlabeller2 INTEGER
@ATTRIBUTE handlabeller_final INTEGER
@ATTRIBUTE speed_1 numeric
@ATTRIBUTE direction_1 numeric
@ATTRIBUTE acceleration_1 numeric
@ATTRIBUTE speed_2 numeric
@ATTRIBUTE direction_2 numeric
@ATTRIBUTE acceleration_2 numeric
@ATTRIBUTE speed_4 numeric
@ATTRIBUTE direction_4 numeric
@ATTRIBUTE acceleration_4 numeric
@ATTRIBUTE speed_8 numeric
@ATTRIBUTE direction_8 numeric
@ATTRIBUTE acceleration_8 numeric
@ATTRIBUTE speed_16 numeric
@ATTRIBUTE direction_16 numeric
@ATTRIBUTE acceleration_16 numeric

%The number after speed, direction denotes the step size that was used for the calculation.
%Acceleration was calculated between two adjacent samples of the already low pass filtered velocity

@DATA
0,36.75,689.23,1.00,1,1,1,0.00,0.00,0.00,5075.57,0.20,0.00,2005.62,0.22,0.00,506.36,0.39,0.00,280.49,0.15,0.00
14500,108.89,703.77,1.00,1,1,1,5075.57,0.20,350039.12,2005.62,0.22,211789.04,151.72,2.62,146180.22,757.03,-3.09,85961.63,95.66,-0.60,15217.04
43200,121.24,708.42,1.00,1,1,1,459.65,0.36,161061.39,151.72,2.62,73854.12,506.36,0.39,21300.71,1266.16,-3.01,17933.33,405.94,-0.24,11093.37
64300,102.34,707.54,1.00,1,1,1,896.50,-3.10,63566.92,1361.51,-3.05,58773.04,757.03,-3.09,59073.16,947.24,-2.93,15676.75,874.65,-0.10,22526.09
78400,73.50,704.25,1.00,1,1,1,2059.19,-3.03,82711.87,1855.27,-3.01,35361.40,1266.16,-3.01,36502.60,280.49,0.15,87047.87,1479.83,-0.07,43021.41
93000,49.55,700.60,1.00,1,1,1,1658.98,-2.99,27825.06,1156.78,-2.95,48221.77,947.24,-2.93,22656.12,95.66,-0.60,15112.81,1779.33,-0.10,20902.48
108100,39.76,697.73,1.00,1,1,1,675.46,-2.86,65805.20,158.43,-1.77,73229.97,143.14,-1.23,64677.89,405.94,-0.24,21084.75,1720.27,-0.11,3992.70
122300,48.62,696.06,1.00,1,1,1,634.63,-0.19,89700.31,1029.86,-0.06,74898.35,908.99,-0.07,60622.78,874.65,-0.10,33471.87,1721.76,-0.15,4768.82
144000,76.66,695.41,1.00,1,1,1,1292.74,-0.02,31092.76,1457.55,-0.01,19925.35,1759.33,-0.02,39308.70,1479.83,-0.07,27954.00,1066.40,-0.14,30203.19
172200,121.35,695.26,1.00,1,1,1,1584.49,-0.00,10392.73,2375.11,-0.01,32539.32,1911.00,-0.01,5395.24,1779.33,-0.10,10821.85,863.99,-0.22,7583.21
186600,177.84,694.82,1.00,2,2,2,3923.42,-0.01,162427.87,2361.75,-0.02,2008.23,2486.15,-0.03,40005.86,1720.27,-0.11,4186.79,937.21,-0.16,6035.72
222400,239.89,693.28,1.00,3,3,3,1733.72,-0.02,61177.65,2581.20,-0.05,6499.18,2655.70,-0.11,7622.60,1721.76,-0.15,1891.54,1161.88,-0.05,7072.57
236900,307.53,688.59,1.00,1,1,1,4675.81,-0.07,203089.89,3217.49,-0.24,57748.36,1699.41,-0.18,66729.55,1740.31,-0.18,4215.79,1459.65,0.07,23033.57
250900,329.02,671.74,1.00,1,1,1,1951.10,-0.66,232200.14,896.97,-0.58,170988.61,1536.44,-0.37,24152.38,1609.00,-0.19,9466.67,1653.84,0.16,17204.21
286300,344.47,664.13,1.00,1,1,1,486.48,-0.46,41763.05,627.15,-0.76,8438.11,995.37,-0.65,18291.96,1402.93,-0.14,6181.57,2004.27,0.24,10695.51
300200,351.52,650.53,1.00,1,1,1,1101.93,-1.09,55150.39,1173.99,-0.75,39345.82,682.69,-0.49,24586.29,1482.30,-0.02,14418.84,2343.18,0.29,25823.39
314900,369.12,641.33,1.00,1,1,1,1351.23,-0.48,52773.64,821.11,-0.21,42934.98,950.26,-0.04,30339.34,1467.65,0.21,23099.11,2750.10,0.33,28730.63
336400,380.61,644.43,1.00,1,1,1,553.17,0.26,47254.62,1167.88,0.51,35770.28,1652.98,0.37,40530.95,1656.18,0.45,19354.74,3053.83,0.37,15069.36
350600,405.52,661.67,1.00,1,1,1,2133.70,0.61,114314.77,2927.60,0.57,124167.29,2635.99,0.57,75042.45,2661.07,0.54,72022.50,3141.19,0.41,10396.52
365100,451.38,689.71,1.00,4,4,4,3707.22,0.55,109072.84,4478.70,0.59,107116.79,3402.12,0.67,56568.41,3436.00,0.56,53527.79,3297.77,0.45,13866.56
379100,511.48,732.84,1.00,4,4,4,5283.77,0.62,114993.52,3803.75,0.73,63382.77,4544.15,0.66,81642.83,4345.80,0.57,65130.61,3022.27,0.50,22367.63
400700,552.19,780.13,1.00,4,4,4,2888.67,0.86,118885.60,4608.93,0.71,37560.73,4931.63,0.61,20997.64,5091.07,0.57,34512.67,2733.33,0.55,14818.67
415400,638.65,841.56,1.00,4,4,4,7215.02,0.62,303736.64,5895.49,0.54,105331.75,5728.29,0.57,55565.27,5431.46,0.57,23157.17,2414.05,0.60,23455.08
444000,770.89,911.78,1.00,4,4,4,5235.47,0.49,74595.16,6725.76,0.50,30711.06,6480.18,0.53,28117.87,5305.07,0.58,4711.83,1897.69,0.68,19171.31
458500,893.55,979.61,1.00,4,4,4,9665.94,0.51,305662.10,7185.06,0.51,32509.70,6182.77,0.51,21132.89,4630.44,0.59,46633.20,1279.79,0.85,46111.67
480000,996.43,1038.43,1.00,4,4,4,5512.21,0.52,193257.49,5534.33,0.54,77298.88,5767.52,0.55,21094.36,3916.81,0.59,33198.53,865.32,1.11,23179.60
494400,1063.74,1082.13,1.00,4,4,4,5572.67,0.58,22159.71,3994.03,0.62,110142.24,3289.14,0.61,173348.98,2200.51,0.66,119947.52,511.65,1.65,34914.64
508500,1088.90,1104.81,1.00,4,4,4,2402.78,0.73,228500.25,720.77,1.36,247974.36,716.62,1.48,203840.21,529.43,1.81,144884.86,641.66,2.72,42372.22
523400,1068.03,1102.58,1.00,4,4,4,1408.80,-3.04,244198.38,3072.35,-2.87,232504.25,2744.18,-2.88,206064.92,1986.92,-2.92,137350.13,1044.24,3.11,34453.26
538400,1000.43,1080.08,1.00,4,4,4,4749.76,-2.82,225786.11,5216.02,-2.78,144892.67,5435.56,-2.78,181149.57,3717.19,-2.81,117037.64,1416.06,-2.99,28865.50
559800,890.47,1035.34,1.00,4,4,4,5547.25,-2.76,40410.15,7422.69,-2.75,103460.52,6168.08,-2.76,34916.67,4570.76,-2.76,41097.89,1850.96,-2.88,21852.39
574200,754.75,978.80,1.00,4,4,4,10209.96,-2.75,323828.96,6972.35,-2.74,31687.10,6481.93,-2.75,22212.13,5562.63,-2.75,69042.50,2508.29,-2.83,46309.83
603000,613.19,917.70,1.00,4,4,4,5353.76,-2.73,168649.84,5800.29,-2.74,40697.22,5877.62,-2.73,21411.81,5761.09,-2.75,6904.42,2924.91,-2.79,14940.06
623600,490.87,867.15,1.00,4,4,4,6424.98,-2.75,52189.46,4921.71,-2.71,43518.86,5655.79,-2.73,10800.86,5743.77,-2.74,2522.13,3223.44,-2.75,15463.80
652400,392.56,815.54,1.00,4,4,4,3855.22,-2.66,90617.11,5492.07,-2.71,19833.14,5381.80,-2.75,10237.19,5475.09,-2.74,9402.16,3284.03,-2.73,3296.19
666900,274.49,768.51,1.00,4,4,4,8765.43,-2.76,341205.67,6024.99,-2.79,48634.13,4950.73,-2.74,29862.21,4643.02,-2.73,57402.14,3474.53,-2.72,13226.25
688400,188.62,741.69,1.00,4,4,4,4183.94,-2.84,214176.46,4305.63,-2.78,80023.26,4898.79,-2.76,4632.19,3898.75,-2.72,34745.18,3385.64,-2.72,4139.10
702900,129.40,713.94,1.00,4,4,4,4510.09,-2.70,46416.74,3492.12,-2.68,62487.14,3183.24,-2.75,118363.50,2749.28,-2.67,80110.56,3152.14,-2.72,16127.41
716900,99.56,697.27,1.00,1,1,1,2441.84,-2.63,148687.97,1770.45,-2.63,123256.81,1731.52,-2.58,107336.20,1882.82,-2.64,62060.36,2861.66,-2.72,20749.88
731200,85.66,689.50,1.00,1,1,1,1113.15,-2.63,92915.36,337.45,-1.13,124386.94,449.98,-1.27,116837.89,1189.79,-2.58,48807.80,2385.00,-2.72,33333.56
746300,103.77,688.29,1.00,1,1,1,1201.92,-0.07,146995.55,1427.67,-0.07,85961.01,713.96,-0.22,41659.31,687.37,-2.43,34599.69,1876.57,-2.70,33721.36
767900,137.94,685.96,1.00,1,1,1,1585.48,-0.07,17757.62,1023.95,-0.07,18691.23,566.52,-0.26,6936.64,251.10,-1.98,21922.63,1397.86,-2.67,22321.18
796400,154.96,684.94,1.00,1,1,1,598.38,-0.06,34636.42,277.07,-2.39,43184.57,180.58,-0.83,14923.17,126.01,-1.24,6290.10,922.54,-2.62,16801.27
810800,129.23,677.87,1.00,1,1,1,1853.02,-2.87,168551.66,1169.30,-2.95,65625.82,297.61,-2.92,29035.59,114.36,-0.49,6123.35,378.86,-2.30,39906.38
831900,114.24,676.91,1.00,1,1,1,712.18,-3.08,55196.38,404.00,2.93,38525.39,771.16,-3.04,22618.46,78.78,-0.43,1712.08,243.73,-1.02,18384.15
846500,115.12,680.83,1.00,1,1,1,275.19,1.35,57021.93,322.17,2.79,6619.34,451.86,3.01,23714.17,32.28,-2.63,6930.40,470.37,-0.27,22929.60
860900,105.46,680.11,1.00,1,1,1,672.64,-3.07,55382.82,513.44,3.09,15641.49,99.92,1.52,31573.16,61.10,-0.27,6037.69,625.40,-0.12,12243.23
875600,100.20,681.67,1.00,1,1,1,373.08,2.85,23793.49,270.35,0.34,52357.82,296.34,0.15,19963.78,409.62,0.05,23962.05,696.39,-0.08,5114.15
896600,114.54,683.37,1.00,1,1,1,687.81,0.12,49573.42,962.59,0.06,33675.25,736.74,0.04,21110.05,715.52,0.02,14588.33,676.02,-0.09,999.51
910700,133.92,683.70,1.00,1,1,1,1374.86,0.02,49225.35,1136.07,-0.02,13543.09,965.07,-0.00,16429.28,957.67,-0.03,17454.12,599.78,-0.09,5407.01
939600,163.39,682.58,1.00,1,1,1,1020.17,-0.04,12476.95,968.06,-0.04,5867.93,1209.01,-0.04,8531.69,1090.75,-0.03,4604.78,563.79,-0.11,1298.06
975500,196.61,681.30,1.00,3,3,3,926.10,-0.04,2620.46,1271.74,-0.05,8471.32,1417.16,-0.06,5854.51,1176.73,-0.05,2441.76,638.08,-0.06,2209.36
989900,227.27,679.19,1.00,1,1,1,2133.93,-0.07,83929.66,2442.81,-0.08,81384.48,1373.40,-0.07,3089.61,1204.26,-0.07,2524.82,681.71,-0.04,3130.03
1003900,265.77,675.87,1.00,1,1,1,2760.70,-0.09,44870.16,1477.73,-0.08,68935.50,1449.36,-0.09,5809.46,1101.85,-0.07,7331.88,702.02,-0.06,1657.20
1039000,299.61,673.70,1.00,1,1,1,966.13,-0.06,51137.83,882.91,-0.10,16960.82,1200.10,-0.11,7139.63,1005.13,-0.10,2837.20,754.90,-0.05,1514.05
1053700,309.53,671.60,1.00,1,1,1,689.73,-0.21,20438.71,733.27,-0.21,11809.62,756.63,-0.10,30167.71,905.92,-0.12,6871.07,845.04,-0.06,6171.68
1067900,320.35,669.35,1.00,1,1,1,778.34,-0.20,6242.53,578.09,-0.12,11628.33,439.41,-0.25,23111.60,647.71,-0.12,18183.97,911.11,-0.08,4732.47
1088900,329.74,669.17,1.00,1,1,1,446.82,-0.02,16619.53,199.78,-0.38,18507.49,254.71,-0.33,8886.71,421.22,-0.12,10785.88,895.88,-0.09,834.73
1103000,326.86,666.73,1.00,1,1,1,267.29,-2.44,47594.75,186.11,-2.58,24390.99,25.21,-2.43,19033.88,292.76,-0.14,9128.24,859.07,-0.12,3209.99
1118300,325.10,666.26,1.00,1,1,1,119.10,-2.88,10953.49,265.98,2.94,11955.24,75.31,-3.00,3642.18,387.12,-0.13,6174.22,817.22,-0.16,3427.03
1132700,319.11,668.29,1.00,1,1,1,438.70,2.82,24015.69,81.87,1.43,19036.93,157.54,0.15,16170.04,559.96,-0.10,12035.69,725.39,-0.19,6648.06
1146600,325.43,668.56,1.00,1,1,1,455.06,0.04,63210.28,506.27,-0.00,36053.78,528.07,-0.04,26929.10,640.14,-0.12,5794.55,637.44,-0.20,6359.63
1168000,336.99,668.26,1.00,2,2,2,539.97,-0.03,4272.21,940.58,-0.10,20558.62,1039.06,-0.09,23951.83,693.66,-0.15,2736.22,679.27,-0.19,1980.67
1182400,358.93,665.08,1.00,3,3,3,1539.61,-0.14,69819.50,1480.54,-0.11,37506.48,1120.80,-0.11,5799.60,730.22,-0.20,3582.06,776.14,-0.16,6888.59
1210800,399.94,661.05,1.00,1,1,1,1451.13,-0.10,3948.86,1250.35,-0.11,8114.03,1142.99,-0.19,3321.97,806.00,-0.25,2932.51,897.91,-0.10,4636.04
1232200,420.84,658.48,1.00,1,1,1,984.09,-0.12,21866.26,755.98,-0.36,25719.85,903.18,-0.28,12112.78,844.29,-0.24,1805.27,1097.15,-0.08,9404.44
1246700,425.38,651.60,1.00,1,1,1,568.55,-0.99,51898.19,509.57,-1.11,35880.62,576.53,-0.60,27451.44,1027.37,-0.21,12842.54,1228.38,-0.05,9335.07
1261400,427.44,645.14,1.00,1,1,1,460.96,-1.26,12033.93,444.03,-1.13,4516.83,533.60,-0.63,3137.01,1127.00,-0.17,7166.45,1524.93,-0.03,20222.85
1275700,430.83,639.93,1.00,1,1,1,434.83,-0.99,8599.21,630.62,-0.32,32080.91,887.41,-0.24,31086.64,1220.08,-0.10,8683.00,1811.66,-0.02,20071.68
1297200,448.87,638.05,1.00,1,1,1,843.59,-0.10,30806.11,1411.86,-0.04,38407.93,1416.05,-0.09,25777.18,1555.90,-0.06,15891.64,2016.60,-0.02,9562.96
1311400,481.20,638.15,1.00,1,1,1,2276.99,0.00,101485.87,2448.90,-0.01,73093.98,1776.83,0.01,27847.15,1722.96,-0.01,13122.30,2246.75,-0.01,16275.84
1325200,517.43,637.22,1.00,1,1,1,2626.32,-0.03,25833.64,2043.00,0.04,30558.09,2490.21,0.04,51827.62,2261.96,0.02,39243.41,2275.56,0.00,2624.21
1360700,581.84,642.09,1.00,2,2,2,1819.60,0.08,23563.25,2516.08,0.07,13438.65,2329.77,0.05,4621.64,2713.53,0.03,12765.07,2162.45,0.01,3240.38
1375200,642.96,645.55,1.00,3,3,3,4221.62,0.06,165695.64,2659.74,0.07,9910.54,2848.41,0.06,35770.18,3173.11,0.04,31742.19,2024.19,0.02,9603.64
1403600,695.71,649.50,1.00,1,1,1,1862.48,0.07,83088.12,3233.40,0.05,20304.17,3728.36,0.04,31008.19,3385.94,0.05,7543.10,1698.41,0.04,11527.77
1418400,782.50,651.84,1.00,1,1,1,5866.64,0.03,270763.51,5017.21,0.03,120586.02,3854.29,0.05,8511.58,3337.41,0.06,3832.69,1459.75,0.06,16278.66
1439200,874.23,655.10,1.00,1,1,1,4412.89,0.04,69923.31,4620.64,0.05,19350.32,4893.37,0.05,49959.88,3161.33,0.06,8474.96,1153.13,0.09,14838.44
1453400,944.06,659.21,1.00,1,1,1,4925.71,0.06,36918.65,4743.39,0.07,11884.26,4045.16,0.06,59904.42,2500.90,0.07,46553.78,883.29,0.11,19062.83
1468200,1011.45,664.76,1.00,1,1,1,4569.09,0.08,25233.26,3362.18,0.09,93487.09,2475.22,0.09,106268.66,1676.14,0.09,55797.95,597.92,0.15,19397.32
1482800,1042.50,668.17,1.00,1,1,1,2139.28,0.11,166526.17,639.44,0.23,186989.25,875.40,0.21,110241.01,595.51,0.23,74641.47,275.72,0.33,22612.77
1503900,1033.69,669.90,1.00,1,1,1,425.27,2.95,120772.07,1223.24,3.07,87408.28,940.59,3.05,85063.82,633.31,2.97,57035.56,160.15,2.60,18855.65
1518100,999.42,671.16,1.00,1,1,1,2415.18,3.11,140584.17,2199.41,3.12,68987.69,2222.06,3.12,90554.49,1597.12,3.11,68603.00,505.38,3.02,25716.18
1548000,936.72,671.75,1.00,2,2,2,2097.21,3.13,10827.98,3021.35,3.14,27521.95,3137.16,3.14,30636.08,2443.45,3.14,28381.63,777.86,3.09,9234.37
1562300,865.88,671.63,1.00,2,2,2,4953.78,-3.14,199775.77,4305.88,-3.14,89856.31,3579.65,-3.13,31261.37,3095.31,-3.13,45632.08,1038.11,3.12,18296.48
1583400,784.29,670.92,1.00,3,3,3,3866.83,-3.13,51534.85,4270.14,-3.11,5471.07,4311.87,-3.12,34734.67,3404.20,-3.13,14639.83,1337.17,3.14,14203.25
1598100,713.08,666.89,1.00,1,1,1,4852.01,-3.09,68485.57,4320.97,-3.10,5178.59,4170.18,-3.11,9741.21,3468.81,-3.13,4716.25,1367.91,-3.14,2310.63
1612400,659.10,665.38,1.00,1,1,1,3775.95,-3.11,75735.14,4046.41,-3.12,20125.03,3732.38,-3.12,30681.98,3240.46,-3.12,16055.43,1485.03,-3.13,8236.15
1627000,596.17,664.13,1.00,1,1,1,4311.37,-3.12,36739.49,3257.63,3.14,54492.37,3330.90,-3.13,27520.69,2453.73,-3.11,53910.77,1556.15,-3.13,4878.59
1648200,542.48,665.97,1.00,1,1,1,2533.95,3.11,84263.59,2746.99,-3.13,24143.05,2367.06,-3.12,45470.61,1992.09,-3.10,21806.94,1575.87,-3.12,935.21
1662400,498.93,663.49,1.00,1,1,1,3072.09,-3.08,41912.93,1631.62,-3.08,79045.44,1341.00,-3.10,72283.93,1183.60,-3.10,56937.46,1406.98,-3.13,11899.53
1691400,472.15,661.32,1.00,1,1,1,926.44,-3.06,74000.92,570.73,-3.02,36623.59,778.26,-3.03,19597.29,708.54,-3.09,16383.54,1303.60,-3.12,3579.14
1726800,462.43,659.15,1.00,1,1,1,281.28,-2.92,18333.63,78.09,-1.92,15248.02,62.54,-1.05,22747.07,304.12,-3.07,11426.21,1079.80,-3.12,6325.09
1740900,470.81,657.69,1.00,1,1,1,603.49,-0.17,61710.25,811.90,-0.05,59492.54,619.66,-0.05,41720.24,37.01,-2.36,19649.59,793.88,-3.11,20282.64
1776200,502.50,657.33,1.00,1,1,1,897.61,-0.01,8982.90,1267.80,0.01,13026.64,1033.46,0.02,11802.24,266.43,0.03,8348.63,587.56,-3.09,5852.72
1790200,533.31,658.56,1.00,1,1,1,2202.65,0.04,93358.12,1429.65,0.08,13023.86,867.13,0.06,12215.36,401.45,0.04,9644.84,436.17,-3.07,10836.80
1804200,542.41,660.38,1.00,1,1,1,663.01,0.20,110815.66,196.34,0.57,90003.46,694.59,0.17,13938.82,508.63,0.05,7676.59,319.29,-3.03,8423.35
1818500,537.99,661.55,1.00,1,1,1,319.62,2.88,67155.46,168.68,0.88,4414.08,102.80,0.88,43352.88,531.69,0.07,1745.11,244.42,-2.93,5595.37
1840200,546.27,665.07,1.00,1,1,1,414.61,0.40,32040.03,59.96,1.80,6479.05,125.31,2.82,8675.44,236.67,0.03,13616.01,140.85,-2.83,4842.33
1854300,537.51,663.64,1.00,1,1,1,630.03,-2.98,73576.61,406.61,-2.96,28933.73,130.90,0.18,17585.66,99.33,-2.95,23759.51,52.10,-2.48,6658.35
1869100,534.71,662.99,1.00,1,1,1,194.09,-2.91,29498.70,305.01,-0.06,47743.49,231.66,-2.66,24245.00,338.61,-2.99,16174.50,54.06,-0.68,5619.46
1883300,546.33,663.09,1.00,1,1,1,818.74,0.01,71059.36,144.16,-1.91,26174.25,249.49,-2.74,1789.35,497.46,-2.98,11189.43,154.62,-0.12,7917.07
1905000,532.97,658.11,1.00,1,1,1,657.17,-2.78,67001.38,555.93,-2.88,22510.49,527.45,-2.90,13087.98,639.44,-2.97,6543.50,234.00,-0.03,3742.43
1933600,519.33,655.82,1.00,1,1,1,483.54,-2.97,7129.60,904.83,-3.01,12604.60,1012.85,-2.98,17092.96,546.69,-2.99,3252.05,344.00,0.06,3945.46
1948200,494.24,652.84,1.00,1,1,1,1730.83,-3.02,85484.98,1820.68,-3.03,62756.17,986.33,-3.03,4418.72,389.35,-2.91,11030.27,527.47,0.07,12569.28
1962300,467.42,649.86,1.00,1,1,1,1913.74,-3.03,13006.49,1086.37,-3.06,52197.56,921.91,-3.07,5110.80,185.11,-2.77,14725.76,714.23,0.07,13245.63
1983700,455.79,649.81,1.00,1,1,1,543.35,-3.14,64233.96,220.50,2.95,40945.57,249.86,-2.95,31524.99,232.32,-0.07,19038.09,794.30,0.05,3788.45
1998600,459.57,651.43,1.00,1,1,1,275.89,0.41,54003.25,451.95,-0.04,45008.82,591.41,0.04,56324.87,747.71,0.08,34840.77,908.44,0.05,7668.89
2026400,475.07,649.03,1.00,1,1,1,564.35,-0.15,12996.78,1186.38,0.01,26453.41,1448.96,0.05,30847.83,1283.87,0.09,19291.32,1085.67,0.05,6380.70
2047800,517.94,652.10,1.00,1,1,1,2007.98,0.07,68376.10,2640.76,0.07,68122.56,1924.77,0.08,22325.16,1773.25,0.09,22869.10,1096.94,0.04,771.31
2062200,569.39,655.46,1.00,2,2,2,3581.18,0.07,109256.31,2773.77,0.11,11773.42,2669.24,0.10,51823.32,1991.35,0.08,15195.92,1170.17,0.05,5173.63
2090800,636.53,664.83,1.00,2,2,2,2370.00,0.14,43003.86,2690.80,0.12,3132.47,3056.46,0.10,13544.24,2086.63,0.07,3474.67,1313.91,0.05,5026.28
2112900,704.85,671.70,1.00,3,3,3,3107.09,0.10,33684.84,3396.08,0.10,32053.62,2450.17,0.10,27436.23,2493.75,0.08,18452.95,1522.20,0.06,9429.22
2126600,757.53,676.65,1.00,1,1,1,3862.30,0.09,55149.44,2163.40,0.07,90151.12,2260.86,0.06,15174.38,2428.18,0.07,5231.30,1689.15,0.06,12188.25
2155200,796.14,678.01,1.00,1,1,1,1350.93,0.04,87934.53,1450.36,0.00,25252.49,2299.63,0.05,1501.87,2111.28,0.07,11080.39,1780.39,0.06,3194.14
2176500,829.90,676.96,1.00,1,1,1,1585.75,-0.03,11931.87,2462.97,0.04,47641.92,1802.48,0.01,23751.64,1908.42,0.04,9814.02,1818.46,0.07,1823.13
2190600,883.26,681.43,1.00,1,1,1,3797.85,0.08,158157.07,2416.89,0.01,5610.72,1624.41,-0.00,12680.16,1797.88,0.03,7989.58,1848.68,0.08,2627.75
2205100,899.02,677.85,1.00,1,1,1,1114.36,-0.22,190103.18,601.56,-0.21,126507.26,1439.07,0.00,12783.47,1595.30,0.02,14062.83,1683.49,0.09,11486.79
2219200,900.10,677.91,1.00,1,1,1,77.12,0.06,73800.09,651.88,-0.04,8361.14,1204.26,-0.02,16795.66,1529.23,0.03,4869.98,1293.32,0.12,27797.86
2240600,922.15,677.02,1.00,1,1,1,1030.83,-0.04,44586.13,1682.67,0.03,48268.22,1344.91,0.03,7317.00,1484.86,0.06,3059.18,835.63,0.15,21442.37
2256000,962.00,679.65,1.00,1,1,1,2593.67,0.07,102107.15,2184.14,0.06,32742.53,1453.55,0.06,7409.35,1107.47,0.07,24529.21,290.43,0.36,36046.09
2270000,986.26,680.59,1.00,2,2,2,1734.04,0.04,61539.36,1256.42,0.09,66384.95,1525.84,0.11,7491.77,865.36,0.16,18289.94,277.17,2.88,38579.09
2298500,1015.19,684.41,1.00,1,1,1,1023.79,0.13,25293.68,1138.57,0.17,5253.81,1035.16,0.17,17426.73,455.13,0.35,14968.61,784.91,3.08,18116.10
2319500,1041.84,689.94,1.00,1,1,1,1296.13,0.20,13571.97,780.70,0.32,18449.46,495.46,0.45,27438.10,340.75,2.64,34603.33,1174.19,3.10,18582.46
2333500,1041.09,693.12,1.00,1,1,1,233.48,1.80,94523.33,784.09,2.80,105601.11,747.49,2.82,82547.23,1271.59,3.02,68896.98,1612.87,3.13,31457.13
2347800,1020.95,697.41,1.00,1,1,1,1440.17,2.93,94884.79,2119.07,3.04,95793.94,2510.96,3.08,125675.87,1978.39,3.08,49862.70,1704.23,3.13,6390.05
2369800,964.59,701.15,1.00,2,2,2,2567.42,3.08,52751.04,3872.99,3.12,80427.98,3999.67,3.11,67869.47,2995.31,3.12,46423.96,1772.09,3.13,3091.02
2384400,879.23,700.68,1.00,2,2,2,5846.30,-3.14,225388.81,6414.21,-3.14,174263.95,4371.36,3.14,26566.45,3579.83,-3.14,40263.96,1915.52,3.14,9825.23
2398200,782.43,700.81,1.00,2,2,2,7015.12,3.14,84758.47,4806.78,-3.13,116534.44,5071.35,-3.12,51371.87,4073.79,-3.13,35941.39,1973.60,-3.14,4414.41
2426400,677.36,698.51,1.00,1,1,1,3726.59,-3.12,116690.63,4311.31,-3.11,18053.44,4331.92,-3.11,26241.19,3745.89,-3.12,11704.08,2006.81,-3.13,1338.16
2448300,566.57,692.94,1.00,1,1,1,5065.23,-3.09,61383.79,3941.11,-3.10,16948.85,4129.31,-3.10,9586.43,3708.11,-3.11,2296.28,2093.46,-3.13,3970.08
2477300,476.94,689.90,1.00,1,1,1,3092.43,-3.11,68063.88,3917.32,-3.10,834.99,3257.88,-3.09,30064.76,3275.91,-3.11,14920.68,2229.30,-3.11,4768.37
2491300,398.29,685.52,1.00,1,1,1,5626.74,-3.09,181137.36,2554.01,-3.09,97407.85,2555.49,-3.09,50170.87,2539.42,-3.09,52704.63,2210.68,-3.11,1476.13
2526700,350.96,683.03,1.00,1,1,1,1338.81,-3.09,121128.21,1379.65,-3.09,33174.02,2023.82,-3.08,15044.82,2042.44,-3.06,14135.16,2150.18,-3.10,1774.48
2541100,329.68,681.86,1.00,1,1,1,1480.06,-3.09,9811.05,1117.93,-3.06,18366.64,832.28,-3.02,82901.30,1254.83,-3.05,54733.62,2036.88,-3.09,7993.28
2555600,318.77,680.32,1.00,1,1,1,760.15,-3.00,50043.99,152.18,-2.13,71293.74,251.71,-2.43,44074.68,773.08,-2.97,33620.85,1785.19,-3.09,17370.25
2577900,326.71,677.12,1.00,1,1,1,383.84,-0.38,49743.25,567.71,-0.39,27420.48,564.41,-0.22,33339.45,383.20,-2.89,17591.00,1475.05,-3.08,13922.16
2592900,338.32,672.18,1.00,2,2,2,841.13,-0.40,30494.63,1321.10,-0.09,53289.03,721.22,-0.20,10476.34,209.08,-2.67,12298.36,1167.27,-3.07,20530.29
2608300,366.72,673.71,1.00,1,1,1,1847.30,0.05,74893.91,936.80,-0.05,25057.92,190.64,-0.51,35252.70,108.31,-2.18,8121.70,827.11,-3.06,22099.42
2622700,366.19,670.68,1.00,1,1,1,213.35,-1.74,132415.45,651.84,-3.02,109905.22,186.56,-2.95,24579.06,76.23,-1.84,3055.57,561.72,-3.04,18457.77
2651300,338.91,670.27,1.00,1,1,1,954.16,-3.13,32790.46,855.49,-3.11,7506.72,592.93,-3.04,14248.25,88.30,-2.62,2208.48,286.62,-3.01,9626.36
2672300,323.78,669.32,1.00,1,1,1,721.63,-3.08,11228.89,520.97,-3.07,15982.08,648.01,-3.12,3598.53,155.32,3.12,4364.47,166.62,-2.93,5775.00
2686300,320.72,668.94,1.00,1,1,1,220.31,-3.02,35850.43,283.80,3.10,17249.40,356.87,3.11,20883.61,347.85,-3.11,13772.57,90.12,-2.82,5542.38
2700500,315.79,669.68,1.00,1,1,1,351.39,2.99,10661.22,174.14,2.70,9903.77,131.24,2.75,16796.05,352.09,3.09,1893.22,59.49,-2.68,2285.69
2714900,316.22,671.08,1.00,1,1,1,101.62,1.27,26418.93,79.82,1.51,11271.70,76.33,2.38,4564.25,189.42,3.00,11426.36,99.80,-2.94,3117.33
2736800,315.97,672.58,1.00,1,1,1,69.26,1.74,2323.43,43.01,0.94,2255.55,52.78,1.50,2711.06,141.12,2.96,2220.33,154.58,-3.09,2650.86
2750900,317.14,672.33,1.00,1,1,1,84.86,-0.21,9060.66,18.39,1.43,1998.95,65.89,2.52,4193.03,110.99,2.89,2233.42,262.94,-3.09,7685.70
2765300,316.04,673.09,1.00,1,1,1,92.93,2.53,12099.46,124.73,2.80,8501.14,153.37,3.11,7327.42,84.58,2.95,1876.41,265.75,3.14,988.21
2795200,311.93,674.17,1.00,1,1,1,142.16,2.89,2128.15,240.61,-3.13,4380.20,143.59,3.07,396.67,115.14,-3.13,1217.46,189.26,3.14,2558.17
2816200,303.80,672.92,1.00,1,1,1,391.89,-2.99,12737.62,166.81,-3.04,3612.93,143.38,-3.08,932.91,154.53,-3.03,1982.56,139.95,-3.14,2348.25
2845100,303.65,673.32,1.00,1,1,1,14.83,1.92,13469.93,31.61,-2.62,4792.86,176.96,-2.93,1435.31,192.93,-3.06,1343.39,106.99,-3.13,1141.69
2859100,302.62,672.25,1.00,1,1,1,106.45,-2.33,8128.29,194.37,-2.79,11663.34,157.80,-2.92,1372.05,195.23,-3.08,304.54,55.17,-2.89,3916.34
2881000,297.10,670.92,1.00,1,1,1,259.22,-2.90,8178.09,267.36,-2.95,3713.59,255.47,-2.96,4480.16,192.26,-3.02,575.97,24.44,-1.59,2473.56
2909100,289.50,669.66,1.00,1,1,1,274.01,-2.98,868.38,310.88,-3.05,1905.20,256.64,-3.09,1120.81,142.93,-2.97,1776.16,68.09,-0.53,2135.33
2923500,283.94,669.77,1.00,1,1,1,386.63,3.12,8858.19,250.96,2.94,6950.31,210.71,-3.11,3207.07,111.79,-2.83,2504.99,101.70,-0.34,2569.35
2938300,282.32,671.13,1.00,1,1,1,142.25,2.44,19582.10,93.96,2.97,10612.46,122.60,-3.08,5961.07,50.99,-1.99,5847.56,149.51,-0.27,3285.14
2959200,280.63,670.35,1.00,1,1,1,89.09,-2.71,6299.54,58.99,-1.93,4854.80,72.68,-0.29,9206.61,142.60,-0.37,7355.57,244.49,-0.21,4576.18
2973700,281.60,669.17,1.00,1,1,1,105.19,-0.88,10623.51,278.03,-0.24,20042.45,283.80,-0.31,14561.06,346.64,-0.17,14414.06,343.82,-0.14,6989.27
2988100,288.43,668.42,1.00,1,1,1,477.41,-0.11,28402.45,641.19,-0.20,25254.55,557.46,-0.19,19292.03,445.37,-0.13,6933.39,419.43,-0.11,5330.65
3002400,299.65,665.57,1.00,1,1,1,809.07,-0.25,23977.30,782.79,-0.18,9959.48,812.43,-0.13,18033.61,539.69,-0.14,6599.56,421.72,-0.07,1190.65
3024000,316.11,663.53,1.00,3,3,3,767.86,-0.12,4948.25,950.56,-0.10,8352.20,750.22,-0.12,2940.31,734.70,-0.11,9050.46,432.86,-0.04,709.55
3038400,333.70,662.22,1.00,3,3,3,1225.33,-0.07,31942.89,725.34,-0.06,15766.83,734.57,-0.09,1921.36,873.75,-0.09,9765.80,398.27,-0.01,2571.50
3067300,347.45,661.53,1.00,1,1,1,476.28,-0.05,25926.66,579.17,-0.07,5060.02,882.48,-0.07,5127.55,942.81,-0.06,2548.75,303.10,0.01,3307.61
3088400,362.59,660.18,1.00,1,1,1,720.36,-0.09,11618.45,1074.24,-0.08,23467.73,925.59,-0.05,2205.90,842.90,-0.01,5119.49,213.34,0.06,4289.01
3102800,385.45,658.36,1.00,1,1,1,1592.81,-0.08,60591.46,1537.84,-0.04,32378.67,1185.34,-0.01,18276.51,732.79,0.02,7857.97,136.92,0.16,5444.07
3116700,406.07,658.24,1.00,1,1,1,1482.99,-0.01,11313.26,1332.15,0.06,18023.05,993.84,0.06,14912.24,446.47,0.09,20789.26,75.10,0.40,4765.64
3130900,422.83,660.44,1.00,1,1,1,1190.58,0.13,24214.60,581.66,0.28,54594.79,562.42,0.20,31316.94,190.56,0.31,18606.16,37.11,2.02,6011.60
3152300,425.99,663.90,1.00,1,1,1,218.83,0.83,48270.61,156.69,1.97,28994.10,133.31,1.82,27288.59,134.86,2.36,13050.29,116.54,2.76,4337.05
3166700,420.65,665.61,1.00,1,1,1,388.90,2.83,36081.17,533.72,2.94,32243.98,469.68,2.91,29510.77,362.17,2.84,17394.04,195.43,2.85,5549.73
3195300,403.48,668.40,1.00,1,1,1,608.30,2.98,8082.00,683.87,3.01,5457.24,854.86,3.00,13611.13,583.38,2.95,7918.52,244.05,2.85,1700.79
3230900,377.10,671.16,1.00,2,2,2,745.05,3.04,3987.40,1134.28,3.02,12653.66,856.16,3.02,465.51,787.04,3.01,5842.20,286.01,2.87,1182.41
3244900,347.62,675.05,1.00,2,2,2,2124.41,3.01,98555.19,1079.63,3.02,3903.79,1001.27,3.04,10455.97,942.58,3.05,11350.41,312.05,2.87,1861.79
3280400,324.03,677.46,1.00,1,1,1,667.77,3.04,41043.97,870.76,3.06,5980.07,1193.44,3.06,5435.03,955.89,3.05,375.03,364.83,2.89,1497.52
3295300,303.87,678.52,1.00,1,1,1,1355.28,3.09,46249.37,1387.31,3.10,34773.33,1047.16,3.09,10126.33,886.91,3.03,4715.42,364.37,2.91,508.60
3309800,283.28,679.19,1.00,1,1,1,1420.36,3.11,4871.05,1357.04,3.12,2829.92,1152.85,3.08,7295.93,803.07,3.02,5830.28,377.68,2.95,1401.74
3324100,264.79,679.39,1.00,1,1,1,1292.99,3.13,9147.02,912.20,3.06,31418.45,709.78,3.01,31318.39,529.70,3.01,19122.51,384.76,2.98,865.06
3338400,257.27,681.25,1.00,1,1,1,541.64,2.90,54257.28,226.12,2.47,51419.40,329.65,2.85,27130.93,370.29,2.96,11239.99,336.87,2.95,3409.40
3359800,258.46,684.40,1.00,1,1,1,157.48,1.21,27182.24,194.81,0.61,15791.48,150.08,0.64,20390.12,94.31,2.64,13194.38,266.39,2.90,3368.44
3374100,262.97,685.24,1.00,1,1,1,320.31,0.18,19153.43,497.85,0.05,24381.16,350.61,0.19,15727.90,146.10,0.20,15853.51,149.63,2.70,8641.29
3388000,272.49,685.11,1.00,1,1,1,684.87,-0.01,27061.36,573.99,0.02,5611.05,428.99,0.02,7451.88,293.21,0.10,10683.07,55.26,1.14,11454.51
3402800,279.44,685.56,1.00,1,1,1,470.67,0.06,14773.33,390.50,-0.01,12425.86,522.56,-0.05,6674.11,381.12,0.08,5952.30,194.44,0.27,11084.76
3438100,292.05,684.98,1.00,1,1,1,357.66,-0.05,3445.68,493.95,-0.10,3133.77,430.99,-0.05,2594.22,459.03,0.05,2235.10,328.40,0.17,3868.31
3452100,303.68,683.22,1.00,1,1,1,839.96,-0.15,34691.50,502.55,-0.10,683.69,406.82,0.01,2405.81,523.59,0.06,4615.75,457.72,0.11,9353.68
3467000,306.49,683.47,1.00,1,1,1,189.77,0.09,44091.56,299.97,0.24,16294.05,496.10,0.09,6434.08,519.66,0.06,310.32,537.16,0.10,5351.82
3488300,314.22,685.82,1.00,1,1,1,379.22,0.30,9278.25,504.11,0.24,9584.17,532.31,0.18,2841.91,597.07,0.07,3640.66,599.96,0.09,2961.68
3502600,323.93,687.71,1.00,1,1,1,691.82,0.19,22176.23,815.56,0.15,22123.44,612.27,0.14,5835.35,691.91,0.09,6695.57,615.87,0.08,1147.63
3518100,338.24,689.51,1.00,1,1,1,930.58,0.12,15789.90,703.47,0.08,8056.29,801.95,0.10,12338.84,736.08,0.10,2873.34,591.35,0.07,1631.49
3546400,354.65,690.16,1.00,1,1,1,580.07,0.04,12581.45,794.79,0.07,3231.13,825.57,0.09,894.67,730.71,0.10,191.15,548.32,0.07,1520.38
3568200,377.96,692.42,1.00,3,3,3,1074.25,0.10,22762.80,931.13,0.10,6342.83,881.56,0.06,2803.23,789.81,0.09,2723.69,525.06,0.07,1067.40
3597100,401.62,694.87,1.00,1,1,1,823.17,0.10,8690.57,981.58,0.05,2318.18,824.69,0.08,2003.83,745.60,0.10,1537.65,446.60,0.08,2717.74
3611700,420.59,694.72,1.00,1,1,1,1299.61,-0.01,33570.23,717.39,0.04,18103.11,779.46,0.08,3109.61,645.91,0.08,6872.80,375.12,0.09,4910.17
3647100,437.45,696.46,1.00,1,1,1,478.83,0.10,23317.71,602.26,0.12,3540.51,649.36,0.11,3707.36,575.91,0.08,1977.24,365.32,0.11,322.40
3661100,450.13,698.27,1.00,1,1,1,914.74,0.14,31190.14,537.78,0.25,6943.66,388.44,0.12,18649.08,449.29,0.08,9046.10,385.45,0.11,1439.47
3675600,452.31,700.22,1.00,1,1,1,201.66,0.73,52080.07,95.93,0.16,30502.18,185.17,0.11,14023.21,198.66,0.04,17297.47,401.53,0.11,1109.57
3697200,453.55,698.83,1.00,1,1,1,86.22,-0.84,10162.35,110.99,-2.46,9252.81,28.42,-2.85,9867.44,24.12,-0.06,8086.51,384.44,0.13,919.50
3711200,449.26,697.72,1.00,1,1,1,316.79,-2.89,26017.60,187.21,-2.93,7312.69,252.84,-2.94,16040.38,95.26,-3.13,8524.20,384.23,0.18,1162.66
3725400,448.38,697.74,1.00,1,1,1,61.47,3.12,18188.49,382.95,-3.05,13960.91,373.61,-2.99,8584.06,101.03,3.11,532.09,316.56,0.22,4867.54
3754300,432.82,696.23,1.00,1,1,1,541.12,-3.04,16615.20,478.34,-3.01,3367.27,322.74,-3.09,2077.80,14.79,2.54,3076.78,206.86,0.31,3876.90
3775700,424.54,694.49,1.00,1,1,1,395.09,-2.94,7222.77,251.02,3.14,10865.34,161.12,3.06,7696.68,73.70,0.75,3655.04,97.89,0.67,5634.54
3790100,423.83,696.28,1.00,1,1,1,133.50,1.95,27414.28,405.06,0.37,44798.00,282.24,0.29,30307.43,180.34,0.53,7605.61,65.80,1.98,7160.61
3805000,435.60,698.80,1.00,1,1,1,807.86,0.21,56410.61,916.40,0.19,35103.58,589.32,0.30,20616.22,190.16,0.58,918.60,149.88,2.83,7841.73
3819800,450.56,701.43,1.00,1,1,1,1025.98,0.17,14910.31,739.92,0.28,12819.82,761.42,0.30,11632.48,230.08,0.55,2738.82,233.84,3.02,6186.97
3841100,461.31,706.06,1.00,1,1,1,549.50,0.41,23810.94,643.35,0.42,6609.42,588.88,0.38,8472.53,189.41,0.77,2841.98,318.86,3.07,4045.24
3855900,471.73,710.98,1.00,1,1,1,778.67,0.44,15563.37,417.32,0.60,16484.78,204.52,0.86,28260.57,128.39,1.24,6421.72,342.82,3.10,1703.65
3870300,471.36,712.95,1.00,1,1,1,139.05,1.76,52469.35,254.52,2.90,42782.88,235.10,2.73,24635.53,199.71,2.70,15629.09,356.30,3.11,1043.96
3898800,461.14,713.64,1.00,1,1,1,359.41,3.07,12327.60,543.20,3.12,10550.57,535.73,3.08,11377.22,427.27,3.03,8695.59,317.05,3.10,1387.21
3920200,444.26,713.48,1.00,2,2,2,788.87,-3.13,20160.78,883.21,3.14,15896.23,695.31,-3.13,7766.28,657.56,-3.14,11112.24,262.00,3.06,2625.03
3934200,429.87,713.77,1.00,2,2,2,1027.66,3.12,17164.42,874.79,-3.11,2270.77,942.15,-3.08,17856.69,765.20,-3.08,8237.56,203.82,3.05,4163.87
3962600,407.18,712.33,1.00,3,3,3,800.51,-3.08,8428.38,985.70,-3.04,4478.53,1106.99,-3.05,5924.72,778.18,-3.05,798.47,180.21,3.06,836.04
3984400,380.63,708.92,1.00,1,1,1,1228.12,-3.01,19832.36,1382.23,-3.00,18306.49,964.63,-3.02,6712.36,774.06,-3.04,689.75,194.37,3.11,801.62
3998800,357.61,705.52,1.00,1,1,1,1615.70,-2.99,26981.95,940.66,-2.98,30707.59,871.66,-2.99,6737.72,633.52,-3.01,9819.62,262.96,-3.06,5081.34
4026900,341.14,702.67,1.00,1,1,1,594.84,-2.97,36339.33,498.78,-2.95,15747.36,592.83,-2.95,9963.25,433.87,-2.97,7151.20,422.56,-2.98,5754.35
4048300,333.37,700.82,1.00,1,1,1,373.14,-2.91,10449.99,180.76,-2.75,15129.01,161.88,-2.76,20336.37,188.68,-2.82,11635.44,778.18,-3.05,16742.12
4062400,335.22,700.21,1.00,1,1,1,137.78,-0.32,35145.69,442.10,-0.00,43458.33,335.15,-0.03,34595.46,81.09,-0.53,17699.10,774.06,-3.04,1066.42
4076700,345.93,700.77,1.00,1,1,1,750.19,0.05,43637.48,953.87,0.07,35939.27,730.24,0.05,27765.55,177.84,-0.25,7166.78,633.52,-3.01,9888.29
4091300,362.72,702.10,1.00,1,1,1,1153.51,0.08,27674.81,958.33,0.07,458.34,846.49,0.05,7962.92,93.13,-1.63,12623.20,433.87,-2.97,13763.62
4112700,380.33,703.32,1.00,1,1,1,825.18,0.07,15348.94,762.16,0.03,9306.20,555.15,-0.04,13933.16,730.24,0.05,34863.71,188.68,-2.82,11635.44
4128000,390.67,703.04,1.00,1,1,1,676.00,-0.03,10821.73,152.99,-1.11,46532.53,323.33,-2.62,55317.36,846.49,0.05,7598.60,81.09,-0.53,16310.93
4142400,382.37,699.25,1.00,1,1,1,633.60,-2.71,88608.41,1214.96,-2.87,87082.01,152.99,-1.11,24289.17,555.15,-0.04,20706.22,177.84,-0.25,7117.01
4170900,340.40,689.28,1.00,1,1,1,1513.66,-2.91,31589.13,1513.66,-2.91,10603.35,1214.96,-2.87,43999.33,323.33,-2.62,29696.69,93.13,-1.63,6466.62
