@RELATION gaze_labels

%@METADATA width_px 1920
%@METADATA height_px 1080
%@METADATA width_mm 540.00
%@METADATA height_mm 254.00
%@METADATA distance_mm 620.00


@ATTRIBUTE time INTEGER
@ATTRIBUTE x NUMERIC
@ATTRIBUTE y NUMERIC
@ATTRIBUTE confidence NUMERIC
@ATTRIBUTE handlabeller1 INTEGER
@ATTRIBUTE handlabeller2 INTEGER
@ATTRIBUTE handlabeller_final INTEGER
@ATTRIBUTE speed_1 numeric
@ATTRIBUTE direction_1 numeric
@ATTRIBUTE acceleration_1 numeric
@ATTRIBUTE speed_2 numeric
@ATTRIBUTE direction_2 numeric
@ATTRIBUTE acceleration_2 numeric
@ATTRIBUTE speed_4 numeric
@ATTRIBUTE direction_4 numeric
@ATTRIBUTE acceleration_4 numeric
@ATTRIBUTE speed_8 numeric
@ATTRIBUTE direction_8 numeric
@ATTRIBUTE acceleration_8 numeric
@ATTRIBUTE speed_16 numeric
@ATTRIBUTE direction_16 numeric
@ATTRIBUTE acceleration_16 numeric

%The number after speed, direction denotes the step size that was used for the calculation.
%Acceleration was calculated between two adjacent samples of the already low pass filtered velocity

@DATA
0,97.72,683.38,1.00,1,1,1,0.00,0.00,0.00,1175.65,2.38,0.00,625.89,2.41,0.00,405.43,2.45,0.00,108.38,2.29,0.00
14200,85.61,694.87,1.00,1,1,1,1175.65,2.38,82792.22,625.89,2.41,38748.92,297.11,2.49,23270.28,168.31,2.54,16783.40,50.34,-0.29,10807.61
42800,77.80,701.29,1.00,1,1,1,353.49,2.45,28791.19,297.11,2.49,11553.78,405.43,2.45,3817.11,21.45,-1.31,6472.58,145.55,-0.47,3371.68
64400,73.79,703.97,1.00,1,1,1,223.23,2.55,6171.02,151.31,2.63,6892.47,168.31,2.54,11033.53,191.63,-0.65,8113.93,208.18,-0.45,2904.13
79500,72.97,704.02,1.00,1,1,1,54.65,3.07,11780.44,61.81,-1.06,13683.94,21.45,-1.31,12259.32,108.38,2.29,19773.84,226.88,-0.39,1521.19
93200,74.66,702.41,1.00,1,1,1,170.49,-0.76,15723.19,226.61,-0.67,12492.07,191.63,-0.65,12792.76,50.34,-0.29,11202.05,183.03,-0.31,3395.72
108700,78.17,699.93,1.00,1,1,1,277.19,-0.62,7166.94,322.57,-0.57,6408.56,295.47,-0.56,6823.95,145.55,-0.47,6221.29,101.37,-0.18,5401.49
123100,82.77,697.19,1.00,1,1,1,371.95,-0.54,6822.70,364.23,-0.50,3382.45,307.10,-0.49,1645.06,208.18,-0.45,4356.19,46.54,0.22,4252.31
138800,87.79,694.68,1.00,1,1,1,357.61,-0.46,1938.41,295.98,-0.42,4624.04,253.86,-0.42,3628.39,226.88,-0.39,1463.06,63.91,1.92,5326.11
159600,92.62,692.75,1.00,1,1,1,249.90,-0.38,5311.34,188.84,-0.33,5257.01,224.68,-0.33,1745.35,183.03,-0.31,2236.61,44.56,0.55,3365.90
188800,96.72,691.61,1.00,1,1,1,145.83,-0.27,3636.35,167.13,-0.19,1126.97,185.44,-0.20,1622.58,101.37,-0.18,2867.23,100.03,0.05,2217.84
202800,99.70,691.37,1.00,1,1,1,213.82,-0.08,5416.22,186.21,-0.01,2646.87,94.78,0.19,7454.83,46.54,0.22,4373.81,156.83,-0.06,4167.25
223900,103.26,691.53,1.00,1,1,1,168.51,0.05,2427.58,78.66,1.48,9295.24,109.78,2.20,8187.13,47.31,1.02,1735.62,216.80,-0.07,2843.72
238600,99.97,694.17,1.00,1,1,1,286.92,2.47,29121.44,416.18,2.65,26673.03,197.06,2.53,6789.45,67.86,1.15,1486.78,254.90,-0.09,2602.95
253100,92.57,697.32,1.00,1,1,1,554.40,2.74,19925.33,404.14,2.74,2893.75,231.85,2.48,2513.57,103.89,0.84,3087.02,262.61,-0.07,593.14
267200,89.31,698.65,1.00,1,1,1,249.62,2.75,21617.81,101.30,1.88,24602.71,128.23,2.00,9349.10,143.47,0.42,4537.16,247.00,-0.04,1274.88
288300,91.48,700.71,1.00,1,1,1,141.73,0.76,15815.78,221.94,0.39,11219.64,191.64,0.36,11283.05,227.53,0.22,4346.82,240.83,-0.02,368.66
302400,96.55,701.60,1.00,1,1,1,364.74,0.17,18350.83,352.26,0.13,10595.31,317.49,0.08,10208.50,327.36,0.03,7953.14,231.51,0.04,1125.62
331800,106.68,702.63,1.00,1,1,1,346.59,0.10,1082.12,375.72,-0.02,1973.94,497.49,-0.03,6283.77,393.11,-0.05,2437.08,227.27,0.08,379.18
368600,121.41,701.09,1.00,1,1,1,402.44,-0.10,2570.57,625.88,-0.10,6882.13,586.78,-0.11,2675.05,408.90,-0.06,444.09,234.72,0.08,204.51
383100,138.62,699.35,1.00,2,2,2,1192.96,-0.10,54518.99,1080.98,-0.17,31648.42,566.42,-0.15,2407.32,430.11,-0.10,1857.77,242.20,0.08,516.36
397200,151.86,695.74,1.00,3,3,3,973.26,-0.27,20063.64,506.49,-0.22,40823.36,533.62,-0.16,2352.10,401.27,-0.09,2069.96,285.85,0.02,3262.21
432300,162.93,693.85,1.00,1,1,1,319.82,-0.17,18680.48,220.03,-0.13,8203.74,352.10,-0.22,5219.57,363.73,-0.09,1069.47,385.52,-0.02,2871.81
447100,162.74,694.26,1.00,1,1,1,30.52,2.00,22826.88,86.50,-0.20,9044.93,176.61,-0.02,12331.21,355.20,-0.08,597.60,489.40,-0.04,7033.98
460900,165.35,693.35,1.00,1,1,1,200.27,-0.34,16116.73,111.77,0.39,4573.89,77.55,0.78,9730.44,261.48,-0.05,6832.06,564.57,-0.05,5465.72
475300,165.65,695.47,1.00,1,1,1,148.73,1.43,18859.62,115.88,1.29,6862.49,148.36,0.29,6083.27,245.54,0.01,1513.01,592.23,-0.08,2162.19
496900,166.50,697.36,1.00,1,1,1,95.91,1.15,2896.08,177.97,0.24,7265.26,186.76,0.28,1779.22,376.36,0.01,6056.77,647.62,-0.11,2752.59
511000,171.83,696.98,1.00,1,1,1,378.39,-0.07,25313.12,304.62,0.00,9786.19,308.91,0.03,9676.02,591.57,-0.02,15300.77,694.05,-0.15,3745.50
539300,179.42,697.41,1.00,1,1,1,268.78,0.06,4133.49,407.33,-0.04,3668.91,643.65,-0.06,11905.51,728.69,-0.02,4846.33,655.13,-0.17,1484.93
560400,191.93,696.18,1.00,2,2,2,595.82,-0.10,15772.55,1049.53,-0.08,30462.70,960.79,-0.06,15030.51,812.56,-0.07,4403.13,674.51,-0.18,938.80
574800,216.56,694.40,1.00,2,2,2,1714.53,-0.07,77709.33,1913.65,-0.07,60020.77,1405.27,-0.06,30868.48,974.63,-0.12,11703.69,826.21,-0.16,10584.43
589100,246.73,692.44,1.00,3,3,3,2114.18,-0.07,27962.37,1850.23,-0.05,4840.92,1476.36,-0.10,5839.41,1032.07,-0.17,5358.75,885.05,-0.16,4123.86
603200,269.03,691.60,1.00,3,3,3,1582.87,-0.04,37849.02,1130.01,-0.13,51701.88,1370.54,-0.16,9652.67,1086.09,-0.20,4566.25,966.21,-0.15,5855.11
625200,287.17,687.09,1.00,1,1,1,849.55,-0.24,35048.87,1020.91,-0.30,9471.11,1131.86,-0.28,13074.07,1168.54,-0.22,3866.70,1064.05,-0.13,4515.23
640300,305.25,680.52,1.00,1,1,1,1274.04,-0.35,29031.58,1170.33,-0.47,15858.15,855.69,-0.39,19518.09,1280.09,-0.21,7495.16,1267.09,-0.11,13556.40
654200,317.45,671.77,1.00,1,1,1,1080.22,-0.62,26864.04,720.21,-0.50,32461.96,937.93,-0.39,5916.66,1157.23,-0.23,9020.09,1376.51,-0.09,7964.25
682900,332.14,665.74,1.00,1,1,1,553.06,-0.39,19395.77,806.27,-0.32,5644.69,1207.10,-0.26,10576.60,1178.51,-0.22,896.56,1548.87,-0.08,6036.98
703900,355.46,659.09,1.00,1,1,1,1155.18,-0.28,28987.13,1832.90,-0.14,49987.22,1177.20,-0.19,4076.96,1285.13,-0.16,5931.11,1663.72,-0.08,5493.56
718200,396.19,656.60,1.00,2,2,2,2853.15,-0.06,121878.47,1620.82,-0.11,15214.38,1496.57,-0.12,23158.72,1512.46,-0.10,17048.58,1669.93,-0.07,600.02
746700,424.39,651.22,1.00,2,2,2,1007.29,-0.19,65208.87,1261.88,-0.11,12600.46,1607.54,-0.05,5483.27,1656.18,-0.06,5597.16,1516.59,-0.07,5380.47
768700,459.56,649.88,1.00,3,3,3,1599.81,-0.04,28291.28,1600.99,-0.00,16833.29,1787.41,-0.01,8775.00,1961.26,-0.02,14118.48,1300.53,-0.08,9843.41
797300,505.40,651.15,1.00,1,1,1,1603.42,0.03,3690.18,2421.11,0.05,28861.05,2187.89,0.02,14178.10,2129.46,-0.00,6074.68,1184.04,-0.08,4073.01
811300,562.58,654.68,1.00,1,1,1,4092.59,0.06,177906.87,3022.99,0.04,43032.61,2476.07,0.04,20865.09,2039.43,0.00,6519.51,1042.53,-0.06,10240.01
832900,612.94,655.11,1.00,1,1,1,2331.48,0.01,81885.48,2539.60,0.04,22380.49,2884.67,0.04,18922.19,1933.54,0.03,5361.93,1010.63,-0.03,2030.64
848200,656.24,657.97,1.00,1,1,1,2835.92,0.07,34356.06,2717.18,0.04,11620.55,2399.42,0.02,31833.57,1463.56,0.04,30741.36,1134.80,-0.02,8176.42
862300,692.77,658.18,1.00,1,1,1,2590.90,0.01,20897.34,2218.05,0.00,35982.68,1557.75,0.04,59770.43,1064.15,0.04,28331.08,1340.52,0.02,15032.84
876600,719.23,658.06,1.00,1,1,1,1850.48,-0.00,51801.40,378.59,0.08,128739.24,215.68,0.01,93860.70,492.59,0.07,39995.10,1460.87,0.05,8815.00
891200,703.67,659.08,1.00,1,1,1,1067.90,3.08,199802.09,1359.62,3.14,118983.79,762.19,-3.12,66977.32,218.48,0.18,18936.03,1663.13,0.07,13965.88
912700,670.15,658.12,1.00,1,1,1,1559.92,-3.11,23573.98,1680.01,-3.11,15058.18,1079.78,3.12,14862.99,183.13,0.04,2114.85,1905.61,0.08,11328.79
927100,643.39,657.31,1.00,1,1,1,1859.32,-3.11,20793.49,846.47,3.09,58240.65,691.67,3.11,26956.95,473.41,0.15,20275.69,2008.10,0.09,7173.51
955900,633.62,659.89,1.00,1,1,1,350.63,2.88,53002.71,71.47,1.40,29803.18,156.71,0.07,29434.66,829.22,0.17,12365.42,1887.26,0.09,4232.43
977500,644.01,660.86,1.00,1,1,1,482.87,0.09,38009.17,1365.39,-0.02,62784.47,1489.07,0.09,61684.94,1405.16,0.12,26804.67,1937.83,0.10,2405.45
991700,682.50,659.02,1.00,1,1,1,2713.53,-0.05,157497.28,4118.72,0.06,194355.63,3184.02,0.09,119362.83,2353.24,0.10,66784.55,1943.30,0.10,676.86
1005700,759.93,668.08,1.00,1,1,1,5568.78,0.12,208964.93,5514.27,0.12,101874.56,4251.65,0.08,76279.83,2790.96,0.10,31281.05,1729.83,0.10,15249.91
1019800,836.26,678.18,1.00,2,2,2,5460.46,0.13,9703.11,4359.44,0.10,82351.51,5073.17,0.10,58673.21,3118.54,0.10,23235.35,1663.39,0.10,4713.18
1040900,912.63,683.29,1.00,2,2,2,3627.51,0.07,87939.15,4727.59,0.09,17670.99,4101.22,0.10,46073.90,3530.24,0.09,19513.02,1710.25,0.09,2389.61
1055500,1004.40,692.73,1.00,3,3,3,6319.25,0.10,184736.85,3889.35,0.10,57565.09,3076.72,0.10,70171.57,3555.56,0.11,3358.12,1859.69,0.09,10242.89
1083800,1078.64,700.03,1.00,1,1,1,2635.77,0.10,130159.77,2159.26,0.12,61156.64,3037.75,0.11,1502.26,2739.63,0.10,28857.78,1844.54,0.08,664.86
1119700,1142.09,708.88,1.00,1,1,1,1784.40,0.14,23840.34,2305.71,0.11,4086.31,2513.35,0.11,14610.59,2334.27,0.08,11335.52,1968.04,0.07,3465.02
1133700,1192.96,713.00,1.00,1,1,1,3645.86,0.08,133374.30,3305.72,0.10,71480.11,1680.55,0.09,59579.39,1975.96,0.07,25616.16,2067.80,0.06,7273.72
1148400,1236.49,718.28,1.00,1,1,1,2983.03,0.12,45960.55,1065.27,0.03,152660.94,1394.45,0.03,20388.39,1450.55,0.06,35758.67,1957.09,0.06,7532.76
1184200,1246.73,714.66,1.00,1,1,1,303.29,-0.34,75827.14,330.59,-0.39,21655.86,746.63,-0.08,18336.18,950.97,0.03,13992.37,1744.45,0.04,6010.87
1198400,1251.78,712.00,1.00,1,1,1,402.19,-0.48,7827.22,282.19,-0.85,10340.06,244.20,-0.51,37657.21,666.24,-0.05,20591.16,1472.80,0.03,19217.93
1213200,1252.15,708.53,1.00,1,1,1,235.90,-1.47,22609.03,120.06,-1.10,11387.89,216.57,-2.42,25447.35,508.96,-0.18,11748.51,1240.65,0.02,15692.80
1227500,1253.37,708.89,1.00,2,2,2,89.38,0.29,18669.89,450.21,-2.94,34709.49,243.57,-2.62,3746.02,424.91,-0.32,7385.07,930.86,0.01,21690.88
1249500,1236.13,705.30,1.00,3,3,3,800.74,-2.94,40448.13,444.66,-2.84,2144.09,243.40,-0.57,18940.73,500.86,-0.33,3463.94,674.41,-0.03,11757.14
1263800,1237.97,704.07,1.00,1,1,1,155.18,-0.59,64061.66,1025.74,-0.18,100320.38,607.72,-0.24,26936.48,446.13,-0.32,3829.64,454.92,-0.12,15720.12
1278700,1265.60,699.97,1.00,1,1,1,1874.63,-0.15,116492.02,1424.49,-0.11,27370.90,1056.95,-0.17,30389.65,390.47,-0.29,3841.18,256.74,-0.20,13418.29
1308400,1301.13,697.21,1.00,1,1,1,1199.94,-0.08,22987.17,1077.72,-0.16,11895.86,954.60,-0.17,3446.52,332.63,-0.29,1947.56,92.82,-0.77,6253.26
1322700,1312.39,692.28,1.00,1,1,1,859.48,-0.41,33551.96,381.05,-0.45,50399.60,521.60,-0.19,30297.11,352.25,-0.26,1570.64,65.70,-1.73,5393.46
1343800,1313.27,691.32,1.00,1,1,1,61.79,-0.84,38084.32,166.95,-3.12,25365.72,39.87,-2.18,25549.77,250.95,-0.31,4866.42,50.88,-1.84,761.60
1358400,1306.43,692.17,1.00,1,1,1,471.62,3.02,35613.63,488.56,2.87,22744.60,459.03,3.12,30017.91,27.77,-0.58,15359.09,96.17,-2.60,4707.37
1372700,1299.66,695.10,1.00,1,1,1,515.90,2.73,10255.59,825.14,3.11,25777.06,629.05,3.10,11901.12,310.57,3.11,23401.24,136.13,-2.74,3010.12
1386900,1282.93,692.98,1.00,1,1,1,1187.87,-3.02,55581.78,758.37,-3.06,8045.69,477.59,3.00,11434.57,458.93,3.09,10463.11,126.42,-2.68,885.62
1408600,1272.53,692.85,1.00,2,2,2,479.23,-3.13,32895.09,287.38,2.82,23387.30,546.33,3.06,3496.65,419.45,3.05,1957.05,140.87,-2.76,825.80
1437000,1269.29,697.57,1.00,3,3,3,201.85,2.17,14208.64,392.11,2.79,3697.84,459.11,3.07,3072.56,501.87,3.13,3131.96,207.60,-2.95,2608.35
1451700,1256.65,698.62,1.00,1,1,1,862.67,3.06,51122.23,719.48,-3.08,26716.96,273.67,2.97,12828.19,486.57,-3.10,2170.87,277.07,-3.00,4823.23
1472700,1243.65,695.96,1.00,1,1,1,631.71,-2.94,14842.34,185.13,-2.98,25500.25,533.28,-3.04,13295.86,462.91,-3.07,1280.23,238.07,-3.05,1926.16
1500800,1247.67,697.17,1.00,1,1,1,149.53,0.29,27783.98,381.72,-2.99,6996.58,445.53,-2.98,3300.30,444.40,-3.07,663.31,180.34,-3.04,2055.72
1516300,1227.20,693.45,1.00,1,1,1,1342.63,-2.96,96211.62,698.71,-2.98,20452.42,474.62,-2.95,2158.80,427.59,-2.99,2509.59,125.02,-3.03,3569.22
1551300,1212.83,691.59,1.00,1,1,1,413.86,-3.01,26558.05,557.30,-2.92,4192.67,658.27,-2.95,5247.83,255.73,-2.82,5150.72,82.21,-2.97,1235.23
1565600,1200.40,687.41,1.00,1,1,1,917.51,-2.82,36204.22,588.01,-2.89,2557.92,330.53,-2.91,22967.42,72.40,-1.92,15270.98,6.86,-0.52,6126.32
1579600,1196.74,687.37,1.00,1,1,1,261.36,-3.13,48111.43,18.47,-2.26,40934.50,114.00,-0.97,27556.55,115.05,-0.77,7704.08,89.82,-0.08,5976.41
1601000,1199.98,686.91,1.00,1,1,1,152.94,-0.14,19307.26,569.37,-0.09,27105.90,619.74,-0.05,26084.21,277.55,-0.13,9234.39,165.81,-0.26,3693.76
1615200,1216.93,685.56,1.00,1,1,1,1197.30,-0.08,73569.91,1411.69,-0.04,59399.63,975.55,-0.03,25097.50,481.26,-0.01,14684.12,267.89,-0.14,7391.81
1629200,1239.76,685.32,1.00,1,1,1,1630.77,-0.01,31708.35,1481.39,0.00,6622.68,1057.15,0.01,6572.72,588.94,0.05,8081.10,312.40,-0.07,3448.83
1643900,1259.44,685.66,1.00,2,2,2,1339.41,0.02,20021.53,786.39,0.09,47721.76,896.28,0.09,12044.68,721.29,0.03,9052.16,286.23,-0.06,1800.85
1665600,1268.26,687.91,1.00,1,1,1,419.49,0.25,43141.56,447.93,0.32,16854.87,569.60,0.14,15157.98,822.29,-0.02,4991.19,261.27,-0.03,1214.31
1680000,1274.77,690.82,1.00,1,1,1,494.83,0.42,7523.00,391.15,0.23,4733.52,520.34,0.12,3538.78,840.82,0.01,2257.91,242.24,0.07,2235.07
1709200,1284.85,691.88,1.00,1,1,1,347.19,0.10,6752.07,592.28,-0.01,7943.86,633.55,-0.06,5314.90,675.08,0.04,5708.76,162.08,0.29,3119.51
1723900,1300.77,690.67,1.00,1,1,1,1085.96,-0.08,50815.60,955.68,-0.21,26830.51,799.86,-0.06,11318.70,489.20,0.09,12824.02,54.68,1.13,8963.20
1745500,1318.78,684.64,1.00,1,1,1,879.24,-0.32,14685.72,1056.78,-0.09,7167.35,812.46,-0.06,586.44,247.15,0.10,11206.02,124.47,2.64,6165.72
1759600,1338.33,687.15,1.00,1,1,1,1398.02,0.13,50856.27,671.74,0.22,33191.60,451.24,0.05,26017.53,47.74,0.94,15484.22,288.81,2.96,12388.85
1774200,1337.58,688.92,1.00,1,1,1,131.76,1.97,98587.84,341.59,2.61,65082.96,313.89,2.77,51288.41,332.04,2.95,24311.30,487.04,3.05,13776.18
1788400,1329.84,692.11,1.00,1,1,1,589.67,2.75,35511.30,1245.85,3.08,67119.12,927.63,2.99,43997.02,678.62,3.03,24557.73,677.37,3.10,13570.67
1802800,1302.02,691.16,1.00,1,1,1,1933.09,-3.11,98405.24,1417.59,3.06,12077.55,1487.32,3.02,38982.17,1098.33,3.01,29159.39,777.05,3.12,7010.42
1824500,1278.84,696.39,1.00,1,1,1,1094.83,2.92,42249.88,1683.68,2.99,13136.38,1589.32,3.07,5580.95,1307.10,3.07,10112.65,838.92,3.13,2881.77
1838400,1242.75,700.11,1.00,1,1,1,2610.29,3.04,109982.05,1731.59,3.07,10493.77,1667.74,3.05,6069.63,1545.62,3.10,17392.17,947.52,3.14,7819.94
1868100,1203.52,701.61,1.00,2,2,2,1321.67,3.10,43576.06,1658.75,3.09,2713.56,1571.41,3.11,4521.83,1735.91,3.13,6680.68,961.93,3.13,605.52
1882800,1169.19,703.70,1.00,3,3,3,2340.12,3.08,69336.65,1435.30,3.14,15966.25,1589.85,-3.14,4615.77,1624.38,3.14,7591.69,953.48,3.09,2131.09
1918800,1130.75,701.77,1.00,1,1,1,1068.95,-3.09,35646.85,1532.95,-3.09,3637.67,1890.19,-3.09,8598.90,1630.99,-3.13,849.19,929.74,3.12,877.39
1932900,1092.51,699.36,1.00,1,1,1,2717.73,-3.08,116944.58,2708.64,-3.05,83576.84,1595.86,-3.06,21245.00,1453.97,-3.11,12710.76,920.05,3.13,895.71
1947200,1054.18,694.40,1.00,1,1,1,2702.60,-3.01,12542.20,1686.04,-3.03,71544.47,1725.38,-3.06,9061.19,1252.34,-3.10,14113.45,911.34,3.13,617.89
1968400,1033.02,692.75,1.00,1,1,1,1001.18,-3.06,80353.26,939.93,-3.11,35468.14,1256.48,-3.06,22117.67,827.66,-3.09,20041.93,912.92,3.13,161.15
1982700,1020.84,693.18,1.00,1,1,1,852.60,3.11,12700.35,731.19,3.13,14884.86,464.86,3.12,55600.49,513.11,-3.04,22138.23,994.80,-3.11,6445.93
1997200,1011.97,693.03,1.00,1,1,1,611.92,-3.13,16794.47,140.81,0.46,59241.44,208.99,0.36,45751.20,229.96,-2.96,19613.90,952.19,-3.07,3917.22
2011200,1024.44,694.95,1.00,1,1,1,901.25,0.15,107841.06,961.79,0.13,59258.54,477.22,0.03,20605.79,39.54,2.83,13998.75,912.12,-3.03,3968.26
2032400,1045.53,697.50,1.00,1,1,1,1001.96,0.12,4968.77,678.02,-0.02,14655.02,614.69,0.01,6500.58,91.32,3.02,2499.53,777.90,-2.98,6589.95
2061000,1058.19,694.12,1.00,1,1,1,458.35,-0.26,21014.93,352.30,-0.27,12146.26,280.91,0.05,11688.09,291.85,-2.98,7193.83,633.30,-2.94,5171.81
2075700,1060.22,693.39,1.00,1,1,1,146.44,-0.34,21270.01,273.59,2.93,42558.10,323.98,-3.02,41122.32,399.60,-2.90,7546.13,445.74,-2.89,12885.11
2097100,1048.54,696.19,1.00,2,2,2,561.37,2.91,33042.84,1116.59,3.12,39691.38,1225.48,-3.04,42133.48,597.70,-2.88,9275.82,315.62,-2.87,6090.36
2111700,1020.03,694.32,1.00,3,3,3,1956.56,-3.08,97953.87,2462.93,-3.00,94069.38,1634.65,-3.01,28236.27,737.05,-2.85,9595.51,231.80,-2.87,5740.94
2125300,979.77,686.44,1.00,1,1,1,3016.58,-2.95,81192.26,2331.42,-2.91,18348.76,1770.18,-2.92,14766.44,757.22,-2.87,1760.09,203.32,-2.90,2179.53
2139600,956.69,679.53,1.00,1,1,1,1684.89,-2.85,94397.53,1240.20,-2.80,77531.10,1257.53,-2.80,37936.22,634.28,-2.87,8601.57,267.15,-2.99,4674.94
2161100,937.98,671.44,1.00,1,1,1,947.95,-2.73,34959.16,477.25,-2.37,38550.46,424.65,-2.45,40494.64,585.78,-2.83,2442.32,443.85,-3.01,8225.55
2175500,944.37,667.61,1.00,1,1,1,517.29,-0.54,91575.12,403.79,-0.36,51687.07,148.16,-1.34,26627.13,368.29,-2.78,15202.51,647.54,-3.04,14175.95
2203700,954.05,665.30,1.00,1,1,1,352.81,-0.23,7423.39,248.35,-0.16,5978.10,248.89,-0.14,8478.88,134.18,-2.77,8301.85,930.35,-3.05,10040.16
2239700,960.12,665.10,1.00,1,1,1,168.64,-0.03,5294.40,148.28,0.41,4075.72,244.31,0.28,2847.95,164.79,3.12,1800.56,1151.16,-3.06,6134.20
2254100,960.91,668.27,1.00,1,1,1,226.82,1.33,17544.57,373.90,0.97,18109.19,130.89,1.31,14496.50,321.26,3.05,10927.60,1377.13,-3.04,15786.90
2268200,966.13,673.90,1.00,1,1,1,544.54,0.82,25728.65,207.50,1.91,21480.78,462.97,2.71,32627.03,594.91,3.06,19414.32,1448.15,-3.03,5139.81
2303300,957.47,677.88,1.00,2,2,2,271.61,2.71,19375.03,796.16,2.98,20501.02,1006.10,3.04,16696.84,1099.26,3.12,14425.76,1415.89,-3.04,983.18
2317500,927.38,680.11,1.00,2,2,2,2125.15,3.07,131907.91,2624.50,-3.12,130017.34,1502.59,3.13,35849.74,1769.91,-3.14,47306.90,1298.12,-3.04,8322.42
2331500,883.47,676.50,1.00,3,3,3,3146.56,-3.06,78436.54,2511.65,-3.09,9879.61,2877.16,-3.09,98615.54,2269.89,-3.09,36187.36,1238.09,-3.06,4444.86
2352600,839.33,675.73,1.00,1,1,1,2092.56,-3.12,50563.75,3079.90,-3.07,27030.87,3432.63,-3.07,26661.24,2588.96,-3.06,15553.54,1149.94,-3.07,4246.65
2366900,774.69,669.17,1.00,1,1,1,4543.17,-3.04,172316.68,4572.66,-3.05,104617.99,3804.95,-3.05,26489.94,3189.68,-3.05,42087.85,1102.49,-3.08,3546.92
2381000,710.03,663.57,1.00,1,1,1,4602.82,-3.06,6419.27,4689.60,-3.02,11400.39,4001.23,-3.02,15972.23,2703.72,-3.03,34640.00,1007.75,-3.09,6722.12
2396000,639.17,653.16,1.00,1,1,1,4775.21,-3.00,21883.59,3566.88,-2.99,75463.56,3497.96,-3.02,33558.69,2330.06,-3.03,24939.21,841.96,-3.08,11053.99
2418100,579.25,643.43,1.00,1,1,1,2746.92,-2.98,91811.32,2545.67,-3.00,46244.31,2129.07,-2.99,62004.55,1839.65,-3.01,22244.41,675.21,-3.08,7545.39
2432400,547.41,640.27,1.00,1,1,1,2237.50,-3.04,37228.08,888.64,-3.00,115876.65,1135.74,-2.97,69499.28,1114.19,-3.00,50746.58,630.64,-3.07,3202.32
2461100,541.39,638.22,1.00,1,1,1,221.48,-2.81,70471.83,84.36,-0.71,32991.89,62.80,-2.56,37576.34,278.68,-2.78,29402.44,420.25,-3.06,7333.20
2475500,550.17,637.92,1.00,1,1,1,610.13,-0.03,57006.84,927.87,0.07,60408.37,860.80,0.08,63648.67,566.46,0.02,57943.92,251.07,-3.10,11780.82
2497500,575.07,640.69,1.00,2,2,2,1138.95,0.11,24658.76,1821.74,0.12,40740.01,2029.63,0.09,53128.45,1323.16,0.10,34553.23,191.42,-3.13,2735.79
2511500,615.25,646.02,1.00,3,3,3,2894.92,0.13,125455.17,3446.86,0.09,116237.71,2660.04,0.10,45070.13,1659.18,0.10,24004.16,139.07,3.05,3930.30
2525800,672.23,649.47,1.00,1,1,1,3991.44,0.06,78533.41,3724.01,0.08,19520.11,3028.73,0.11,25965.33,2108.33,0.12,31461.76,78.50,2.72,4854.79
2539900,720.67,654.56,1.00,1,1,1,3454.60,0.10,39812.66,2700.53,0.14,73627.62,2628.05,0.11,28417.50,1819.45,0.13,20610.65,70.43,2.00,3772.86
2561700,768.28,662.59,1.00,1,1,1,2214.96,0.17,57410.74,1786.01,0.16,42043.77,2188.73,0.15,20539.24,1549.28,0.16,12585.21,113.99,2.31,2383.57
2576700,785.52,665.26,1.00,1,1,1,1162.69,0.15,70164.66,1558.21,0.18,15252.58,1149.54,0.20,69525.95,754.62,0.23,53180.98,214.93,2.76,8146.18
2590800,812.92,670.54,1.00,1,1,1,1979.47,0.19,58057.29,615.37,0.30,67447.40,289.36,0.64,63539.47,180.02,0.98,45055.74,390.86,2.94,13034.72
2620200,811.06,673.26,1.00,1,1,1,112.16,2.17,68937.10,634.74,2.97,41335.69,567.04,2.99,27127.05,576.89,2.94,22683.33,552.08,3.02,5621.37
2635000,785.27,675.28,1.00,2,2,2,1747.91,3.06,113501.92,1541.88,-3.14,62343.15,1317.10,3.12,51213.41,1336.37,3.11,52273.65,715.47,3.07,11258.47
2671100,732.58,673.21,1.00,3,3,3,1460.74,-3.10,9507.49,1922.08,-3.12,10571.67,2276.29,-3.14,26599.81,1883.07,-3.14,15207.02,831.34,3.11,3320.68
2685500,688.23,673.36,1.00,1,1,1,3080.17,3.14,112636.43,3587.93,-3.14,115712.63,2677.63,-3.11,28192.32,2404.15,-3.12,36357.33,928.36,3.13,6841.03
2699600,630.33,672.63,1.00,1,1,1,4106.71,-3.13,72915.20,3761.76,-3.11,14419.45,3832.78,-3.11,81939.43,2924.13,-3.10,36951.31,1000.69,-3.13,5297.22
2720700,555.89,668.81,1.00,1,1,1,3532.40,-3.09,28101.82,4030.91,-3.09,13357.13,4008.55,-3.09,8758.81,2861.56,-3.09,3374.99,1159.65,-3.11,7647.71
2735200,487.05,664.62,1.00,1,1,1,4756.43,-3.08,84457.54,4308.15,-3.08,19322.27,3732.15,-3.08,19494.33,2779.03,-3.09,5815.28,1317.73,-3.09,10948.33
2749800,430.79,660.60,1.00,1,1,1,3863.06,-3.07,61269.44,3356.84,-3.06,65244.36,3135.01,-3.06,41012.00,2084.57,-3.07,47625.38,1727.58,-3.08,28110.39
2763500,392.34,657.18,1.00,1,1,1,2817.61,-3.05,76423.17,1958.85,-3.04,102161.30,1734.57,-3.04,102312.39,1471.31,-3.05,44871.13,2924.13,-3.10,87417.74
2778800,374.30,654.66,1.00,1,1,1,1190.91,-3.00,106488.73,471.57,-2.90,97580.91,512.14,-2.93,80155.99,971.31,-3.01,32814.63,2861.56,-3.09,4654.39
2799700,375.76,653.12,1.00,2,2,2,102.00,-0.81,59948.38,351.48,-0.13,38703.80,227.26,-0.28,34477.70,699.41,-2.96,13141.97,2779.03,-3.09,4034.52
2828200,391.50,652.33,1.00,3,3,3,552.94,-0.05,16993.39,712.28,-0.04,12770.50,514.66,-0.10,10323.80,981.91,-2.99,9937.32,2084.57,-3.07,24397.56
2849300,411.07,651.73,1.00,1,1,1,927.58,-0.03,17767.68,740.35,-0.07,1810.38,183.47,-0.46,16555.67,227.26,-0.28,56470.15,1471.31,-3.05,29134.34
2864000,417.93,650.35,1.00,1,1,1,476.60,-0.20,31612.83,794.81,-2.92,103292.06,1552.31,-3.01,116128.68,514.66,-0.10,20015.52,971.31,-3.01,34154.00
2878200,388.66,646.70,1.00,1,1,1,2077.80,-3.02,178467.01,4376.31,-3.05,252789.36,794.81,-2.92,53763.21,183.47,-0.46,24600.33,699.41,-2.96,19342.77
2892900,291.99,638.75,1.00,1,1,1,6598.01,-3.06,307679.79,6598.01,-3.06,151178.30,4376.31,-3.05,244191.08,1552.31,-3.01,116128.68,981.91,-2.99,19266.24
