@RELATION gaze_labels

%@METADATA width_px 1920
%@METADATA height_px 1080
%@METADATA width_mm 540.00
%@METADATA height_mm 254.00
%@METADATA distance_mm 620.00


@ATTRIBUTE time INTEGER
@ATTRIBUTE x NUMERIC
@ATTRIBUTE y NUMERIC
@ATTRIBUTE confidence NUMERIC
@ATTRIBUTE handlabeller1 INTEGER
@ATTRIBUTE handlabeller2 INTEGER
@ATTRIBUTE handlabeller_final INTEGER
@ATTRIBUTE speed_1 numeric
@ATTRIBUTE direction_1 numeric
@ATTRIBUTE acceleration_1 numeric
@ATTRIBUTE speed_2 numeric
@ATTRIBUTE direction_2 numeric
@ATTRIBUTE acceleration_2 numeric
@ATTRIBUTE speed_4 numeric
@ATTRIBUTE direction_4 numeric
@ATTRIBUTE acceleration_4 numeric
@ATTRIBUTE speed_8 numeric
@ATTRIBUTE direction_8 numeric
@ATTRIBUTE acceleration_8 numeric
@ATTRIBUTE speed_16 numeric
@ATTRIBUTE direction_16 numeric
@ATTRIBUTE acceleration_16 numeric

%The number after speed, direction denotes the step size that was used for the calculation.
%Acceleration was calculated between two adjacent samples of the already low pass filtered velocity

@DATA
0,-22.75,685.12,1.00,1,1,1,0.00,0.00,0.00,1285.09,0.01,0.00,1154.06,0.05,0.00,524.28,0.22,0.00,139.27,0.96,0.00
28400,13.74,685.60,1.00,1,1,1,1285.09,0.01,45249.69,1154.06,0.05,4944.11,373.50,0.40,28627.79,200.56,2.08,21577.96,195.03,2.53,8435.35
43300,27.15,687.85,1.00,1,1,1,912.07,0.17,27385.59,373.50,0.40,54565.71,524.28,0.22,11487.81,484.51,2.77,23680.32,236.57,2.74,4064.24
64900,26.28,690.95,1.00,1,1,1,148.86,1.84,43492.01,307.30,2.53,27628.42,200.56,2.08,28371.02,626.33,2.86,7011.05,156.11,2.76,3727.63
79600,17.98,694.21,1.00,1,1,1,606.87,2.77,36110.15,678.00,2.83,26780.89,484.51,2.77,24002.50,139.27,0.96,46529.90,50.03,2.69,7227.19
94400,7.27,697.15,1.00,1,1,1,750.54,2.87,10851.42,720.42,2.89,4128.52,626.33,2.86,10232.34,195.03,2.53,16186.75,42.92,0.24,5915.91
108800,-2.39,699.46,1.00,1,1,1,689.66,2.91,4537.11,574.63,2.91,10159.21,462.28,2.89,11436.58,236.57,2.74,4205.36,122.99,-0.01,5693.68
123300,-8.89,700.99,1.00,1,1,1,460.41,2.91,15811.29,253.48,2.89,22151.91,220.01,2.88,16711.37,156.11,2.76,5552.88,196.73,-0.05,5106.10
144900,-11.26,701.71,1.00,1,1,1,114.75,2.85,16017.11,18.32,2.25,11070.53,30.97,2.39,8946.69,50.03,2.69,4918.50,163.03,0.32,3403.88
173200,-9.46,701.70,1.00,1,1,1,63.60,-0.00,6241.15,169.42,-0.08,6448.72,125.53,-0.07,5324.63,42.92,0.24,3093.83,72.80,0.88,3843.07
187000,-4.15,701.12,1.00,1,1,1,386.96,-0.11,23461.94,266.01,-0.12,7019.33,245.20,-0.18,8797.05,122.99,-0.01,5941.24,46.84,1.41,2912.19
222300,3.51,700.18,1.00,1,1,1,218.74,-0.12,4766.81,310.28,-0.23,1542.60,301.47,-0.13,1647.85,196.73,-0.05,2097.41,34.73,1.08,511.81
236800,10.90,697.64,1.00,1,1,1,538.96,-0.33,22627.70,362.19,-0.14,4100.77,256.33,-0.08,3230.55,224.93,-0.04,1956.28,74.54,0.29,3848.76
251000,13.80,698.72,1.00,1,1,1,218.03,0.36,27850.12,196.35,0.24,13648.51,305.21,-0.04,3537.83,255.76,0.00,2262.11,129.29,0.08,4126.93
272900,17.79,699.30,1.00,1,1,1,184.07,0.15,2469.00,263.13,0.07,3522.31,206.19,0.21,5357.23,231.59,0.00,1103.52,170.79,-0.00,1970.65
287300,23.34,699.36,1.00,2,2,2,384.88,0.01,14169.43,218.66,0.18,3611.55,209.27,0.23,305.47,210.86,-0.02,1463.02,200.56,-0.06,2211.42
301800,24.01,700.43,1.00,3,3,3,87.50,1.01,23825.94,154.45,0.57,6626.71,199.08,0.16,1142.63,199.29,0.10,1869.03,187.84,-0.08,909.94
316000,27.06,701.76,1.00,1,1,1,234.33,0.41,11937.74,179.98,0.14,5343.41,117.44,0.05,5869.17,223.67,0.04,1938.47,127.30,-0.13,4298.44
331300,29.27,701.17,1.00,1,1,1,149.08,-0.26,9758.65,120.43,-0.47,6958.89,195.40,0.01,5109.82,227.80,0.00,700.71,70.22,-0.20,3754.91
352700,31.01,699.76,1.00,1,1,1,104.68,-0.68,3215.97,205.80,-0.05,5019.41,240.27,-0.09,2319.88,204.96,-0.08,1333.63,33.64,-0.88,2284.24
381200,39.52,700.63,1.00,1,1,1,300.48,0.10,8361.61,352.96,0.02,5215.13,251.99,-0.09,417.62,147.98,-0.16,2058.12,24.56,-1.69,853.47
395400,46.07,700.13,1.00,1,1,1,462.50,-0.08,12335.45,331.27,-0.14,4193.13,279.00,-0.12,1989.83,33.91,-1.63,10453.33,41.00,-0.98,1938.17
410500,49.14,699.31,1.00,1,1,1,210.35,-0.26,17140.98,205.37,-0.44,9795.75,101.62,-0.58,12773.67,98.67,-2.85,6135.21,106.74,-0.43,4949.68
431200,52.74,697.03,1.00,1,1,1,205.69,-0.56,3015.89,135.73,-2.65,14809.91,301.02,-2.97,18449.71,157.23,-2.84,2829.20,218.98,-0.22,5655.63
445300,44.98,697.07,1.00,1,1,1,550.32,3.14,51977.53,888.92,-3.14,54720.43,518.34,-3.07,15669.31,238.39,-2.82,5761.12,356.56,-0.14,9880.92
460400,26.78,696.87,1.00,1,1,1,1205.15,-3.13,43376.19,979.94,-3.14,6038.88,664.69,-3.05,9739.28,194.09,-2.73,3227.72,523.16,-0.11,11056.77
475200,15.68,697.07,1.00,1,1,1,750.36,3.12,30784.86,490.73,-2.93,34561.87,537.99,-2.97,9185.43,88.76,-1.83,10501.89,680.46,-0.09,10663.56
496700,9.38,693.05,1.00,1,1,1,347.30,-2.57,23219.21,230.38,-2.31,15385.44,128.60,-2.24,20915.46,236.55,-0.33,11450.04,876.02,-0.06,9164.06
511100,10.11,690.95,1.00,1,1,1,154.60,-1.24,24024.41,274.18,-0.36,29044.86,370.16,-0.34,29832.19,544.98,-0.13,22001.45,1005.50,-0.05,9014.94
539700,20.42,688.90,1.00,1,1,1,367.35,-0.20,11133.90,714.04,-0.13,15788.89,965.63,-0.10,21450.19,999.79,-0.08,15957.10,1038.90,-0.05,1168.08
561400,45.73,686.35,1.00,2,2,2,1172.53,-0.10,37217.78,1814.42,-0.05,50886.37,1297.78,-0.04,15533.65,1354.08,-0.07,16344.54,967.19,-0.07,3400.45
575300,84.94,685.85,1.00,2,2,2,2820.74,-0.01,119127.43,1988.09,-0.01,13595.30,2081.01,-0.03,56372.36,1811.59,-0.03,33153.66,972.11,-0.06,520.23
604200,130.82,685.67,1.00,3,3,3,1587.63,-0.00,42673.09,2301.09,-0.02,10855.12,2448.17,-0.02,12718.59,2018.86,-0.01,7259.70,1016.25,-0.05,1552.44
618500,184.33,684.07,1.00,1,1,1,3743.56,-0.03,150828.49,2995.55,-0.03,48638.13,2655.90,-0.01,14717.35,2262.54,-0.01,17048.92,1078.48,-0.04,4426.66
640200,238.60,682.16,1.00,1,1,1,2502.64,-0.04,57190.63,3084.29,-0.00,6115.41,3060.96,0.00,18731.76,2007.64,-0.02,11787.75,1140.71,-0.04,2870.29
654300,294.75,684.06,1.00,1,1,1,3984.14,0.03,106207.30,3148.98,0.05,11298.33,2485.55,0.01,40820.28,1720.21,-0.02,20389.58,1283.17,-0.04,10117.35
668700,328.25,686.34,1.00,1,1,1,2332.06,0.07,114952.56,1736.50,0.03,98142.24,1466.94,-0.02,70829.58,1599.72,-0.02,8379.50,1424.32,-0.04,9805.23
682900,344.39,685.38,1.00,1,1,1,1138.76,-0.06,85288.52,210.07,-0.93,114342.85,578.55,-0.11,62849.12,1166.60,-0.01,30534.34,1639.22,-0.04,15142.81
704400,332.76,680.35,1.00,1,1,1,589.44,-2.73,78417.62,379.26,-2.73,22046.10,156.84,-0.50,20335.74,897.46,-0.01,12518.16,1753.60,-0.04,5319.95
718900,331.89,679.90,1.00,1,1,1,67.75,-2.67,35989.99,157.37,0.26,36919.80,100.80,-0.28,4296.52,706.60,-0.06,13456.57,1702.87,-0.05,3594.13
733200,337.14,681.51,1.00,1,1,1,384.37,0.30,31554.87,471.40,0.16,22042.04,440.29,0.03,24175.96,780.89,-0.10,5573.88,1652.30,-0.06,3710.83
762300,352.08,683.17,1.00,1,1,1,516.60,0.11,5374.59,602.40,-0.00,5397.65,811.38,-0.02,12803.33,1028.05,-0.11,8499.14,1432.52,-0.07,7592.74
784300,367.92,681.44,1.00,2,2,2,724.30,-0.11,11226.49,1230.68,-0.11,28859.88,1290.59,-0.06,21835.38,1491.51,-0.07,21169.71,1345.70,-0.08,3967.05
798700,396.62,678.31,1.00,2,2,2,2004.32,-0.11,88890.56,2480.88,-0.08,86887.57,2147.21,-0.10,59652.05,1686.69,-0.07,13558.20,1075.02,-0.11,18996.24
813900,441.12,675.55,1.00,3,3,3,2933.62,-0.06,61594.38,3278.30,-0.09,52490.78,2938.28,-0.09,52056.18,1696.55,-0.09,1713.13,934.59,-0.14,9457.65
828200,492.94,669.66,1.00,3,3,3,3646.90,-0.11,51240.46,3411.83,-0.10,9426.90,2752.94,-0.09,12961.31,1667.76,-0.11,3756.39,840.65,-0.16,6695.14
842500,538.26,666.29,1.00,1,1,1,3178.04,-0.07,34067.29,2323.63,-0.09,76116.73,2116.36,-0.10,44590.53,1759.78,-0.11,6435.44,872.62,-0.15,2386.52
864300,576.51,662.42,1.00,1,1,1,1763.50,-0.10,64951.30,1369.55,-0.12,43828.95,1349.67,-0.13,35232.03,1374.28,-0.13,17750.75,865.52,-0.16,484.62
892100,605.74,658.47,1.00,1,1,1,1060.96,-0.13,25324.78,795.90,-0.20,20901.48,1068.24,-0.15,10161.15,1061.21,-0.17,11368.71,782.29,-0.18,3087.93
927400,625.69,652.24,1.00,1,1,1,592.04,-0.30,13808.32,768.11,-0.21,818.23,579.57,-0.26,14059.84,690.39,-0.23,10614.18,697.76,-0.21,2452.29
941500,642.82,650.41,1.00,1,1,1,1221.71,-0.11,46183.55,312.44,-0.45,33303.23,260.95,-0.61,24508.31,407.50,-0.38,20804.34,623.39,-0.21,5281.30
977200,639.73,645.53,1.00,1,1,1,161.72,-2.14,36452.06,341.01,-2.74,16671.12,220.24,-2.46,10809.65,211.32,-0.79,6420.44,544.88,-0.22,2200.03
991700,627.09,643.65,1.00,1,1,1,881.10,-2.99,54132.51,971.42,-2.99,44648.58,488.46,-2.85,20479.89,186.13,-2.29,18744.59,379.77,-0.32,11866.23
1005800,612.25,641.40,1.00,1,1,1,1064.30,-2.99,12994.26,751.02,-2.95,15877.72,670.78,-2.92,13184.69,353.35,-2.86,15636.84,303.78,-0.34,5403.89
1020700,605.72,639.42,1.00,1,1,1,457.83,-2.85,41257.37,384.76,-2.73,25791.98,653.80,-2.95,1703.88,528.34,-3.01,12592.92,319.40,-0.28,1721.51
1034900,601.99,636.92,1.00,1,1,1,316.50,-2.55,12730.90,574.60,-2.94,15146.33,508.82,-3.02,10651.38,548.78,-3.08,3034.87,425.18,-0.15,8091.16
1056300,585.66,635.43,1.00,1,1,1,766.29,-3.05,23908.93,593.90,-3.13,5090.62,579.73,3.14,4601.23,487.19,-3.04,3054.94,532.06,-0.11,5098.56
1084900,572.30,636.53,1.00,1,1,1,468.81,3.06,11019.56,600.95,2.98,3667.10,473.73,3.03,4190.15,191.23,-2.98,10367.36,674.21,-0.06,5085.22
1099600,559.98,639.64,1.00,1,1,1,864.01,2.89,27802.39,304.56,2.61,22843.40,358.19,3.10,8118.15,219.06,-0.03,27779.54,846.11,-0.02,11813.25
1114400,564.56,641.10,1.00,1,1,1,325.02,0.31,77891.50,115.96,-2.32,20389.81,196.27,0.04,37438.78,742.28,0.05,35422.18,1129.29,0.01,19244.64
1136100,557.10,636.54,1.00,1,1,1,403.25,-2.59,33324.60,588.44,-0.20,30264.26,1194.53,-0.02,46018.72,1270.63,0.03,24360.76,1239.11,0.01,5069.35
1149900,585.05,637.01,1.00,1,1,1,2025.56,0.02,172598.13,2849.13,0.02,165108.08,2240.30,0.01,75827.25,1776.58,0.02,36690.37,1372.42,0.02,9662.01
1164200,637.14,638.35,1.00,1,1,1,3643.95,0.03,113186.82,4293.87,0.04,101120.51,3284.92,0.02,73101.69,2345.87,0.01,39812.36,1342.19,0.02,2191.92
1178700,708.61,641.97,1.00,2,2,2,4935.46,0.05,89361.81,3621.35,0.02,46733.95,3068.70,0.02,14948.23,2725.35,0.02,26177.52,1396.91,0.03,3955.48
1200600,768.93,640.86,1.00,2,2,2,2754.82,-0.02,100244.87,2374.22,-0.01,57074.16,3278.50,0.02,9640.55,2815.36,0.03,4282.16,1470.77,0.04,3412.11
1229400,828.98,640.83,1.00,1,1,1,2084.97,-0.00,23305.45,2990.99,0.03,21683.77,3115.88,0.02,5647.62,2792.30,0.02,844.10,1491.21,0.04,776.96
1244000,898.69,644.40,1.00,1,1,1,4781.18,0.05,185010.48,4408.15,0.06,97321.38,2491.54,0.03,42796.12,2238.86,0.03,37907.66,1430.63,0.03,4150.19
1258600,957.50,647.98,1.00,1,1,1,4035.22,0.06,51176.86,2058.98,0.04,160933.35,2514.40,0.03,1597.55,1922.01,0.03,21709.64,1408.43,0.04,1619.16
1294100,1001.76,648.54,1.00,1,1,1,1247.04,0.01,78599.15,1405.59,-0.00,18523.32,1409.25,0.03,31131.92,1639.11,0.05,8031.45,1553.01,0.06,4142.25
1308400,1027.50,647.75,1.00,1,1,1,1800.29,-0.03,38958.05,757.27,0.00,45340.42,962.48,0.04,31262.33,1229.07,0.06,28695.16,1517.16,0.06,2516.51
1344000,1039.55,648.70,1.00,1,1,1,339.70,0.08,41098.41,523.52,0.17,7212.92,622.32,0.13,9735.37,628.61,0.10,16897.85,1296.68,0.07,6198.30
1358000,1053.08,652.22,1.00,1,1,1,998.11,0.25,47593.70,429.13,0.53,13836.86,99.08,2.47,49626.02,255.69,0.26,27001.27,999.78,0.07,21208.28
1372300,1050.02,654.86,1.00,1,1,1,282.37,2.43,82625.00,1117.09,3.13,104965.31,598.84,2.98,35992.31,180.40,0.64,7751.12,842.34,0.10,11130.22
1386300,1021.46,652.56,1.00,1,1,1,2046.26,-3.06,132780.19,1344.11,3.14,16235.15,860.86,3.03,18869.83,148.95,0.92,4014.13,685.52,0.13,11329.29
1408400,1001.50,654.95,1.00,1,1,1,909.91,3.02,52864.39,671.10,2.89,32297.20,454.97,2.83,19193.81,132.92,1.84,5704.49,391.46,0.18,13362.22
1422400,998.01,658.62,1.00,1,1,1,361.90,2.33,48014.37,815.34,0.40,100593.49,348.02,0.57,51954.60,186.48,2.67,9772.61,151.40,0.34,17378.58
1436200,1022.36,663.81,1.00,1,1,1,1804.22,0.21,146164.25,1519.09,0.14,55134.23,552.41,0.29,17221.93,146.83,2.58,3051.96,67.47,2.45,14119.69
1450500,1040.27,664.62,1.00,1,1,1,1253.78,0.05,42191.50,357.08,0.10,81290.95,409.93,0.18,10640.57,144.44,0.75,16134.50,168.09,2.89,7741.13
1471700,1034.98,665.04,1.00,3,3,3,250.52,3.06,70881.43,216.65,-3.12,27045.62,129.81,0.21,13218.31,131.14,0.62,1085.03,303.13,3.05,6597.45
1500400,1029.46,664.36,1.00,1,1,1,193.56,-3.02,2514.07,65.59,2.80,5472.93,47.69,2.42,5672.58,40.89,0.99,3288.15,405.68,3.14,3725.95
1514700,1032.32,665.98,1.00,1,1,1,229.34,0.52,29008.30,235.37,0.36,20184.75,232.78,3.11,13849.77,248.80,-3.06,19288.01,412.81,-3.13,764.88
1535600,1037.21,667.29,1.00,1,1,1,242.56,0.26,2922.51,438.98,-3.12,31835.84,439.33,-3.11,9934.35,403.20,-3.07,7389.08,411.05,-3.14,278.15
1550300,1016.69,665.69,1.00,1,1,1,1400.27,-3.06,111519.18,1240.71,-3.04,54712.21,709.27,-3.03,18634.82,520.73,-3.04,8040.54,377.47,-3.12,2357.00
1564800,1001.18,663.50,1.00,1,1,1,1080.16,-3.00,22705.83,1047.14,-2.98,14124.95,889.15,-3.02,12422.72,617.40,-3.03,6679.06,423.29,-3.08,3308.79
1579100,986.94,660.78,1.00,1,1,1,1014.26,-2.95,5800.91,602.20,-2.98,31114.78,811.55,-3.00,5519.52,666.40,-3.02,3434.86,513.30,-3.07,6300.57
1600500,979.96,660.04,1.00,1,1,1,327.61,-3.04,32164.09,675.55,-3.02,3601.15,733.42,-3.00,3652.00,899.73,-3.04,10916.01,544.23,-3.10,1621.85
1628900,953.55,656.61,1.00,1,1,1,937.79,-3.01,21490.14,806.34,-3.00,4620.40,638.96,-3.02,3373.11,778.87,-3.04,4257.21,565.78,-3.10,760.02
1664800,928.61,652.87,1.00,0,0,0,702.42,-2.99,6570.79,603.10,-3.02,5673.37,907.24,-3.05,7504.43,778.78,-3.05,176.58,578.48,-3.09,383.17
1679700,923.13,652.95,1.00,1,1,1,367.85,3.13,23136.21,1127.30,-3.13,35654.35,752.79,-3.08,10476.81,724.26,-3.08,3958.24,570.75,-3.08,682.96
1695000,894.57,652.36,1.00,1,1,1,1867.07,-3.12,98007.18,929.63,-3.12,12922.38,838.57,-3.11,5798.59,667.40,-3.12,4242.28,587.32,-3.08,1100.62
1723200,882.70,652.18,1.00,1,1,1,421.01,-3.13,51279.03,661.96,-3.09,9540.55,836.33,-3.14,892.99,612.46,3.13,2074.66,503.16,-3.08,2988.83
1744300,861.99,650.61,1.00,1,1,1,984.65,-3.07,26777.42,721.04,3.12,3695.44,387.26,2.95,21913.86,537.58,3.11,3596.53,500.84,-3.07,342.38
1758300,857.40,652.69,1.00,1,1,1,359.80,2.72,49372.07,281.38,1.19,61583.69,417.60,2.92,2314.94,464.24,3.11,5238.37,456.12,-3.09,3241.58
1772800,864.99,658.05,1.00,1,1,1,640.52,0.61,60628.16,184.71,1.72,10617.96,186.06,2.71,16467.84,241.03,3.04,15457.26,487.44,-3.09,2162.41
1787200,856.61,657.97,1.00,1,1,1,581.74,-3.13,81028.10,389.33,-2.97,30185.87,42.92,1.88,11144.70,140.91,2.87,7296.58,464.13,-3.09,1621.23
1809300,850.98,655.63,1.00,1,1,1,275.76,-2.75,15485.68,72.90,-1.59,17297.73,79.45,-2.66,4377.52,118.41,3.02,1319.73,412.69,-3.08,2328.30
1823200,856.56,655.35,1.00,1,1,1,401.60,-0.05,47571.69,339.64,0.00,25110.50,134.37,-0.11,14751.76,123.11,3.14,1133.22,365.86,-3.08,3368.69
1837200,860.46,655.67,1.00,1,1,1,279.55,0.08,9272.90,308.98,0.19,4819.36,81.04,-2.51,14402.21,273.82,-2.99,10951.86,229.08,-3.06,9778.69
1851800,865.24,657.01,1.00,1,1,1,340.00,0.27,5809.91,382.86,-2.92,47379.17,215.83,-2.99,10179.90,306.73,-2.94,2475.17,195.71,-3.05,2293.46
1873900,846.76,652.54,1.00,3,3,3,860.20,-2.90,54300.22,511.81,-2.98,5949.99,435.30,-3.04,9955.29,293.86,-2.91,667.50,103.23,-3.07,4186.96
1902500,839.65,652.71,1.00,1,1,1,248.82,3.12,21792.05,484.25,-3.12,2679.32,658.45,-2.99,7855.39,273.40,-2.93,725.01,105.27,-3.08,73.15
1916700,826.04,652.07,1.00,1,1,1,959.29,-3.09,50094.86,912.35,-3.00,30640.87,473.28,-2.97,13063.93,224.67,-2.88,3520.66,167.04,-2.99,4417.09
1931800,813.18,648.99,1.00,1,1,1,875.99,-2.91,12619.98,474.50,-2.79,30446.35,344.63,-2.88,8854.14,256.64,-2.88,2118.12,134.29,-2.99,2169.66
1953200,809.79,646.08,1.00,1,1,1,208.74,-2.43,32572.15,149.03,-0.41,27644.20,87.51,-1.00,17780.38,93.84,-2.85,7610.61,221.48,-3.06,4113.22
1967400,818.05,646.90,1.00,1,1,1,584.56,0.10,53865.80,681.84,0.06,38942.95,258.13,-0.10,15135.27,87.94,-2.98,957.83,249.35,3.11,2771.28
1981600,829.12,647.29,1.00,1,1,1,779.78,0.04,14072.00,408.08,0.04,19296.82,380.87,0.11,9763.13,60.05,-3.02,1972.74,339.89,3.11,6376.41
1995700,829.59,647.36,1.00,1,1,1,33.93,0.14,52911.58,141.35,0.28,19347.61,127.13,0.40,18552.31,22.10,0.82,5548.72,433.79,-3.12,6810.37
2016900,833.91,648.67,1.00,1,1,1,213.03,0.29,8469.37,82.73,2.18,8756.83,155.24,2.83,12503.99,162.57,2.98,8292.44,463.22,-3.10,1432.17
2045600,827.22,650.74,1.00,1,1,1,244.17,2.84,15236.82,382.47,3.00,11545.74,145.64,2.84,339.89,243.30,2.85,2965.74,583.49,-3.04,4330.57
2060300,817.48,651.02,1.00,2,2,2,662.67,3.11,29416.85,230.89,3.06,10391.87,530.08,3.11,26638.80,458.35,2.98,14934.89,608.36,-2.97,3445.12
2095900,815.64,651.65,1.00,1,1,1,54.65,2.81,17154.38,662.44,-3.11,12178.26,587.44,2.98,2573.41,603.51,3.07,4287.00,608.76,-2.94,495.89
2109900,784.64,650.11,1.00,1,1,1,2217.30,-3.09,154759.30,1218.41,2.96,41958.04,763.88,3.01,12659.10,799.09,-3.13,14564.11,636.25,-2.96,2059.47
2124400,781.50,658.00,1.00,1,1,1,585.19,1.95,144999.02,968.88,2.82,20010.09,1389.80,3.11,43742.68,1075.77,-3.05,19790.95,618.53,-3.04,3919.75
2138900,757.97,658.95,1.00,1,1,1,1624.37,3.10,102457.96,1572.84,-3.07,53476.89,1180.84,-3.11,15621.06,1104.89,-2.97,6438.74,606.84,3.08,7000.89
2154800,733.83,654.35,1.00,1,1,1,1545.71,-2.95,23328.06,1421.38,-2.92,16813.30,1696.13,-2.95,35412.43,1318.10,-2.93,13710.02,504.52,2.76,12817.33
2175600,707.10,647.37,1.00,1,1,1,1327.74,-2.89,11440.99,1820.62,-2.86,19779.59,1492.12,-2.82,13968.83,1159.69,-2.90,7773.92,563.89,2.42,9106.47
2189700,672.86,636.44,1.00,1,1,1,2549.31,-2.83,86919.18,1563.18,-2.74,23147.27,1317.51,-2.75,13782.52,1051.22,-2.94,8321.46,691.73,2.14,15440.84
2218900,644.88,620.73,1.00,1,1,1,1098.94,-2.63,51008.46,988.90,-2.63,20210.08,1178.57,-2.74,4820.71,772.41,3.14,11338.29,794.29,1.81,8886.31
2240900,628.77,611.55,1.00,4,4,4,842.86,-2.62,11642.75,717.25,-2.74,13022.66,520.17,-2.94,30797.41,473.05,2.33,25618.63,1055.23,1.50,17671.72
2255000,621.09,610.50,1.00,4,4,4,549.45,-3.01,27736.51,607.86,1.35,83678.35,595.51,1.53,62300.67,796.78,1.58,39342.93,1313.10,1.24,28184.55
2269000,632.44,628.23,1.00,4,4,4,1503.30,1.00,136122.39,1928.73,1.09,96503.37,1729.70,1.03,88639.60,1314.18,1.31,41633.19,1527.95,1.14,18543.42
2283400,646.35,659.11,1.00,4,4,4,2351.91,1.15,61920.43,2649.65,0.97,53394.50,2727.62,1.06,69398.82,1999.94,1.16,50711.43,1681.55,1.03,15639.29
2304400,685.21,705.77,1.00,4,4,4,2891.73,0.88,42255.78,3375.47,1.04,35813.11,3272.39,1.14,28384.35,2802.63,1.02,41152.17,1710.01,0.98,4566.69
2318500,706.42,761.23,1.00,4,4,4,4210.93,1.21,123792.75,4115.51,1.27,79564.55,3180.61,1.10,10058.08,3225.91,0.96,33274.25,1702.78,0.96,1859.52
2333200,720.81,818.83,1.00,4,4,4,4038.67,1.33,35799.55,3036.22,1.16,77723.81,3652.21,1.02,37358.88,3583.99,0.92,25992.47,1559.33,0.97,9802.56
2362700,760.05,884.25,1.00,4,4,4,2586.08,1.03,58876.42,3506.59,0.86,36651.18,3575.96,0.90,14389.02,3542.25,0.87,6021.91,1354.63,1.05,7961.58
2384600,838.37,955.45,1.00,4,4,4,4833.04,0.74,112880.83,4195.95,0.74,37601.51,3883.00,0.79,23995.27,3117.86,0.85,19557.54,1092.49,1.23,15417.76
2412600,914.29,1025.85,1.00,4,4,4,3697.74,0.75,40574.05,4363.19,0.72,6762.22,4013.27,0.70,13823.96,2591.78,0.82,19075.66,818.19,1.60,15922.50
2426700,976.23,1076.84,1.00,4,4,4,5690.23,0.69,142607.44,3776.68,0.63,49326.27,2755.90,0.66,89667.09,1859.58,0.78,52347.04,746.65,2.30,38401.80
2448900,1025.08,1106.60,1.00,4,4,4,2576.37,0.55,142368.55,1466.88,0.50,104910.46,1497.10,0.57,57220.45,827.75,0.83,46563.70,1011.55,2.86,24647.14
2478200,1042.42,1113.25,1.00,4,4,4,634.06,0.37,66757.51,420.40,-2.14,63052.69,491.44,-2.23,67171.46,647.49,-2.82,48756.17,1520.60,-3.13,21305.34
2492800,1015.09,1091.08,1.00,4,4,4,2410.59,-2.46,206835.03,3884.54,-2.50,239307.82,2619.49,-2.53,147514.99,2350.07,-2.64,117693.10,1837.97,-2.97,28234.80
2507300,951.84,1045.63,1.00,4,4,4,5371.53,-2.52,204721.19,5319.68,-2.56,100936.12,5431.52,-2.58,194408.84,3885.24,-2.63,105884.79,2154.21,-2.88,25543.17
2529100,853.36,985.57,1.00,4,4,4,5291.23,-2.59,18758.36,6675.76,-2.62,63875.35,7014.78,-2.62,73403.36,5531.47,-2.65,75644.53,2516.74,-2.81,18300.62
2543900,740.40,923.18,1.00,4,4,4,8718.96,-2.64,232447.48,9095.77,-2.66,164816.96,8091.67,-2.66,75401.23,7320.24,-2.67,121243.37,2901.47,-2.76,27262.55
2558900,613.65,859.04,1.00,4,4,4,9470.49,-2.67,54674.36,9878.59,-2.69,56449.46,9587.47,-2.69,102161.66,6814.79,-2.69,35096.58,3277.53,-2.72,26297.77
2573100,480.87,797.29,1.00,4,4,4,10312.48,-2.71,63636.38,10118.86,-2.73,33076.11,9482.92,-2.73,24832.28,6812.29,-2.71,10796.15,3409.76,-2.69,11362.42
2587200,351.16,744.56,1.00,4,4,4,9930.00,-2.76,44492.85,9104.59,-2.77,77369.07,6676.76,-2.76,199652.96,6298.24,-2.73,37504.74,3600.49,-2.68,13701.55
2602400,232.10,700.98,1.00,4,4,4,8341.63,-2.79,106602.16,4733.26,-2.79,287698.87,5759.40,-2.78,61224.02,5408.76,-2.75,58941.13,3741.84,-2.68,9299.60
2637200,128.92,663.22,1.00,4,4,4,3157.20,-2.79,148977.85,3751.68,-2.80,28222.08,4073.44,-2.80,48480.52,4239.08,-2.77,33709.57,3620.55,-2.69,3609.03
2651200,59.69,639.38,1.00,1,1,1,5229.96,-2.81,148159.15,3141.75,-2.81,43612.19,2603.78,-2.81,105008.47,2943.29,-2.78,92611.12,3169.28,-2.71,32476.25
2672600,23.88,626.66,1.00,1,1,1,1775.69,-2.80,161420.51,1048.87,-2.85,97865.01,1302.69,-2.85,60901.53,1752.46,-2.80,55663.20,2767.96,-2.74,19078.62
2687200,23.53,628.50,1.00,1,1,1,128.07,1.76,123268.71,914.47,0.47,133972.82,445.58,0.36,119696.10,774.17,-2.79,67006.62,2199.46,-2.76,39081.50
2702100,47.99,638.78,1.00,1,1,1,1780.20,0.40,117985.32,2305.93,0.32,94442.41,1664.97,0.35,81841.88,49.75,-2.98,48678.79,1705.67,-2.78,33246.87
2716100,86.77,649.53,1.00,1,1,1,2874.71,0.27,80837.27,2451.23,0.30,11002.78,1624.19,0.32,4250.83,482.16,0.37,37924.97,1188.07,-2.79,37021.60
2730600,114.74,659.39,1.00,2,2,2,2045.11,0.34,58347.80,1073.85,0.32,95010.30,1217.75,0.30,28070.56,752.60,0.42,18780.81,688.08,-2.80,34482.32
2751900,123.30,661.49,1.00,3,3,3,414.20,0.24,76685.25,233.22,0.34,39470.37,512.38,0.38,33236.03,711.44,0.41,1985.40,242.05,-2.74,20974.69
2766300,122.58,662.17,1.00,1,1,1,68.43,2.39,31608.82,72.85,1.27,13798.63,165.30,0.98,26939.79,595.10,0.40,8092.37,167.68,0.08,28092.09
2794800,124.22,664.48,1.00,1,1,1,99.41,0.96,3952.76,180.27,1.57,3951.58,132.21,1.30,2005.68,399.53,0.42,6874.35,469.48,0.18,10629.51
2816500,122.59,671.22,1.00,1,1,1,319.28,1.81,12192.23,182.78,1.31,2168.38,189.46,0.84,4252.22,235.30,0.36,7627.53,681.97,0.18,9792.47
2845200,126.59,673.38,1.00,1,1,1,158.44,0.50,11076.86,289.21,0.34,8361.56,289.20,0.50,4424.70,258.00,0.24,1263.00,776.13,0.14,3416.82
2859800,134.41,675.36,1.00,1,1,1,552.46,0.25,27454.64,615.47,0.12,23194.32,360.70,0.06,10838.05,329.26,0.09,5739.08,760.86,0.10,2258.87
2874300,144.37,675.56,1.00,1,1,1,686.85,0.02,13369.36,469.05,-0.14,13987.00,553.25,-0.05,13751.78,473.88,-0.00,10298.85,638.26,0.08,8553.67
2895900,151.18,672.99,1.00,1,1,1,336.89,-0.36,18260.36,519.01,-0.22,2889.10,571.78,-0.18,3269.69,659.73,-0.08,8804.40,512.37,0.04,5907.86
2911700,163.33,671.39,1.00,2,2,2,775.62,-0.13,28742.69,656.44,-0.20,8730.38,706.61,-0.20,8595.30,899.25,-0.09,15182.26,478.06,0.05,2225.83
2939900,179.51,667.36,1.00,1,1,1,591.28,-0.24,7079.85,870.62,-0.19,7595.15,961.13,-0.13,9285.50,989.47,-0.09,3199.57,446.22,0.06,1138.98
2954500,199.90,664.24,1.00,1,1,1,1412.82,-0.15,56562.69,1336.62,-0.08,32909.65,1193.96,-0.11,16007.48,938.40,-0.08,3530.87,471.47,0.06,1738.78
2975900,227.45,663.30,1.00,1,1,1,1288.48,-0.03,9435.00,1591.30,-0.05,12121.72,1515.08,-0.05,15395.26,848.43,-0.06,4320.70,546.67,0.04,3546.92
2989900,256.16,661.38,1.00,1,1,1,2054.73,-0.07,54863.99,1745.44,-0.02,11552.47,1238.63,-0.00,20363.31,732.46,-0.02,8607.43,676.70,0.04,9288.60
3004000,276.49,662.25,1.00,1,1,1,1443.41,0.04,45372.80,811.68,0.12,67241.00,714.28,0.05,37346.59,588.76,0.05,10625.14,759.70,0.04,5888.77
3018600,279.29,664.09,1.00,1,1,1,229.77,0.58,85735.98,133.63,2.38,61815.75,216.47,0.62,37269.64,470.87,0.12,8556.16,833.21,0.03,5045.16
3039800,273.04,665.56,1.00,1,1,1,303.00,2.91,23124.35,367.08,2.72,11580.68,201.08,2.54,16176.05,433.13,0.23,2892.10,918.12,0.02,4011.02
3053900,267.46,669.38,1.00,1,1,1,479.30,2.54,15962.73,259.70,2.61,7969.79,150.11,2.38,4109.93,474.86,0.29,3567.66,1017.21,0.02,7056.19
3082600,263.44,671.16,1.00,1,1,1,153.39,2.73,11487.90,85.92,0.96,9753.82,238.61,0.68,10378.62,569.64,0.24,3446.18,1118.50,0.02,3529.20
3104400,269.94,672.94,1.00,1,1,1,309.26,0.27,20136.20,694.00,0.25,28959.79,694.94,0.21,22671.78,752.74,0.15,8769.80,1144.87,0.01,1227.74
3118600,287.62,677.43,1.00,1,1,1,1284.73,0.25,68700.52,1810.16,0.16,78982.37,1270.92,0.12,40998.90,980.54,0.09,16566.24,1112.59,-0.00,2481.00
3133100,321.26,680.99,1.00,1,1,1,2333.06,0.11,74281.97,1750.51,0.08,10165.88,1665.73,0.08,27596.50,1252.21,0.03,19184.11,985.70,-0.01,8808.99
3162500,364.22,683.56,1.00,2,2,2,1463.87,0.06,29704.95,1589.67,0.03,6218.72,1640.27,0.02,3491.27,1574.99,0.01,11045.77,820.42,-0.05,5708.70
3184200,402.46,683.24,1.00,3,3,3,1762.26,-0.01,14638.93,1549.80,-0.04,5519.71,1737.04,-0.03,5732.70,1786.99,-0.02,9922.61,633.59,-0.10,8795.00
3212700,441.95,680.12,1.00,1,1,1,1389.75,-0.08,13637.20,1920.79,-0.09,13252.96,1871.08,-0.07,5271.37,1733.09,-0.05,2915.92,462.48,-0.19,6247.54
3226600,483.61,676.30,1.00,1,1,1,3009.73,-0.09,116559.45,2325.16,-0.09,29093.40,1924.33,-0.10,5769.23,1469.65,-0.10,19817.69,266.81,-0.44,15373.05
3248300,524.41,672.88,1.00,1,1,1,1886.69,-0.08,51759.93,1928.90,-0.11,18431.58,1879.38,-0.14,4116.88,1135.59,-0.20,16519.56,129.80,-1.19,8908.15
3262600,552.61,668.46,1.00,1,1,1,1995.99,-0.16,12402.25,1357.96,-0.24,42570.13,1112.70,-0.26,55107.08,568.40,-0.49,42886.25,151.03,-2.26,10144.19
3278100,563.68,663.11,1.00,1,1,1,793.23,-0.45,81160.91,384.83,-1.40,80825.73,382.88,-1.57,69552.13,398.07,-2.22,47893.14,146.87,-2.44,1721.99
3292700,554.59,657.05,1.00,1,1,1,748.23,-2.55,91676.21,1451.82,-2.83,99361.98,1233.09,-2.84,80648.24,1139.20,-2.86,58507.92,1469.65,-0.10,107889.97
3306500,524.39,650.60,1.00,1,1,1,2237.86,-2.93,113562.68,2245.62,-2.98,60765.95,2391.28,-2.98,85806.74,1791.13,-2.99,48999.41,1135.59,-0.20,25976.42
3328700,474.77,644.28,1.00,2,2,2,2253.45,-3.01,8501.11,3141.78,-3.04,40907.00,3337.87,-3.04,43217.81,2237.92,-3.05,20799.96,568.40,-0.49,27624.93
3342900,410.64,638.81,1.00,2,2,2,4532.27,-3.06,160752.20,4729.69,-3.07,112231.02,3049.21,-3.08,21934.91,2123.91,-3.09,11039.41,398.07,-2.22,52277.73
3357100,340.76,635.14,1.00,3,3,3,4928.36,-3.09,29927.18,2976.92,-3.11,123787.57,3170.18,-3.12,12194.91,3337.87,-3.04,86108.39,1139.20,-2.86,60156.03
3387400,278.24,634.47,1.00,1,1,1,2063.33,-3.13,94657.83,2198.78,3.11,26253.31,1934.24,3.08,41402.64,3049.21,-3.08,10279.73,1791.13,-2.99,22316.57
3402400,241.20,638.31,1.00,1,1,1,2482.48,3.04,32797.65,772.95,2.63,103626.58,2198.78,3.11,18095.14,3170.18,-3.12,11544.51,2237.92,-3.05,30783.94
3424400,253.30,648.46,1.00,1,1,1,717.92,0.70,137550.61,717.92,0.70,55763.76,772.95,2.63,70654.49,1934.24,3.08,57022.72,2123.91,-3.09,7125.44
