@RELATION gaze_labels

%@METADATA width_px 1920
%@METADATA height_px 1080
%@METADATA width_mm 540.00
%@METADATA height_mm 254.00
%@METADATA distance_mm 620.00


@ATTRIBUTE time INTEGER
@ATTRIBUTE x NUMERIC
@ATTRIBUTE y NUMERIC
@ATTRIBUTE confidence NUMERIC
@ATTRIBUTE handlabeller1 INTEGER
@ATTRIBUTE handlabeller2 INTEGER
@ATTRIBUTE handlabeller_final INTEGER
@ATTRIBUTE speed_1 numeric
@ATTRIBUTE direction_1 numeric
@ATTRIBUTE acceleration_1 numeric
@ATTRIBUTE speed_2 numeric
@ATTRIBUTE direction_2 numeric
@ATTRIBUTE acceleration_2 numeric
@ATTRIBUTE speed_4 numeric
@ATTRIBUTE direction_4 numeric
@ATTRIBUTE acceleration_4 numeric
@ATTRIBUTE speed_8 numeric
@ATTRIBUTE direction_8 numeric
@ATTRIBUTE acceleration_8 numeric
@ATTRIBUTE speed_16 numeric
@ATTRIBUTE direction_16 numeric
@ATTRIBUTE acceleration_16 numeric

%The number after speed, direction denotes the step size that was used for the calculation.
%Acceleration was calculated between two adjacent samples of the already low pass filtered velocity

@DATA
0,97.33,420.69,1.00,0,0,0,0.00,0.00,0.00,1342.74,0.19,0.00,2551.87,0.05,0.00,1796.16,-0.09,0.00,1372.29,-0.07,0.00
14900,116.99,424.40,1.00,0,0,0,1342.74,0.19,90116.84,2551.87,0.05,83002.37,2227.59,-0.12,34434.80,1857.37,-0.16,9474.55,1771.60,-0.02,27258.17
29500,172.53,424.16,1.00,1,1,1,3804.19,-0.00,171156.36,2227.59,-0.12,35142.37,1796.16,-0.09,29808.07,1961.51,-0.02,19859.57,1037.19,-0.12,51205.38
51600,198.15,414.55,1.00,1,1,1,1238.03,-0.36,121174.69,1246.51,-0.32,46828.12,1857.37,-0.16,6387.82,2001.84,-0.01,2209.22,830.58,-0.14,9368.59
66600,216.45,409.66,1.00,1,1,1,1262.60,-0.26,8352.68,1411.22,-0.24,12938.65,1961.51,-0.02,19329.98,1372.29,-0.07,42524.77,1756.80,0.22,68114.78
81600,239.26,404.42,1.00,1,1,1,1560.26,-0.23,20111.79,2973.29,0.14,116108.02,2001.84,-0.01,3254.92,1771.60,-0.02,27076.45,4607.21,0.16,190361.32
95900,302.75,421.55,1.00,1,1,1,4598.70,0.26,231035.78,2677.14,0.12,20923.23,940.24,-0.02,74250.81,1037.19,-0.12,52279.62,4223.52,0.10,33485.43
110500,316.05,413.82,1.00,1,1,1,1053.82,-0.53,269087.12,791.94,-2.66,234888.81,1723.94,0.13,55355.19,830.58,-0.14,14181.22,4132.33,0.11,6954.31
131700,277.64,408.38,1.00,1,1,1,1829.91,-3.00,129087.62,975.89,0.16,82321.40,239.45,-1.13,78607.63,1756.80,0.22,48194.42,2913.44,0.03,58878.48
147300,351.50,419.58,1.00,2,2,2,4788.65,0.15,424262.45,1032.62,-0.04,13403.48,296.85,-2.38,20427.93,4607.21,0.16,183039.73,3116.22,0.05,13554.75
162700,309.63,407.11,1.00,2,2,2,2837.03,-2.85,494057.24,1777.78,-2.77,178924.21,2668.30,0.31,190826.12,4223.52,0.10,31093.61,2476.97,0.08,41773.31
177400,301.64,400.16,1.00,3,3,3,720.33,-2.43,149754.98,4438.62,0.39,422862.31,7754.77,0.17,348832.75,4132.33,0.11,6907.00,2315.49,0.12,13334.58
192700,432.60,458.19,1.00,1,1,1,9362.23,0.42,657052.72,17254.41,0.19,845763.89,8853.76,0.12,75534.92,4523.10,0.06,28758.72,2354.03,0.08,7322.60
207500,811.77,497.64,1.00,1,1,1,25757.63,0.10,1155200.48,13511.31,0.04,297463.99,8515.74,0.13,22930.31,4527.73,0.08,5438.27,2339.25,0.08,1002.16
222500,834.96,473.04,1.00,1,1,1,2254.30,-0.81,1630327.68,1603.65,-0.44,807048.06,6349.62,-0.04,165420.45,4029.02,0.13,36315.39,1978.97,0.10,24284.61
244100,864.97,472.85,1.00,1,1,1,1389.15,-0.01,75888.26,935.53,-1.10,48351.63,1752.04,-0.29,216399.77,3678.91,0.17,18051.46,1633.37,0.09,16036.10
258500,850.13,442.97,1.00,1,1,1,2317.22,-2.03,220990.33,1975.41,-0.14,113150.22,344.35,-3.12,144610.33,2890.06,0.00,67203.26,1835.16,0.16,16348.41
274000,923.42,464.34,1.00,1,1,1,4925.20,0.28,433248.61,1601.63,2.48,223170.86,791.53,2.85,30683.65,668.65,-0.39,147443.14,1572.60,0.06,19858.72
288500,812.24,472.52,1.00,1,1,1,7687.90,3.07,856700.92,2686.44,2.93,98022.64,216.84,1.14,58571.91,224.69,0.19,34165.50,2062.33,0.12,34497.04
317500,809.27,489.39,1.00,1,1,1,590.59,1.75,260854.31,921.47,-0.29,124344.00,138.39,-2.52,11856.20,515.59,-2.93,25525.21,2032.35,0.13,1245.14
339700,857.44,458.98,1.00,1,1,1,2565.68,-0.56,134901.80,2052.89,-0.31,50975.53,614.32,0.12,33284.99,489.88,2.47,19472.84,1169.98,0.06,39166.03
370300,912.58,456.58,1.00,1,1,1,1803.76,-0.04,43860.93,552.96,1.00,64861.26,491.70,-2.17,32979.13,825.55,-3.02,19544.55,97.69,-2.85,41348.80
384400,870.70,479.84,1.00,1,1,1,3397.93,2.63,359991.81,4287.15,-3.14,326920.93,989.32,2.70,73405.07,553.47,0.08,97776.36,134.69,-3.10,3306.86
399700,786.54,455.97,1.00,1,1,1,5717.62,-2.87,267172.59,2674.36,3.01,109899.36,1960.13,-3.07,78483.74,518.90,-0.16,8431.92,316.10,-3.04,11884.29
414700,790.41,490.81,1.00,1,1,1,2337.06,1.46,463039.24,383.70,-0.70,200314.69,470.56,-0.01,161958.78,625.84,2.92,76280.36,195.48,2.64,12714.28
430200,795.46,448.39,1.00,1,1,1,2756.25,-1.45,326463.61,2993.59,-0.10,173326.06,1502.54,0.21,67673.15,1045.63,2.89,27144.32,381.04,2.95,13107.18
452400,902.69,479.43,1.00,1,1,1,5028.82,0.28,275457.82,2552.11,0.31,54381.87,350.31,-2.58,82669.25,590.18,-3.03,24206.43,135.20,-3.01,11567.24
467500,886.16,477.28,1.00,1,1,1,1104.19,-3.01,405463.95,4466.79,-3.13,460025.28,640.97,1.83,54199.38,102.90,2.51,34367.85,206.54,-0.12,22460.73
482000,770.48,478.21,1.00,1,1,1,7978.02,3.13,474890.04,3511.94,3.02,74768.07,1803.55,-3.07,124311.41,187.12,-1.09,19515.46,100.26,2.43,20359.88
496600,784.70,489.56,1.00,1,1,1,1246.38,0.67,615081.83,890.73,-0.26,301077.16,1857.40,-3.02,7006.76,338.92,1.03,31874.37,708.07,0.28,52596.80
511700,796.04,471.40,1.00,1,1,1,1418.19,-1.01,131991.60,890.13,-1.90,86131.10,532.08,-0.27,156136.80,1023.63,-3.05,83019.56,1343.38,-0.04,46821.60
527300,775.92,463.69,1.00,1,1,1,1381.46,-2.78,138496.32,185.37,-0.32,58377.95,543.86,-0.13,5064.43,162.36,2.88,55957.03,1893.48,0.01,35650.58
542400,801.45,469.61,1.00,1,1,1,1735.50,0.23,205937.93,1559.08,0.48,95113.23,341.91,-2.97,58029.93,518.72,-0.02,44881.75,1718.15,-0.05,13897.57
557400,817.51,485.43,1.00,1,1,1,1502.62,0.78,60435.24,764.44,-3.06,152158.68,1363.69,0.21,113698.26,2349.93,0.06,122219.25,1646.16,0.05,12907.59
579400,773.25,467.35,1.00,2,2,2,2173.00,-2.75,164017.66,1299.52,-0.06,93603.69,533.96,0.20,37717.16,3259.21,-0.01,42217.36,1331.60,-0.01,15009.35
594900,866.16,482.55,1.00,2,2,2,6073.35,0.16,529398.01,2100.50,0.14,56044.54,3983.23,0.08,222810.42,3870.05,-0.01,39450.60,1287.97,-0.02,2816.67
610000,836.86,476.62,1.00,3,3,3,1979.63,-2.94,533240.87,7345.03,0.11,347457.83,7289.07,-0.00,220808.56,3107.50,-0.01,50507.01,1602.46,-0.02,20841.87
625000,1085.98,506.16,1.00,1,1,1,16724.33,0.12,1246537.92,12644.57,-0.03,363885.52,6735.83,-0.05,43623.56,2891.15,-0.03,14966.70,1652.88,-0.05,4586.21
639800,1213.51,465.82,1.00,1,1,1,9038.21,-0.31,626251.96,6328.61,-0.24,445574.36,5241.64,-0.03,101540.70,3418.00,0.01,36766.01,1645.70,0.01,6772.82
654900,1269.73,460.99,1.00,1,1,1,3736.83,-0.09,361184.56,1007.49,-0.01,354504.13,2044.30,-0.20,215038.98,2464.24,-0.03,63690.81,1628.08,0.01,1182.39
691900,1266.00,465.32,1.00,1,1,1,154.43,2.28,104022.28,415.75,2.57,37241.55,598.89,0.17,40584.76,2484.33,-0.02,620.49,1411.37,-0.00,5863.69
707500,1251.29,472.74,1.00,1,1,1,1056.35,2.67,58688.36,314.71,1.96,15394.81,214.48,2.61,49669.53,1114.98,-0.24,90709.18,879.92,0.13,35291.63
722500,1262.32,474.22,1.00,1,1,1,742.30,0.13,114714.57,30.62,-1.10,23015.52,510.82,3.09,22416.32,341.92,0.17,54210.48,960.60,2.92,120857.78
751500,1251.90,471.54,1.00,1,1,1,371.09,-2.89,38333.04,792.13,-2.94,27619.12,129.32,-0.99,20558.74,114.04,2.84,15393.51,1274.58,3.02,11440.77
767300,1227.53,467.22,1.00,1,1,1,1566.30,-2.97,75735.75,269.72,-0.97,58905.74,59.34,0.20,7618.60,370.24,3.07,16479.94,803.56,3.07,30011.79
782500,1256.60,464.63,1.00,1,1,1,1920.21,-0.09,227395.53,1314.14,0.20,81220.21,72.90,-1.59,6801.68,1308.82,2.89,62254.59,1861.99,-3.05,70869.82
797700,1266.70,475.09,1.00,2,2,2,956.43,0.80,99691.22,139.73,2.76,94263.53,212.74,3.00,15349.16,5370.67,3.07,269040.85,2199.14,3.10,28922.40
819600,1251.80,466.58,1.00,2,2,2,783.53,-2.62,78657.84,1464.14,-3.03,61312.93,2896.48,2.86,122644.47,5863.89,3.07,22551.67,2396.93,3.08,9139.44
834300,1213.43,469.28,1.00,3,3,3,2616.82,3.07,136947.96,6388.08,2.86,344441.80,11574.03,3.07,596312.50,4887.64,3.10,67527.71,2463.60,3.10,5143.84
848900,1071.90,518.24,1.00,1,1,1,10257.26,2.81,531504.41,24276.62,3.06,1236856.65,12602.74,3.06,71239.77,5507.51,-3.13,46486.73,2483.80,3.12,3695.76
863500,506.88,526.69,1.00,1,1,1,38704.43,3.13,1995809.54,18836.15,3.13,385008.06,10144.32,3.10,171596.38,5191.45,3.11,26147.74,2624.02,3.13,9747.33
878900,506.88,526.69,1.00,1,1,1,0.00,0.00,2513274.52,3554.13,-0.33,1444612.45,8576.50,-3.02,140276.58,5390.32,3.09,15198.93,2615.18,3.12,1934.63
893900,609.26,492.17,1.00,1,1,1,7203.05,-0.33,480203.05,2927.23,-0.93,135588.37,1085.22,-0.46,633413.21,4825.93,3.10,37805.38,2626.96,3.07,8759.03
909100,559.41,455.59,1.00,1,1,1,4067.60,-2.51,664832.01,971.79,3.09,238169.85,1089.95,-0.37,6832.02,3844.12,-3.08,70825.62,2573.12,3.10,6369.16
931400,572.86,493.88,1.00,1,1,1,1819.94,1.23,253973.43,1312.17,1.25,82227.88,68.41,2.87,51932.14,535.64,-0.69,190548.25,2654.33,3.11,4006.03
945400,574.56,500.75,1.00,1,1,1,505.30,1.33,94127.40,1100.31,-0.02,102411.68,614.21,0.89,46005.31,544.30,-0.56,5035.89,2660.50,3.12,1091.15
960500,604.87,493.40,1.00,1,1,1,2065.77,-0.24,140680.06,554.74,-0.90,57149.70,294.70,-2.48,59843.14,510.92,2.76,69579.50,2261.53,3.13,26467.29
975800,585.05,487.55,1.00,1,1,1,1351.04,-2.85,216011.20,1562.18,-2.92,122333.68,214.03,-2.01,9318.92,355.70,0.91,45665.95,1713.26,-3.05,38195.42
990500,559.14,483.15,1.00,1,1,1,1787.50,-2.97,32242.11,446.57,3.14,76970.14,951.18,2.76,65640.27,246.94,3.09,36485.55,477.69,-0.17,148223.17
1012900,568.48,487.64,1.00,1,1,1,462.68,0.45,99811.37,993.35,1.94,41404.36,97.44,1.02,43396.32,278.16,-2.68,6156.99,308.99,-0.29,7816.69
1027500,545.84,517.41,1.00,1,1,1,2561.53,2.22,184424.39,701.63,0.27,87319.43,299.50,2.60,21661.43,226.70,-2.69,3535.98,290.06,-3.10,40486.72
1042400,588.45,493.07,1.00,1,1,1,3293.73,-0.52,385200.31,514.10,-1.91,72543.11,396.87,-2.98,17082.38,103.30,-2.19,9711.51,129.46,1.29,23683.30
1072300,538.11,495.72,1.00,1,1,1,1686.05,3.09,162514.21,1113.84,-2.94,31942.66,530.57,-0.97,26312.85,532.25,0.24,20544.25,124.88,-0.01,5154.19
1087500,539.24,483.00,1.00,1,1,1,839.71,-1.48,130686.79,860.41,-0.47,122668.03,240.17,-2.17,32720.14,179.01,0.51,23868.14,278.16,-2.68,25873.66
1117600,572.79,477.93,1.00,1,1,1,1127.39,-0.15,41076.49,706.42,-0.25,7690.94,1286.88,0.08,48166.84,224.86,-2.20,13107.62,226.70,-2.69,1715.13
1140000,575.16,473.76,1.00,1,1,1,213.78,-1.05,45057.85,2031.37,0.35,67042.18,692.24,0.33,28570.89,119.09,-3.07,7735.65,103.30,-2.19,6459.89
1155000,644.23,503.79,1.00,1,1,1,5020.99,0.41,333519.56,1110.64,1.00,88500.95,732.50,2.92,91377.99,494.76,-0.03,40886.26,532.25,0.24,40951.53
1169500,592.99,501.25,1.00,1,1,1,3538.09,-3.09,581005.11,4072.04,-3.02,335323.00,315.56,1.86,44082.92,692.24,0.33,19842.46,179.01,0.51,25020.40
1184500,525.03,488.89,1.00,1,1,1,4604.86,-2.96,79289.37,843.73,-2.75,217737.08,637.43,-2.86,47222.44,732.50,2.92,91377.99,224.86,-2.20,26302.63
1199200,569.83,491.67,1.00,1,1,1,3053.67,0.06,520119.93,2830.84,0.05,247466.66,843.73,-2.75,15134.52,315.56,1.86,43483.15,119.09,-3.07,11787.66
1213900,608.13,493.46,1.00,1,1,1,2608.18,0.05,30445.39,2608.18,0.05,15222.70,2830.84,0.05,247466.66,637.43,-2.86,48186.16,494.76,-0.03,41720.67
