@RELATION gaze_labels

%@METADATA width_px 1920
%@METADATA height_px 1080
%@METADATA width_mm 540.00
%@METADATA height_mm 254.00
%@METADATA distance_mm 620.00


@ATTRIBUTE time INTEGER
@ATTRIBUTE x NUMERIC
@ATTRIBUTE y NUMERIC
@ATTRIBUTE confidence NUMERIC
@ATTRIBUTE handlabeller1 INTEGER
@ATTRIBUTE handlabeller2 INTEGER
@ATTRIBUTE handlabeller_final INTEGER
@ATTRIBUTE speed_1 numeric
@ATTRIBUTE direction_1 numeric
@ATTRIBUTE acceleration_1 numeric
@ATTRIBUTE speed_2 numeric
@ATTRIBUTE direction_2 numeric
@ATTRIBUTE acceleration_2 numeric
@ATTRIBUTE speed_4 numeric
@ATTRIBUTE direction_4 numeric
@ATTRIBUTE acceleration_4 numeric
@ATTRIBUTE speed_8 numeric
@ATTRIBUTE direction_8 numeric
@ATTRIBUTE acceleration_8 numeric
@ATTRIBUTE speed_16 numeric
@ATTRIBUTE direction_16 numeric
@ATTRIBUTE acceleration_16 numeric

%The number after speed, direction denotes the step size that was used for the calculation.
%Acceleration was calculated between two adjacent samples of the already low pass filtered velocity

@DATA
0,85.03,515.67,1.00,4,4,4,0.00,0.00,0.00,535.37,-3.10,0.00,1733.54,-2.16,0.00,1228.27,1.65,0.00,3760.14,0.53,0.00
15200,76.90,515.32,1.00,4,4,4,535.37,-3.10,35221.45,1733.54,-2.16,97609.67,1354.31,2.47,150713.20,2337.14,0.90,109331.32,3272.97,0.52,32158.01
29200,57.04,473.49,1.00,4,4,4,3307.79,-2.01,221036.09,1354.31,2.47,163631.47,1228.27,1.65,74073.65,2794.95,0.80,37034.07,2641.84,0.67,54947.88
65900,23.21,558.12,1.00,4,4,4,2483.59,1.95,144894.00,2739.51,1.43,64368.21,2337.14,0.90,45281.64,5314.38,0.40,80432.99,1520.06,0.35,35257.35
81600,77.33,615.60,1.00,4,4,4,5028.63,0.82,291382.21,5125.72,0.60,244215.51,2794.95,0.80,33024.01,3760.14,0.53,105780.70,711.52,-0.28,65700.87
112000,217.57,692.51,1.00,4,4,4,5261.18,0.50,53412.91,3915.78,0.31,58387.01,5314.38,0.40,97101.67,3272.97,0.52,16079.00,1422.55,-1.04,34004.21
127100,246.79,670.64,1.00,4,4,4,2417.30,-0.64,317604.05,5975.16,0.14,147843.82,7326.29,0.37,133889.17,2641.84,0.67,50945.05,2019.64,-0.63,60894.68
142100,395.77,716.83,1.00,4,4,4,10398.47,0.30,612659.30,12478.62,0.40,458903.23,5260.54,0.25,146254.33,1520.06,0.35,86262.98,1724.86,-1.20,72897.06
157300,594.24,816.57,1.00,4,4,4,14613.38,0.47,307820.28,4620.80,0.41,516981.97,2504.98,0.43,186049.17,711.52,-0.28,67862.08,1452.37,0.04,122225.22
171300,519.68,770.23,1.00,4,4,4,6270.62,-2.59,1490431.01,7778.67,-2.76,885592.31,2864.22,-2.68,383448.41,1422.55,-1.04,73837.71,1188.28,-0.07,21470.61
186600,382.44,732.38,1.00,4,4,4,9304.56,-2.87,244387.73,8783.79,-2.70,73746.38,7267.61,-2.64,287981.47,2019.64,-0.63,60098.67,1384.49,0.11,19425.77
208200,226.48,632.06,1.00,4,4,4,8585.25,-2.57,129092.34,6942.48,-2.54,104143.07,4751.58,-2.31,147046.90,1724.86,-1.20,50622.96,1537.99,-0.06,13404.10
223100,174.17,588.04,1.00,4,4,4,4588.41,-2.44,273590.46,4240.61,-0.86,571708.85,3390.96,-1.26,286057.32,2270.43,-1.88,96053.39,1420.61,-0.29,24095.39
237400,307.63,538.53,1.00,4,4,4,9954.62,-0.36,898887.04,10046.18,-0.23,494017.22,4669.05,-0.44,239487.46,2247.55,-1.92,6636.64,1095.21,-0.74,44618.00
251300,450.06,523.67,1.00,1,1,1,10302.27,-0.10,184274.48,5728.77,-0.13,315238.46,5108.88,-0.17,99719.06,1738.05,-1.25,100588.93,979.73,-0.80,9663.14
266700,474.06,516.68,1.00,1,1,1,1622.89,-0.28,565596.11,1462.32,0.17,282640.37,1826.40,-0.40,218071.02,1838.77,-0.45,90643.32,832.51,-1.33,32021.94
288500,503.69,532.79,1.00,1,1,1,1546.98,0.50,55441.10,1678.49,-2.72,142965.00,137.60,-1.05,78842.32,2224.07,-0.30,22538.09,1281.62,-1.79,29783.54
303100,418.21,491.92,1.00,1,1,1,6489.80,-2.70,550349.09,1760.31,-2.81,11200.78,660.37,2.77,52891.73,936.99,-0.26,88220.60,948.95,-1.52,30431.26
318000,454.65,515.72,1.00,1,1,1,2921.02,0.58,630411.02,1444.27,1.22,194741.34,1163.34,-2.75,55103.49,330.92,-2.22,74217.11,1253.78,-0.71,61236.00
333000,433.20,532.42,1.00,1,1,1,1812.10,2.48,260370.94,587.06,-2.59,129452.77,268.91,1.37,88803.14,210.65,-2.80,12789.50,2433.71,-0.21,97222.92
348000,439.69,506.41,1.00,1,1,1,1786.76,-1.33,226802.68,904.89,-2.02,34523.93,616.83,-2.43,56390.36,429.83,-1.33,30627.08,3040.80,-0.14,42609.07
363200,421.42,507.76,1.00,1,1,1,1205.41,3.07,161055.91,650.18,-2.32,22529.00,422.88,-1.06,44300.51,807.77,0.15,57791.29,2367.12,-0.06,46761.73
385900,422.98,488.30,1.00,1,1,1,859.83,-1.49,69785.68,676.48,-0.02,53245.58,1021.82,-0.40,32391.96,1291.82,-0.10,23986.89,1406.10,-0.04,42347.43
401500,447.32,507.13,1.00,1,1,1,1972.27,0.66,163209.42,2108.29,-0.16,92355.12,1334.77,0.01,36675.73,2943.84,-0.10,105902.26,1609.08,-0.06,13062.38
431800,518.54,473.01,1.00,2,2,2,2606.11,-0.45,81275.60,1891.85,0.02,13954.18,2610.78,0.03,42132.98,3695.97,-0.07,25107.99,1483.13,-0.09,4578.70
446800,533.00,509.13,1.00,1,1,1,2593.94,1.19,253078.81,3203.25,0.17,90469.48,4891.62,-0.05,153404.16,3487.65,-0.01,19115.41,2238.82,0.01,51969.88
475800,657.56,496.20,1.00,1,1,1,4318.27,-0.10,151258.67,7615.31,-0.07,157237.32,6579.70,-0.01,58664.03,2806.23,0.04,24203.39,1849.87,-0.11,15815.98
496800,912.87,483.09,1.00,1,1,1,12173.81,-0.05,374506.96,10839.61,-0.08,153614.68,5746.43,-0.02,39703.72,3188.27,-0.03,21008.39,1685.30,-0.10,7845.12
511400,1042.23,465.51,1.00,1,1,1,8941.37,-0.14,229361.49,2691.29,0.22,568808.59,3078.43,0.05,183801.97,2835.24,0.05,29441.28,1578.31,-0.03,10865.38
526500,990.91,500.41,1.00,1,1,1,4110.27,2.54,844561.50,6565.76,2.93,601278.65,449.47,0.30,175219.58,3660.25,-0.02,56436.82,1763.85,-0.05,12387.99
540400,856.18,506.03,1.00,1,1,1,9700.80,3.10,473110.20,1851.39,-2.97,352882.76,1765.61,2.90,155596.33,2518.69,-0.11,84809.06,1699.61,-0.02,5552.70
555500,938.05,490.98,1.00,1,1,1,5512.51,-0.18,1005221.73,2040.44,-0.17,253783.45,1137.26,-0.01,191018.84,34.88,-0.18,164495.07,1615.29,-0.08,8296.92
577000,929.73,493.05,1.00,1,1,1,398.94,2.90,274918.29,3471.51,0.07,73021.81,2076.71,-0.35,49972.27,1206.33,2.96,57730.61,1650.01,0.06,10428.94
592400,1065.85,499.75,1.00,1,1,1,8849.83,0.05,599513.99,2199.33,-0.54,136215.60,341.54,-2.75,151933.79,406.57,-2.83,56408.87,1398.43,-0.12,23686.09
607500,987.10,458.29,1.00,1,1,1,5893.80,-2.66,954290.35,5109.34,-3.02,462051.98,601.59,-3.12,20433.44,455.51,-0.48,52665.58,877.62,-0.11,34496.65
621700,917.16,482.33,1.00,1,1,1,5207.78,2.81,313208.74,3458.15,2.79,179552.50,1942.62,-3.02,94741.77,274.54,-2.58,45003.97,126.24,-0.00,52971.73
636100,894.18,492.18,1.00,1,1,1,1736.38,2.74,241565.85,642.50,0.08,281369.99,1242.87,2.89,63007.03,278.78,0.18,37729.45,497.69,2.97,43228.55
657600,940.16,484.11,1.00,1,1,1,2171.21,-0.17,180549.75,572.92,-0.75,22855.15,219.55,-2.31,53748.85,1282.67,-2.93,72619.94,271.26,-3.11,11071.33
672100,909.31,478.16,1.00,1,1,1,2167.05,-2.95,294239.49,1181.58,-2.78,105197.57,1061.48,0.10,85111.18,854.36,3.01,38580.20,199.47,-0.56,31092.97
687200,907.45,471.72,1.00,1,1,1,443.61,-1.85,132790.30,1944.75,0.37,207040.31,603.82,-2.61,107902.16,217.70,0.03,70854.31,76.65,0.25,10402.08
702300,964.09,499.33,1.00,1,1,1,4172.68,0.45,296818.36,207.03,-1.31,131019.57,473.92,-2.93,14388.77,168.92,-0.22,4526.01,66.84,-2.48,9304.23
717500,909.05,465.66,1.00,1,1,1,4244.83,-2.59,553152.51,2900.47,-2.83,190509.60,644.60,0.30,73515.98,191.70,2.60,23418.19,424.05,-2.95,24068.00
732300,881.39,472.26,1.00,1,1,1,1921.30,2.91,215294.46,1325.05,0.46,284906.43,746.49,-2.89,93962.94,49.06,-2.97,10675.30,118.26,1.94,28326.59
747300,944.50,483.06,1.00,1,1,1,4268.06,0.17,405457.00,1036.39,0.41,19616.19,410.08,1.33,67033.57,400.45,0.45,29853.79,53.86,-0.68,11143.24
768700,916.02,487.22,1.00,1,1,1,1344.56,3.00,259916.96,605.47,2.64,69468.61,263.32,0.22,17592.29,323.05,-2.79,33768.37,27.87,1.50,3431.40
799200,916.97,498.21,1.00,1,1,1,361.77,1.49,44964.69,373.90,-2.50,18571.93,235.88,0.76,4462.75,238.24,0.29,18393.85,129.12,-3.00,4515.69
814200,902.43,476.98,1.00,1,1,1,1715.01,-2.17,135845.99,1431.13,-0.05,115679.51,64.30,-1.81,19479.43,583.36,0.19,23144.40,90.98,-0.65,13584.14
828100,958.28,496.22,1.00,1,1,1,4249.28,0.33,411391.75,248.44,0.33,86620.51,449.34,-0.64,30849.62,114.29,-2.54,49610.84,162.84,-0.16,6695.91
865700,914.53,481.16,1.00,1,1,1,1230.59,-2.81,145741.07,444.25,-2.13,17447.88,907.14,0.18,18137.98,160.13,2.59,4093.61,290.44,-2.63,11438.31
879900,946.14,476.67,1.00,1,1,1,2248.47,-0.14,238785.88,2063.33,0.15,167208.99,461.22,-2.46,93642.94,161.69,-2.18,15495.79,44.28,0.63,23554.60
895200,974.75,490.00,1.00,1,1,1,2062.96,0.44,81006.18,592.01,-2.91,173428.09,468.34,2.38,40265.59,214.82,-0.48,18626.05,265.93,-0.10,15345.36
909300,929.22,472.60,1.00,1,1,1,3457.09,-2.78,391263.08,2771.23,3.01,157995.94,652.99,3.09,30420.35,218.23,-1.71,17692.84,35.09,-2.25,20326.67
924300,894.76,500.20,1.00,1,1,1,2943.28,2.47,214126.32,734.98,2.90,136159.21,802.26,-2.59,30510.88,262.64,-2.36,10584.18,127.01,-0.47,9245.10
945500,903.36,478.86,1.00,1,1,1,1085.03,-1.19,185152.57,1433.24,-0.82,98458.55,393.06,-0.32,51713.06,214.65,-3.01,7521.10,333.13,-0.40,9745.00
960500,930.25,462.35,1.00,1,1,1,2103.65,-0.55,92680.11,1771.11,-0.28,60889.30,639.85,-1.65,44481.84,242.09,-2.16,12708.81,353.82,0.09,11096.54
975100,953.77,464.46,1.00,1,1,1,1617.13,0.09,86170.08,1314.72,-3.03,207502.58,282.14,-0.34,43120.26,73.24,0.28,20662.63,216.92,-2.78,38748.75
990300,891.30,458.11,1.00,1,1,1,4130.66,-3.04,378138.10,1159.82,2.89,30574.12,456.01,0.08,15135.05,478.99,-0.50,28287.45,72.60,-2.23,10500.17
1005700,919.36,473.17,1.00,1,1,1,2068.18,0.49,395694.44,2163.50,0.10,212881.80,310.42,2.54,47007.32,774.92,-0.16,23344.61,130.31,-2.47,4036.41
1021200,957.84,464.61,1.00,1,1,1,2542.98,-0.22,107558.43,621.22,0.11,99503.76,957.66,0.22,76791.94,567.83,0.32,24580.66,254.13,-2.58,8103.43
1036100,938.14,475.16,1.00,1,1,1,1499.38,2.65,268949.85,392.17,2.56,64211.72,1217.90,-0.13,30778.36,409.62,2.94,63373.54,77.03,-0.10,21387.08
1051100,948.06,471.09,1.00,1,1,1,714.80,-0.39,147442.98,1721.68,-0.19,139308.19,688.15,0.47,50256.02,115.35,0.62,33002.77,201.20,-0.60,9245.02
1073400,1001.15,462.76,1.00,1,1,1,2409.90,-0.16,77244.65,1423.85,0.27,35231.14,533.03,3.14,53290.82,134.34,-1.51,9809.72,774.92,-0.16,26848.20
1088300,999.05,485.44,1.00,1,1,1,1528.42,1.66,211734.03,3359.75,3.02,315717.36,671.46,-3.04,10096.62,304.76,-2.92,20977.47,567.83,0.32,25570.49
1103000,902.48,475.18,1.00,1,1,1,6606.04,-3.04,462603.85,3274.40,-2.95,71803.35,1369.00,-3.06,47463.27,87.88,-0.37,25916.94,409.62,2.94,64235.77
1118100,903.29,466.69,1.00,1,1,1,564.79,-1.48,438666.40,882.27,-0.82,252846.36,1425.16,-2.79,25604.76,54.84,-2.89,9023.83,115.35,0.62,32784.21
1132600,920.38,456.16,1.00,1,1,1,1384.31,-0.55,78415.00,689.78,-0.55,19396.65,595.37,-0.10,136384.46,1369.00,-3.06,90690.36,134.34,-1.51,15086.68
1147200,920.38,456.16,1.00,1,1,1,0.00,0.00,94815.86,649.66,0.45,44056.04,461.80,0.06,10829.02,1425.16,-2.79,26481.63,304.76,-2.92,21408.52
1183600,950.24,470.51,1.00,1,1,1,910.23,0.45,25006.37,463.61,0.58,5461.86,649.66,0.45,7720.24,595.37,-0.10,54328.97,87.88,-0.37,10466.46
1198300,940.25,469.06,1.00,1,1,1,686.89,-3.00,107421.63,686.89,-3.00,76519.52,463.61,0.58,13524.60,461.80,0.06,10755.36,54.84,-2.89,9269.38
