@RELATION gaze_labels

%@METADATA width_px 1920
%@METADATA height_px 1080
%@METADATA width_mm 540.00
%@METADATA height_mm 254.00
%@METADATA distance_mm 620.00


@ATTRIBUTE time INTEGER
@ATTRIBUTE x NUMERIC
@ATTRIBUTE y NUMERIC
@ATTRIBUTE confidence NUMERIC
@ATTRIBUTE handlabeller1 INTEGER
@ATTRIBUTE handlabeller2 INTEGER
@ATTRIBUTE handlabeller_final INTEGER
@ATTRIBUTE speed_1 numeric
@ATTRIBUTE direction_1 numeric
@ATTRIBUTE acceleration_1 numeric
@ATTRIBUTE speed_2 numeric
@ATTRIBUTE direction_2 numeric
@ATTRIBUTE acceleration_2 numeric
@ATTRIBUTE speed_4 numeric
@ATTRIBUTE direction_4 numeric
@ATTRIBUTE acceleration_4 numeric
@ATTRIBUTE speed_8 numeric
@ATTRIBUTE direction_8 numeric
@ATTRIBUTE acceleration_8 numeric
@ATTRIBUTE speed_16 numeric
@ATTRIBUTE direction_16 numeric
@ATTRIBUTE acceleration_16 numeric

%The number after speed, direction denotes the step size that was used for the calculation.
%Acceleration was calculated between two adjacent samples of the already low pass filtered velocity

@DATA
0,158.84,416.67,1.00,1,1,1,0.00,0.00,0.00,1841.99,-0.02,0.00,1701.30,-0.21,0.00,288.54,0.61,0.00,627.38,1.13,0.00
15000,186.47,416.12,1.00,1,1,1,1841.99,-0.02,122799.64,1701.30,-0.21,24306.28,817.14,1.21,118107.39,496.71,-2.94,51354.52,701.06,1.93,34991.71
29900,208.59,406.05,1.00,1,1,1,1631.28,-0.43,49103.04,817.14,1.21,118900.06,288.54,0.61,40400.19,694.08,1.40,66304.43,896.74,2.09,15535.76
45700,195.38,439.57,1.00,1,1,1,2280.09,1.95,230026.64,1318.71,2.61,90657.92,496.71,-2.94,48754.29,722.50,1.85,19803.40,788.09,1.74,19746.41
60900,173.29,426.67,1.00,1,1,1,1682.71,-2.61,199547.26,1630.32,-2.49,109576.73,694.08,1.40,64995.79,627.38,1.13,31893.98,1010.82,1.09,39957.36
75300,157.11,410.16,1.00,1,1,1,1605.00,-2.35,30844.40,1593.26,0.46,222774.28,722.50,1.85,21728.73,701.06,1.93,36449.70,1030.95,1.22,9202.33
90500,215.59,447.53,1.00,1,1,1,4565.33,0.57,403936.45,2508.06,1.21,114181.22,1020.48,1.27,37719.34,896.74,2.09,15229.13,1649.82,0.45,76670.32
105500,183.58,481.13,1.00,1,1,1,3093.79,2.33,398981.94,1468.93,2.14,133732.93,1334.82,1.59,32790.43,788.09,1.74,20799.56,3939.61,0.18,158966.51
120900,191.50,485.13,1.00,1,1,1,575.88,0.47,214719.67,923.83,2.57,47645.15,1290.26,2.40,67195.91,1010.82,1.09,39438.43,2000.00,0.31,128054.42
142400,155.00,499.70,1.00,1,1,1,1828.13,2.76,104701.46,1225.40,2.67,15022.15,854.29,1.65,41149.89,1030.95,1.22,6163.42,1818.21,0.30,8494.52
156500,152.55,504.79,1.00,1,1,1,399.85,2.02,110448.13,1526.37,1.01,145228.98,1029.25,0.93,48401.98,1649.82,0.45,82651.69,2127.90,0.37,23991.21
171700,178.91,537.49,1.00,1,1,1,2763.67,0.89,172155.66,2864.29,0.41,119136.16,962.85,0.62,21174.14,3939.61,0.18,156874.85,1818.41,0.30,22127.48
186700,231.74,539.60,1.00,2,2,2,3524.45,0.04,179376.58,770.51,-0.20,151812.82,3524.20,0.17,179364.24,3306.25,0.20,42351.54,1778.24,0.57,31759.15
202000,201.81,532.90,1.00,2,2,2,2004.92,-2.92,360039.32,3988.77,0.06,212421.56,7084.08,0.09,234122.74,3380.31,0.13,15040.68,1908.04,0.70,17476.57
237700,434.78,552.08,1.00,1,1,1,6548.09,0.08,239170.30,10803.16,0.10,190998.35,5379.35,0.09,47767.37,4008.29,0.19,18631.55,1913.11,0.73,1990.48
253700,757.65,587.56,1.00,1,1,1,20300.48,0.11,859750.53,7680.76,0.12,195584.04,4943.24,0.08,27834.81,3180.44,0.11,54477.77,2181.98,0.55,28656.91
268600,670.39,580.70,1.00,1,1,1,5874.48,-3.06,1756562.52,1777.48,-2.91,634201.57,4526.36,0.21,51546.50,2499.46,0.41,72358.17,2151.06,0.54,2946.20
298900,679.43,569.23,1.00,4,4,4,482.08,-0.90,203143.69,2443.93,0.41,138775.42,697.97,2.97,170928.18,2724.59,0.55,13788.13,2045.02,0.48,5386.02
313900,771.94,624.78,1.00,4,4,4,7194.36,0.54,476638.22,935.61,0.93,113282.03,1675.37,2.04,91819.91,2302.95,0.94,71230.44,1889.85,0.41,13138.83
336800,700.54,597.71,1.00,4,4,4,3334.52,-2.78,458194.19,4876.56,2.69,224076.47,3270.15,2.03,69643.24,1593.65,1.71,69983.84,1618.17,0.39,12005.00
351200,608.41,704.43,1.00,4,4,4,9790.51,2.28,638727.33,7083.34,2.18,254702.34,3585.62,2.20,46780.00,1617.14,1.31,44222.65,1885.79,0.32,20490.54
365700,582.64,765.06,1.00,4,4,4,4543.31,1.97,388765.00,3891.97,1.39,355783.58,3612.13,1.45,181661.13,1540.87,1.60,32122.74,1938.94,0.19,18026.60
381200,629.18,819.33,1.00,4,4,4,4612.55,0.86,311507.55,4829.34,0.33,290234.84,2592.94,0.69,161193.49,1227.89,2.47,77414.31,1533.87,0.12,27151.43
397000,725.76,813.70,1.00,4,4,4,6123.02,-0.06,313639.64,3309.66,-0.14,152485.76,1462.64,0.02,107921.16,1234.04,2.25,17356.14,424.19,-0.39,74820.77
411900,729.73,804.71,1.00,4,4,4,659.34,-1.15,392712.38,2318.49,-2.42,343975.83,1594.70,-1.38,132650.18,1116.83,0.04,141155.65,766.09,-0.40,22951.62
427400,672.86,767.12,1.00,4,4,4,4398.02,-2.56,279785.54,3749.50,-2.36,93084.96,2559.01,-2.44,145934.29,1686.99,-0.62,67661.93,893.84,-0.32,9269.06
442800,647.72,722.86,1.00,4,4,4,3304.87,-2.09,135420.15,2801.48,-2.46,65415.12,1577.01,-1.42,142995.32,2395.46,-0.78,50478.65,677.34,-0.84,29468.94
457700,606.81,713.79,1.00,4,4,4,2812.20,-2.92,169378.52,3224.02,-0.14,371193.00,2289.91,-0.97,74303.87,2370.05,-1.10,51196.23,751.64,-0.52,16158.32
473100,744.47,709.33,1.00,4,4,4,8943.26,-0.03,758989.02,4523.98,-0.45,114902.50,3477.14,-0.54,109871.37,2600.33,-1.16,18361.75,1417.70,-0.60,43551.57
495800,761.67,638.10,1.00,4,4,4,3228.05,-1.33,381604.66,4013.18,-0.79,66784.48,4582.23,-0.58,49377.62,2745.77,-0.88,33874.15,1513.39,-0.77,12136.45
510700,850.54,602.01,1.00,4,4,4,6437.83,-0.39,352755.80,4769.28,-0.75,52522.52,3602.46,-1.06,144987.82,2590.64,-0.76,23956.01,1564.53,-0.98,21326.72
525000,864.03,543.68,1.00,1,1,1,4187.00,-1.34,369794.52,3545.14,-1.46,219781.09,3287.16,-0.81,64560.54,2498.84,-0.68,15137.63,1291.85,-1.16,26326.90
539900,861.53,499.08,1.00,1,1,1,2997.86,-1.63,104280.15,1896.56,-0.97,139924.08,1892.80,-1.24,117437.53,1918.88,-0.88,48713.80,1184.00,-1.07,10403.11
555400,896.76,496.21,1.00,1,1,1,2280.33,-0.08,240033.56,862.85,-0.15,93404.57,618.57,-1.50,84256.55,1393.13,-0.95,34625.48,1261.92,-1.07,5038.64
570500,887.63,495.07,1.00,1,1,1,609.42,-3.02,190702.54,839.13,2.94,112673.81,795.19,-0.16,59048.25,996.66,-1.39,42968.59,1330.04,-0.63,37708.11
591800,866.86,502.45,1.00,1,1,1,1034.82,2.80,26364.92,754.92,-0.16,74818.42,333.42,-2.45,49071.72,431.65,-1.44,26583.61,1285.83,-0.72,6055.40
621900,925.93,488.88,1.00,1,1,1,2013.73,-0.23,101128.45,565.49,-1.20,22484.86,485.08,-1.76,10301.50,209.55,0.06,15516.08,953.77,-1.18,20210.83
636500,876.00,478.88,1.00,1,1,1,3488.19,-2.94,369041.50,1378.57,-2.44,89744.33,294.59,-1.35,16728.47,419.70,-2.31,40311.55,913.72,-0.81,24025.69
666500,878.86,449.33,1.00,1,1,1,989.57,-1.47,117612.73,91.00,-2.56,42940.25,394.14,2.75,20390.81,446.65,0.03,26605.48,625.70,-1.07,11627.23
681600,872.57,476.62,1.00,1,1,1,1854.37,1.80,187980.16,1446.39,1.25,100584.08,510.00,-2.23,36819.88,251.48,-1.03,25949.77,313.37,-1.22,21136.90
704200,895.90,501.13,1.00,1,1,1,1497.14,0.81,71612.40,1030.24,-2.19,108375.54,1428.72,0.53,84577.03,603.86,-2.72,30101.54,268.94,-0.55,8606.42
718400,850.56,445.76,1.00,1,1,1,5040.18,-2.26,460149.04,2274.00,-0.06,207924.12,247.96,-0.49,92807.47,489.00,-0.40,70663.76,926.65,-0.03,49806.58
732400,959.91,497.25,1.00,1,1,1,8633.36,0.44,954325.39,1505.62,0.57,98468.45,1149.77,-2.36,88882.12,443.42,-0.10,10467.72,1470.62,-0.02,38855.48
747000,886.85,468.93,1.00,1,1,1,5366.66,-2.77,958345.58,4014.91,-2.77,376641.57,1514.00,0.07,171289.31,219.47,-0.67,19513.49,1924.77,0.01,31346.29
762100,848.72,454.17,1.00,1,1,1,2707.93,-2.77,176074.89,1822.43,-0.31,367854.82,865.63,-1.97,136107.82,426.29,-0.93,14677.84,1807.05,0.04,8834.26
777300,939.49,452.26,1.00,1,1,1,5973.35,-0.02,561837.49,2391.94,-0.12,45535.18,200.02,-0.88,52147.09,2509.04,0.14,153539.14,2041.43,0.02,15747.43
799500,937.55,443.64,1.00,2,2,2,398.22,-1.79,273200.26,1184.76,3.00,161103.54,1168.27,0.05,47777.58,2782.14,-0.03,23895.35,2054.98,0.07,4964.21
814800,895.50,458.49,1.00,2,2,2,2914.88,2.80,195309.93,570.29,2.16,59607.93,3379.88,0.16,145294.27,4132.50,0.07,91500.27,2069.43,0.05,2966.30
830000,927.94,458.13,1.00,1,1,1,2134.42,-0.01,327825.47,9009.95,0.11,610708.23,6336.31,0.11,195163.47,4300.42,0.10,12875.03,2108.59,-0.04,12924.31
844900,1164.94,489.38,1.00,1,1,1,16043.24,0.13,935140.46,13309.41,0.07,290355.59,8742.48,0.10,161651.04,3727.19,0.07,39008.09,2123.07,0.05,12541.99
858900,1311.64,485.12,1.00,1,1,1,10483.07,-0.03,423899.33,8468.14,0.08,345830.19,7544.02,0.11,85807.86,3766.26,0.09,5674.05,1697.02,-0.03,32342.34
873900,1409.81,507.96,1.00,1,1,1,6719.60,0.23,289177.33,3034.09,0.23,366007.98,4108.08,-0.00,232449.80,4090.40,0.09,21637.71,1810.90,0.09,15991.08
895600,1420.05,510.54,1.00,1,1,1,486.57,0.25,287240.16,871.56,-0.62,117242.38,1471.44,0.02,121537.91,3965.41,0.04,10295.30,1597.46,0.18,12210.41
910900,1436.07,489.25,1.00,1,1,1,1741.38,-0.93,105607.13,854.41,-2.01,72182.53,68.31,-2.06,98463.00,1797.52,-0.07,142977.48,990.86,0.29,40596.16
925300,1409.31,487.54,1.00,1,1,1,1862.00,-3.08,220278.76,1081.08,2.66,97568.31,528.16,-1.40,33085.68,776.39,-0.03,70970.75,1152.83,0.29,11253.40
940500,1407.65,503.96,1.00,1,1,1,1085.38,1.67,139479.72,600.59,-0.47,110635.12,333.43,-2.40,29509.33,41.52,1.29,50487.75,1272.63,0.23,9309.30
955600,1425.55,479.33,1.00,1,1,1,2016.31,-0.94,198954.90,730.77,-1.26,35080.01,230.23,-0.33,32316.24,745.12,2.91,49557.49,1309.26,0.24,2599.35
985800,1417.64,472.40,1.00,1,1,1,348.26,-2.42,66711.85,52.47,0.86,25157.63,115.96,1.21,8413.24,1430.67,2.94,22722.71,372.23,0.48,31527.73
1008000,1427.34,481.42,1.00,2,2,2,596.62,0.75,42557.78,816.52,1.71,35264.05,1365.07,2.69,61268.67,1053.59,2.84,17962.99,297.11,2.20,22934.67
1037900,1411.66,514.52,1.00,1,1,1,1224.88,2.01,39782.42,2974.52,2.71,87833.88,2567.69,2.85,41375.91,1053.36,2.92,2981.68,617.63,3.04,15818.80
1052900,1305.84,536.87,1.00,1,1,1,7210.74,2.93,436140.39,6558.37,3.05,258061.78,2469.15,2.84,6901.53,969.54,2.69,16574.23,1284.96,2.84,45932.72
1067900,1215.81,533.26,1.00,1,1,1,6006.81,-3.10,135061.22,1830.98,3.14,315858.59,2805.49,2.99,35089.63,1144.90,2.74,12154.12,2316.68,2.71,70477.38
1083000,1250.73,537.11,1.00,1,1,1,2326.47,0.11,551602.21,1043.24,0.21,189311.00,330.30,2.68,165132.99,1283.91,2.73,9266.47,1682.71,2.43,55884.00
1097600,1246.10,539.80,1.00,1,1,1,366.58,2.62,180177.38,1274.03,0.23,15858.96,674.92,0.14,66131.36,1432.30,3.07,33662.44,2138.20,2.59,37464.20
1113100,1288.08,545.81,1.00,1,1,1,2736.05,0.14,195644.01,389.44,-0.03,58262.76,307.97,1.06,35293.13,1960.35,2.81,44399.96,2298.04,2.45,22406.65
1134900,1260.62,539.36,1.00,4,4,4,1293.94,-2.91,184704.35,783.87,2.82,53298.59,290.63,-2.41,27093.34,3494.70,2.59,75106.46,2357.95,2.53,8913.86
1149800,1260.83,555.04,1.00,4,4,4,1052.12,1.56,124470.27,1086.54,-2.74,48797.01,3445.54,2.82,222225.13,2634.48,2.22,93929.97,2752.77,2.85,61499.42
1163800,1231.77,526.96,1.00,4,4,4,2886.40,-2.37,264551.26,6756.85,2.82,427764.57,8070.38,2.65,336482.89,3516.18,2.47,82302.31,2787.60,2.89,7972.61
1179300,1071.68,617.91,1.00,4,4,4,11878.92,2.62,735878.38,15190.61,2.60,563468.86,5479.72,2.28,229262.03,3936.36,2.37,35140.17,2349.31,3.09,42849.36
1193900,840.87,764.16,1.00,4,4,4,18715.15,2.58,470802.42,6203.93,1.69,845613.72,6969.17,2.43,119051.86,3851.20,2.45,21071.89,1800.15,3.14,38415.43
1209000,1049.06,800.78,1.00,4,4,4,13999.14,0.17,2023480.22,2138.83,1.03,311853.59,5009.32,2.07,190471.01,4449.48,2.89,126766.91,1268.54,-3.08,35690.67
1230400,881.11,831.05,1.00,4,4,4,7974.46,2.96,1012103.84,4767.15,2.48,233042.81,1449.31,1.02,208857.66,4182.50,2.83,18225.00,852.43,-2.82,23252.54
1244400,915.85,904.38,1.00,4,4,4,5795.44,1.13,786688.64,585.33,0.97,340611.19,5271.30,-2.81,461175.16,2837.84,-3.02,143898.74,1224.67,-2.99,29442.57
1259500,890.76,845.09,1.00,4,4,4,4263.34,-1.97,666000.44,9756.49,-2.30,684614.63,3498.22,-2.37,170538.05,1866.67,-1.95,168212.31,587.09,-2.80,43533.17
1273700,726.39,690.31,1.00,4,4,4,15899.61,-2.39,853584.97,7515.70,-2.36,162278.62,5897.87,-2.15,183556.81,2154.42,-2.04,24507.54,697.68,-2.59,12455.05
1289000,733.69,688.61,1.00,4,4,4,489.96,-0.23,1057252.06,3209.71,-1.80,332086.52,5087.74,-2.00,76279.37,2793.20,-1.19,138550.14,431.22,-2.87,20145.30
1311900,698.32,570.95,1.00,4,4,4,5364.88,-1.86,236590.86,4135.52,-1.47,66736.96,2976.98,-0.77,215598.10,2898.55,-1.47,34200.70,532.40,-1.59,25475.79
1326700,749.93,533.55,1.00,4,4,4,4306.66,-0.63,382992.93,4709.15,-0.26,341258.85,4481.02,-0.65,106006.30,2558.19,-1.04,80802.15,1542.86,-0.80,83000.53
1357000,903.73,516.97,1.00,1,1,1,5105.30,-0.11,83796.16,6423.81,-0.24,56676.39,3651.51,-0.28,56551.02,2654.75,-0.59,39258.42,1580.29,-0.83,2362.32
1370800,1025.12,466.28,1.00,1,1,1,9532.31,-0.40,352112.33,2003.55,-0.36,321816.71,3682.15,-0.14,36504.10,2594.07,-0.48,21225.07,2426.71,-0.57,72000.48
1385800,957.74,496.67,1.00,1,1,1,4927.36,2.72,963892.10,1489.98,0.22,74487.72,2445.97,-0.35,92132.52,2472.87,-0.28,33994.41,2495.22,-0.65,14971.80
1423000,1100.97,483.49,1.00,1,1,1,3866.42,-0.09,233192.03,2690.64,-0.34,44111.64,1105.29,0.31,45927.17,2638.79,-0.21,6322.06,2297.81,-0.58,7196.23
1437900,1089.76,449.51,1.00,2,2,2,2401.57,-1.89,334873.96,494.85,0.77,168542.09,1413.24,-0.28,53039.72,3226.96,-0.12,43591.67,2621.88,-0.27,54734.07
1452900,1111.60,493.78,1.00,2,2,2,3291.32,1.11,378625.50,837.49,2.52,69692.87,1075.66,-0.63,36032.98,3052.38,-0.01,25916.74,2602.68,-0.28,2163.09
1468000,1069.29,464.23,1.00,2,2,2,3417.74,-2.53,430350.99,2108.06,-0.86,193987.67,4421.67,0.05,241343.97,3572.74,-0.07,36563.45,2773.17,-0.11,32226.21
1483200,1153.41,445.49,1.00,1,1,1,5669.44,-0.22,550462.60,9496.48,-0.01,543358.35,5797.69,-0.09,101599.94,2738.46,-0.01,55912.16,2594.93,-0.07,13948.82
1498200,1356.08,462.24,1.00,1,1,1,13557.58,0.08,554427.13,10226.72,0.05,63064.90,6238.27,-0.01,44820.02,2938.28,0.09,24024.97,2112.46,-0.07,32164.54
1513200,1459.76,462.08,1.00,1,1,1,6912.01,-0.00,446339.32,3628.24,-0.01,440554.98,4425.76,0.11,127622.93,2749.72,-0.05,29627.68,1665.63,0.04,32690.70
1535900,1492.86,461.54,1.00,1,1,1,1458.47,-0.02,240252.72,495.39,2.05,171046.11,1624.48,0.20,123851.31,3217.25,0.04,23856.19,1817.98,-0.04,8795.94
1550900,1451.19,478.67,1.00,1,1,1,3003.91,2.75,292938.68,1247.47,2.49,55175.60,217.55,1.28,102311.15,2616.27,0.11,42002.51,1416.18,-0.01,26889.24
1565600,1463.39,483.99,1.00,1,1,1,905.28,0.41,251133.65,428.75,-0.19,111704.45,364.11,2.00,16721.54,916.02,0.12,115675.88,1398.43,0.10,11519.71
1581200,1463.95,476.27,1.00,1,1,1,496.39,-1.50,74857.82,650.58,-0.11,14448.60,605.01,0.08,51670.79,211.16,0.88,49805.64,1095.78,-0.02,21716.46
1596900,1483.62,481.74,1.00,1,1,1,1300.59,0.27,94304.56,802.13,0.22,17879.71,201.05,-0.62,29846.80,377.27,2.76,30861.66,734.04,1.71,89948.46
1611800,1487.92,481.57,1.00,1,1,1,288.33,-0.04,69115.22,368.42,-2.69,78088.12,241.98,0.49,15746.70,101.14,-0.05,31809.66,1272.01,1.81,36637.34
1627400,1473.53,476.81,1.00,1,1,1,971.66,-2.82,79857.01,361.06,3.00,13836.59,554.63,-3.04,50248.64,133.34,2.96,14998.62,1814.64,2.44,70225.60
1642300,1477.02,483.18,1.00,1,1,1,487.50,1.07,91912.80,781.87,3.07,28359.93,354.43,-3.00,13517.39,571.21,2.97,29387.78,2353.57,2.37,37562.18
1657000,1450.45,478.52,1.00,1,1,1,1835.42,-2.97,147878.23,371.54,-2.76,32398.23,431.53,2.78,14364.20,3360.78,2.76,190835.52,2646.26,2.50,30116.13
1679500,1464.18,478.07,1.00,4,4,4,610.65,-0.03,108281.98,251.21,2.01,19399.77,1278.21,3.08,38877.86,3590.44,2.52,38191.52,1992.78,2.37,32215.86
1694400,1446.49,487.04,1.00,4,4,4,1331.38,2.67,127677.52,2479.01,3.00,157749.15,5469.63,2.72,288207.44,3765.06,2.58,20345.23,1372.53,2.16,47487.26
1708900,1392.07,488.67,1.00,4,4,4,3754.34,3.11,180094.90,9908.21,2.74,519958.08,6609.66,2.48,126067.11,4177.77,2.41,55365.68,1044.20,2.64,45326.21
1738900,1041.39,661.11,1.00,4,4,4,13026.29,2.68,324467.85,9516.57,2.40,108637.51,6057.00,2.58,26705.55,4311.06,2.49,11859.91,767.82,2.86,11230.69
1754400,1072.49,780.84,1.00,4,4,4,7980.54,1.32,892774.86,3226.47,2.15,415391.51,6334.52,2.33,100596.15,3674.53,2.38,49212.28,421.49,2.67,23348.76
1792100,947.11,804.55,1.00,4,4,4,3384.72,2.95,235425.29,3699.30,2.16,12590.28,3547.15,2.13,77786.26,2415.04,2.13,38920.89,193.02,2.77,6101.24
1807900,961.81,944.91,1.00,4,4,4,8931.78,1.47,587772.70,4101.37,2.11,28733.43,1221.10,1.87,151184.33,1456.96,2.54,77577.68,4177.77,2.41,252997.66
1823000,882.02,913.29,1.00,4,4,4,5683.42,-2.76,835339.38,3512.38,-0.69,497103.36,4897.13,0.02,355216.45,1807.14,-0.47,215709.97,4311.06,2.49,23562.73
1837700,1042.27,877.96,1.00,4,4,4,11162.93,-0.22,1101213.65,12656.93,-0.28,650041.64,6768.85,-0.94,382947.65,2738.60,-0.67,70257.38,3674.53,2.38,51890.50
1852700,1243.80,811.19,1.00,4,4,4,14153.72,-0.32,217225.71,10151.22,-1.02,573970.18,9017.25,-0.76,176189.69,4661.25,-0.57,130254.33,2415.04,2.13,97821.18
1867600,1201.44,619.52,1.00,4,4,4,13173.84,-1.79,1229762.47,8985.29,-1.46,292669.94,7973.17,-0.79,72554.84,6768.85,-0.94,195919.34,1456.96,2.54,82263.58
1882700,1272.97,543.21,1.00,4,4,4,6926.71,-0.82,720754.13,6492.48,-0.44,523172.76,5941.20,-1.05,180092.82,9017.25,-0.76,175022.87,1807.14,-0.47,215709.97
1898000,1380.30,536.08,1.00,4,4,4,7030.85,-0.07,334773.45,5070.13,-0.30,106108.93,6492.48,-0.44,249463.99,7973.17,-0.79,70657.98,2738.60,-0.67,67502.19
1913500,1422.15,497.07,1.00,4,4,4,3691.25,-0.75,308244.56,3691.25,-0.75,153121.49,5070.13,-0.30,104739.78,5941.20,-1.05,175445.26,4661.25,-0.57,126052.58
