%@metadata width_px 1920.0
%@metadata height_px 1080.0
%@metadata width_mm 540.0
%@metadata height_mm 254.0
%@metadata distance_mm 620.0
% The number after speed, direction denotes the step size that was used for the calculation.
% Acceleration was calculated between two adjacent samples of the already low pass filtered velocity
@RELATION gaze_labels

@ATTRIBUTE time INTEGER
@ATTRIBUTE x NUMERIC
@ATTRIBUTE y NUMERIC
@ATTRIBUTE confidence NUMERIC
@ATTRIBUTE handlabeller_final INTEGER
@ATTRIBUTE EYE_MOVEMENT_TYPE {UNKNOWN, FIX, SACCADE, SP, NOISE, BLINK, NOISE_CLUSTER, PSO}

@DATA
0,780.43,950.32,1.0,1,FIX
28900,830.25,969.76,1.0,1,FIX
50200,778.81,959.93,1.0,1,FIX
64300,838.37,965.65,1.0,1,FIX
93200,780.75,962.34,1.0,1,FIX
108200,837.89,965.75,1.0,1,FIX
128700,809.28,963.81,1.0,4,FIX
142900,736.65,953.92,1.0,4,NOISE
157300,691.93,929.3,1.0,4,NOISE
172100,720.22,929.16,1.0,4,NOISE
193500,643.11,868.26,1.0,4,NOISE
208200,770.97,702.84,1.0,4,NOISE
222200,1055.36,881.56,1.0,4,NOISE
236600,1187.8,1027.54,1.0,4,NOISE
257800,918.62,935.99,1.0,4,NOISE
272100,630.9,690.2,1.0,4,NOISE
286200,625.5,714.25,1.0,4,NOISE
300500,704.79,768.3,1.0,1,NOISE
321900,680.93,789.15,1.0,1,FIX
336400,847.52,855.08,1.0,1,FIX
350300,925.87,912.12,1.0,1,FIX
364600,778.95,895.81,1.0,1,FIX
386200,801.42,916.2,1.0,1,FIX
414800,760.17,906.77,1.0,1,FIX
428800,782.45,907.48,1.0,1,FIX
464800,764.65,901.58,1.0,2,FIX
479500,813.85,921.91,1.0,2,FIX
494000,744.82,912.5,1.0,3,SACCADE
508200,772.15,904.74,1.0,3,SACCADE
529300,859.51,875.93,1.0,1,FIX
543100,926.1,900.88,1.0,1,FIX
557500,923.58,893.13,1.0,1,FIX
579000,938.48,899.0,1.0,1,FIX
593200,944.16,903.61,1.0,1,FIX
608100,911.93,897.93,1.0,1,FIX
622700,921.0,897.27,1.0,1,FIX
637400,925.38,900.34,1.0,1,FIX
659000,910.85,895.49,1.0,2,SACCADE
673400,878.29,902.16,1.0,2,SACCADE
687500,948.99,900.74,1.0,3,SP
702000,992.49,888.28,1.0,1,FIX
716200,1063.93,879.02,1.0,1,FIX
737600,1064.19,877.96,1.0,1,FIX
751700,1039.73,888.75,1.0,1,FIX
780900,1148.27,911.76,1.0,1,FIX
801700,1056.63,887.1,1.0,1,FIX
816100,1086.18,888.63,1.0,1,FIX
844000,1127.2,900.87,1.0,1,FIX
866000,1156.44,912.37,1.0,2,SACCADE
880700,1128.61,898.71,1.0,1,SACCADE
894700,1138.48,915.04,1.0,1,SACCADE
909400,1004.97,895.17,1.0,1,FIX
924300,946.32,910.94,1.0,1,FIX
946400,916.33,901.93,1.0,1,FIX
960800,900.33,908.3,1.0,1,FIX
974900,876.41,909.58,1.0,1,FIX
989300,870.27,904.26,1.0,1,FIX
1010400,869.83,907.96,1.0,2,FIX
1024800,897.47,916.78,1.0,2,FIX
1039100,848.28,910.39,1.0,2,FIX
1053200,860.05,901.79,1.0,3,FIX
1074500,802.96,912.18,1.0,1,FIX
1089100,758.29,925.4,1.0,1,FIX
1103300,840.76,931.84,1.0,1,FIX
1118200,839.99,942.59,1.0,1,FIX
1132500,869.3,948.95,1.0,1,FIX
1168900,838.22,938.66,1.0,1,FIX
1183000,875.2,935.32,1.0,1,FIX
1219200,879.95,940.03,1.0,1,FIX
1233500,857.87,944.01,1.0,1,FIX
1248400,875.4,950.05,1.0,1,FIX
1262500,885.34,937.2,1.0,2,FIX
1276700,870.86,952.34,1.0,2,FIX
1298200,848.1,936.47,1.0,3,FIX
1312900,879.63,941.26,1.0,1,FIX
1327800,866.26,905.46,1.0,1,FIX
1342000,861.62,908.07,1.0,1,FIX
1356500,869.25,901.66,1.0,1,FIX
1377600,879.27,905.16,1.0,1,FIX
1391800,890.51,912.48,1.0,1,FIX
1420100,890.18,911.31,1.0,1,FIX
1441500,876.15,908.42,1.0,1,FIX
1455900,877.41,907.24,1.0,1,FIX
1469900,896.55,915.6,1.0,1,FIX
1484000,894.03,908.6,1.0,2,SACCADE
1506000,942.35,916.13,1.0,2,SACCADE
1534000,963.53,896.62,1.0,1,SP
1549000,1118.69,899.55,1.0,1,FIX
1584800,1156.54,908.72,1.0,1,FIX
1598800,1151.89,913.59,1.0,1,FIX
1612800,1198.4,924.59,1.0,1,FIX
1634400,1209.47,925.36,1.0,1,FIX
1649000,1185.19,924.81,1.0,1,FIX
1662800,1186.75,921.24,1.0,1,FIX
1677000,1190.17,915.78,1.0,1,FIX
1698000,1194.78,923.32,1.0,1,FIX
1712400,1193.74,917.24,1.0,1,FIX
1726500,1211.98,920.5,1.0,2,SACCADE
1740600,1211.98,920.5,1.0,2,SACCADE
1762200,1240.19,932.59,1.0,2,SACCADE
1777200,1109.39,911.88,1.0,1,SP
1791400,996.39,934.81,1.0,1,FIX
1805200,900.33,918.04,1.0,1,FIX
1826400,845.17,908.83,1.0,1,FIX
1841100,885.67,917.84,1.0,1,FIX
1870000,933.26,926.1,1.0,1,FIX
1906000,879.26,909.39,1.0,2,FIX
1920600,883.08,918.05,1.0,2,FIX
1935300,860.79,916.68,1.0,3,FIX
1964000,845.66,946.68,1.0,1,FIX
1985200,819.9,947.43,1.0,1,FIX
1999200,864.74,947.55,1.0,1,FIX
2013400,864.53,953.2,1.0,1,FIX
2034700,851.15,938.33,1.0,1,FIX
2049300,881.07,962.93,1.0,1,NOISE
2063600,856.37,959.9,1.0,4,NOISE
2078100,883.61,936.54,1.0,4,NOISE
2092200,867.74,941.04,1.0,4,NOISE
2113200,785.66,890.87,1.0,4,NOISE
2127300,826.38,734.27,1.0,4,NOISE
2141400,1012.43,777.75,1.0,4,NOISE
2156500,1263.68,1042.85,1.0,4,NOISE
2178300,1222.02,1098.5,1.0,4,NOISE
2192300,1055.83,947.31,1.0,4,NOISE
2206400,997.06,811.0,1.0,4,NOISE
2220900,907.75,712.37,1.0,4,NOISE
2242100,839.76,688.55,1.0,4,NOISE
2256900,955.75,754.82,1.0,4,NOISE
2285800,1109.66,812.91,1.0,1,NOISE
2300000,1190.67,826.02,1.0,1,NOISE
2336200,1102.66,898.93,1.0,4,FIX
2350400,1056.88,892.34,1.0,4,FIX
2364700,1028.16,865.32,1.0,4,NOISE
2386500,1129.65,766.24,1.0,4,NOISE
2401400,1198.61,911.41,1.0,4,NOISE
2415600,1204.4,1020.66,1.0,4,NOISE
2429400,1234.19,1034.3,1.0,4,NOISE
2450700,1081.09,812.63,1.0,4,NOISE
2465500,991.87,704.95,1.0,4,NOISE
2479400,1211.85,817.04,1.0,4,NOISE
2493400,1127.77,813.94,1.0,1,SACCADE
2508000,1156.16,813.54,1.0,1,UNKNOWN
2529200,1110.89,869.2,1.0,1,UNKNOWN
2543400,1133.03,878.42,1.0,1,UNKNOWN
2557700,1050.77,874.39,1.0,1,UNKNOWN
2572400,1022.39,879.37,1.0,2,FIX
2593400,1047.66,877.61,1.0,2,FIX
2607900,1058.19,874.07,1.0,2,FIX
2622000,1039.71,882.21,1.0,3,UNKNOWN
