@RELATION gaze_labels

%@METADATA width_px 1920
%@METADATA height_px 1080
%@METADATA width_mm 540.00
%@METADATA height_mm 254.00
%@METADATA distance_mm 620.00


@ATTRIBUTE time INTEGER
@ATTRIBUTE x NUMERIC
@ATTRIBUTE y NUMERIC
@ATTRIBUTE confidence NUMERIC
@ATTRIBUTE handlabeller1 INTEGER
@ATTRIBUTE handlabeller2 INTEGER
@ATTRIBUTE handlabeller_final INTEGER
@ATTRIBUTE speed_1 numeric
@ATTRIBUTE direction_1 numeric
@ATTRIBUTE acceleration_1 numeric
@ATTRIBUTE speed_2 numeric
@ATTRIBUTE direction_2 numeric
@ATTRIBUTE acceleration_2 numeric
@ATTRIBUTE speed_4 numeric
@ATTRIBUTE direction_4 numeric
@ATTRIBUTE acceleration_4 numeric
@ATTRIBUTE speed_8 numeric
@ATTRIBUTE direction_8 numeric
@ATTRIBUTE acceleration_8 numeric
@ATTRIBUTE speed_16 numeric
@ATTRIBUTE direction_16 numeric
@ATTRIBUTE acceleration_16 numeric

%The number after speed, direction denotes the step size that was used for the calculation.
%Acceleration was calculated between two adjacent samples of the already low pass filtered velocity

@DATA
0,575.52,853.98,1.00,1,1,1,0.00,0.00,0.00,2644.63,0.03,0.00,1412.86,0.01,0.00,47.43,-2.70,0.00,116.62,-0.12,0.00
14300,613.32,855.26,1.00,1,1,1,2644.63,0.03,184939.30,1412.86,0.01,86220.56,513.00,-2.95,134225.74,371.68,-3.13,23018.72,123.90,-2.89,16541.39
28800,616.21,854.22,1.00,1,1,1,211.93,-0.34,168889.77,513.00,-2.95,132374.35,47.43,-2.70,32220.11,455.74,3.09,6025.80,108.25,-2.91,1083.32
42800,598.96,852.48,1.00,1,1,1,1238.22,-3.04,102319.13,1445.85,-3.11,67333.71,371.68,-3.13,23511.97,162.99,2.95,21096.74,139.58,-0.17,17354.08
58700,573.00,852.79,1.00,1,1,1,1632.78,3.13,26762.38,303.95,2.99,72235.03,455.74,3.09,5495.23,116.62,-0.12,17573.85,294.69,-0.08,9813.67
95600,583.10,854.93,1.00,1,1,1,279.77,0.21,51672.97,132.40,0.48,11324.72,162.99,2.95,8004.18,123.90,-2.89,6410.35,324.04,-0.11,821.71
110400,579.06,855.97,1.00,1,1,1,281.80,2.89,36938.94,93.81,0.03,4263.65,212.87,-0.05,25330.17,108.25,-2.91,1061.36,335.74,-0.09,905.00
124800,585.84,855.02,1.00,1,1,1,475.24,-0.14,52494.17,336.44,-0.28,17273.06,140.12,-0.41,6693.51,139.58,-0.17,16872.02,483.27,0.05,10926.00
154900,593.46,851.87,1.00,1,1,1,273.99,-0.39,7335.18,172.04,-0.54,5855.46,254.60,-0.29,3886.15,294.69,-0.08,5183.97,512.98,0.08,1076.25
177900,593.66,850.30,1.00,1,1,1,68.63,-1.44,10745.18,156.75,-0.31,1804.20,440.64,-0.17,8249.30,324.04,-0.11,1318.31,553.88,0.09,1811.95
192100,599.02,850.10,1.00,1,1,1,377.44,-0.04,26222.54,954.89,-0.06,56616.70,413.95,-0.11,2722.22,335.74,-0.09,943.24,654.11,0.10,7071.61
207200,621.60,848.71,1.00,1,1,1,1498.01,-0.06,74220.52,748.85,-0.06,13645.45,595.90,-0.01,12517.94,483.27,0.05,10419.50,692.20,0.11,2574.50
221100,620.70,848.88,1.00,2,2,2,65.56,2.95,112450.18,239.54,0.20,37463.20,461.50,0.07,10048.20,978.85,0.10,35747.87,734.30,0.09,3252.71
236200,628.41,850.09,1.00,2,2,2,516.35,0.16,38308.02,205.41,0.52,5202.86,564.03,0.27,9617.83,1437.78,0.11,30395.96,763.87,0.08,1969.90
250600,625.96,851.90,1.00,2,2,2,211.10,2.51,47323.88,820.97,0.28,43274.97,1553.60,0.16,69098.44,1637.86,0.11,13901.97,809.54,0.05,3596.74
272900,657.33,858.53,1.00,1,1,1,1437.82,0.21,71119.05,2642.81,0.14,82284.70,2175.58,0.13,27953.47,1418.77,0.15,10112.99,862.09,0.04,2400.29
287500,722.59,865.04,1.00,1,1,1,4492.07,0.10,210054.52,3835.72,0.10,82150.89,2651.85,0.12,32728.27,1302.14,0.14,8033.61,939.76,0.05,5343.22
303100,772.63,869.64,1.00,1,1,1,3221.49,0.09,81468.89,2663.55,0.10,75141.23,2349.58,0.12,19382.90,1259.93,0.14,2706.61,962.80,0.06,1685.53
318500,804.75,873.20,1.00,1,1,1,2098.60,0.11,72984.54,881.85,0.20,116120.24,1028.82,0.11,85769.41,1304.44,0.09,4929.17,881.11,0.07,5328.48
333600,799.00,874.95,1.00,1,1,1,398.31,2.85,163550.84,666.23,-3.06,102340.25,237.45,0.18,52460.14,1302.14,0.04,4560.21,653.47,0.12,15241.39
348400,784.90,871.64,1.00,1,1,1,978.92,-2.91,44942.41,431.30,-2.92,16718.80,90.13,-2.07,20403.40,902.08,-0.01,27254.95,693.76,0.10,2780.35
363000,786.64,872.14,1.00,1,1,1,124.00,0.28,75532.81,462.19,-0.22,59703.34,393.42,-0.40,28233.36,499.37,-0.07,27702.47,700.02,0.09,637.04
386000,801.86,867.85,1.00,1,1,1,687.54,-0.27,25469.25,998.12,-0.20,23309.36,799.81,-0.15,18697.95,140.34,-0.43,16146.70,791.04,0.08,3983.82
400400,823.23,864.78,1.00,1,1,1,1499.67,-0.14,57156.55,1239.96,-0.11,18120.08,741.85,-0.13,4067.96,38.13,-1.52,8860.17,703.95,0.06,6138.18
415000,837.60,863.90,1.00,1,1,1,985.74,-0.06,35841.88,427.15,0.05,56272.97,326.44,-0.10,28472.83,174.09,-0.12,11774.41,357.22,0.05,23751.09
429900,835.82,865.47,1.00,1,1,1,159.53,2.42,74895.65,571.63,3.02,66787.11,303.17,2.95,42217.84,265.19,-0.08,6149.56,35.42,0.01,21599.46
444500,820.85,865.89,1.00,1,1,1,1025.25,3.11,62225.49,720.83,3.04,10234.85,340.58,2.97,2596.82,339.39,0.04,5621.05,166.58,-3.08,13833.25
480900,799.26,869.34,1.00,1,1,1,600.81,2.98,11995.57,209.31,2.89,14134.44,77.46,2.65,7366.08,212.42,0.17,3609.88,271.40,-3.13,2892.50
496000,810.40,868.53,1.00,1,1,1,740.03,-0.07,88715.95,690.07,-0.01,59272.82,350.61,0.12,27577.82,82.82,2.67,18747.96,225.35,3.12,3097.41
524500,829.34,868.90,1.00,1,1,1,664.65,0.02,3482.60,996.19,0.03,10833.17,759.91,0.02,14492.28,331.13,3.06,9005.28,196.37,-3.05,1324.63
539800,854.01,870.01,1.00,1,1,1,1613.98,0.04,62071.80,860.42,0.05,8938.26,191.00,0.10,37237.47,397.33,3.07,4336.50,163.32,-3.01,2196.99
555100,855.64,870.27,1.00,2,2,2,107.46,0.15,98509.99,771.24,3.14,106608.49,705.14,3.12,58505.47,561.11,3.08,10710.23,180.42,-3.08,1360.71
576500,825.71,870.02,1.00,2,2,2,1398.60,-3.13,70327.46,2057.24,-3.13,60095.06,1476.06,3.14,36032.23,650.03,3.09,4164.00,221.02,3.07,2276.18
590500,782.81,869.77,1.00,1,1,1,3064.02,-3.14,118958.62,2368.02,3.14,22261.24,2065.41,3.11,42201.55,754.11,-3.12,8241.42,230.25,3.01,1189.49
605500,757.03,870.29,1.00,1,1,1,1718.78,3.12,89768.03,2078.13,3.08,21399.16,1812.94,3.11,16831.25,743.03,-3.06,3097.44,184.01,2.93,3253.93
620200,721.22,873.84,1.00,1,1,1,2448.02,3.04,50824.40,1261.57,3.07,55549.63,803.49,-3.08,69034.01,636.51,-3.04,7300.64,57.58,3.08,8660.46
634600,720.41,872.85,1.00,1,1,1,88.97,-2.26,166654.40,286.65,-0.75,103879.10,128.59,-1.76,54276.25,409.18,-3.11,16004.54,96.11,-3.05,2794.16
657500,729.07,866.58,1.00,1,1,1,466.90,-0.63,20983.07,955.39,-0.31,30856.62,760.93,-0.24,33435.07,105.09,2.79,13717.01,231.24,-3.12,5917.76
673000,755.38,861.76,1.00,1,1,1,1725.74,-0.18,85154.87,1393.54,-0.12,31608.47,799.56,-0.08,8409.04,111.82,0.49,12756.11,318.62,-3.14,5647.59
688100,771.42,861.61,1.00,1,1,1,1062.32,-0.01,46546.13,688.32,0.35,55363.24,708.57,0.19,14520.11,467.83,-0.06,24969.43,312.00,-3.13,498.03
702200,774.29,868.57,1.00,1,1,1,534.08,1.18,70612.13,446.23,1.65,50818.45,357.37,0.83,33521.69,478.60,-0.10,1803.31,181.45,-3.08,9287.91
716800,770.36,874.38,1.00,1,1,1,479.98,2.17,33055.51,340.29,2.10,13959.15,228.45,0.62,9670.16,323.77,0.03,11167.26,30.06,-0.69,14013.71
730700,769.36,876.92,1.00,1,1,1,197.04,1.94,20935.58,374.41,-0.29,47917.25,154.42,-0.24,12468.88,146.68,0.46,14402.09,78.65,-0.10,4038.05
753700,783.58,870.37,1.00,1,1,1,680.91,-0.43,36273.77,483.04,-0.62,7699.65,102.96,-1.68,7577.97,68.91,1.09,4334.34,165.00,-0.07,3757.01
768800,784.29,866.17,1.00,1,1,1,282.45,-1.40,37855.12,488.85,-2.95,59041.17,111.61,-1.24,3159.65,47.05,-0.19,4736.59,220.24,-0.04,3678.28
782800,769.63,867.62,1.00,1,1,1,1052.58,3.04,82798.76,448.78,2.85,16208.48,141.15,-3.00,13985.19,142.89,-0.48,7048.03,249.38,0.08,2934.97
797800,771.81,869.85,1.00,1,1,1,207.86,0.80,79579.87,202.74,0.27,42022.89,73.55,2.85,5383.82,82.98,-0.71,4325.19,171.77,0.16,5272.62
812300,775.40,869.19,1.00,1,1,1,251.56,-0.18,15094.31,284.40,-0.28,10603.51,239.42,-0.16,21546.97,92.99,3.14,11388.09,63.75,0.53,7924.47
828200,780.11,867.43,1.00,1,1,1,316.44,-0.36,5150.92,273.48,-0.33,1008.52,83.23,-0.23,9843.54,25.88,1.52,6151.23,29.15,-0.19,2901.82
865600,789.21,864.54,1.00,1,1,1,255.32,-0.31,1676.90,10.39,2.16,7534.36,66.30,2.95,3997.39,191.69,0.16,5024.42,111.80,-0.42,2236.67
895400,779.72,868.01,1.00,1,1,1,339.07,2.79,19941.67,468.72,2.86,15463.35,53.37,0.57,3736.97,199.54,-0.02,1170.61,191.12,-0.37,2670.95
910500,769.00,870.42,1.00,1,1,1,727.54,2.92,26081.35,173.05,0.43,40395.13,172.59,0.65,7912.05,73.35,0.14,8448.58,200.41,-0.15,2891.20
925900,784.51,870.23,1.00,1,1,1,1007.31,-0.01,112058.17,986.12,0.07,53696.15,387.80,0.06,17037.66,15.05,-0.18,3849.19,204.78,0.04,2624.22
941700,799.70,872.44,1.00,1,1,1,971.48,0.14,10077.68,613.42,-0.05,24209.82,289.49,0.02,6262.32,79.02,-0.29,4055.93,211.80,0.19,2010.62
957000,803.57,869.36,1.00,2,2,2,322.87,-0.67,51383.38,408.40,-3.02,66551.40,61.45,-2.13,21403.81,335.52,-0.27,16766.73,194.32,0.25,1337.75
972900,787.06,870.83,1.00,2,2,2,1042.45,3.05,83274.92,682.61,-3.03,17251.98,180.43,-1.58,8309.22,555.20,-0.12,14367.95,232.71,0.21,2465.24
988100,782.48,866.99,1.00,2,2,2,393.62,-2.44,53518.36,522.97,-0.65,73795.03,326.56,-0.62,17642.02,452.93,-0.03,7470.61,241.40,0.15,1127.05
1002900,799.59,861.39,1.00,1,1,1,1216.91,-0.32,98903.85,1084.92,-0.26,42608.52,806.91,-0.17,35877.12,237.11,0.23,15613.58,275.12,0.10,2391.75
1025700,821.86,856.37,1.00,1,1,1,1001.20,-0.22,10502.19,1101.45,0.00,12774.07,907.99,0.03,8774.05,206.54,0.56,3510.18,327.98,0.00,2675.00
1039800,840.24,861.54,1.00,1,1,1,1353.65,0.27,47597.85,842.49,0.53,40288.45,520.44,0.54,37011.14,436.25,0.22,17814.25,381.10,-0.05,3963.12
1054500,842.74,868.73,1.00,1,1,1,518.51,1.24,77524.04,707.81,2.13,75713.42,468.30,1.43,28984.40,516.61,0.16,5861.44,253.36,-0.05,8690.63
1069300,829.18,879.25,1.00,1,1,1,1159.35,2.48,74911.89,762.67,2.43,15423.76,363.30,1.55,7895.44,487.03,0.17,2041.67,71.20,0.15,12439.65
1083900,825.74,883.35,1.00,1,1,1,366.89,2.27,55102.42,408.00,0.31,70904.77,173.82,0.90,17030.79,346.28,0.28,10129.39,47.25,1.75,5943.75
1098800,840.63,882.97,1.00,1,1,1,999.74,-0.03,85424.22,683.70,-0.23,26595.97,526.21,-0.21,31847.13,207.17,0.17,9540.22,40.99,1.05,2085.36
1120100,849.83,877.67,1.00,1,1,1,498.32,-0.52,28629.16,688.64,-0.45,7059.34,613.37,-0.38,6272.23,49.44,-0.30,7736.47,53.00,1.95,1993.29
1134600,862.82,872.22,1.00,1,1,1,971.50,-0.40,33182.24,551.83,-0.62,11802.57,461.35,-0.60,13056.45,72.56,-2.77,7952.46,109.09,2.48,4735.09
1149600,863.09,868.24,1.00,1,1,1,266.18,-1.50,58949.89,231.45,-1.14,24661.96,183.34,-1.68,27276.47,164.72,-3.09,6583.00,211.01,2.74,7295.69
1164500,865.70,865.93,1.00,1,1,1,233.53,-0.73,12841.81,489.22,-3.05,40689.60,526.17,3.07,36930.19,320.63,-3.09,10463.79,314.63,2.91,7555.56
1179300,848.63,866.88,1.00,1,1,1,1155.15,3.09,90949.66,890.93,2.94,30093.94,761.40,2.92,17151.65,463.13,3.09,9963.35,260.19,2.99,3960.78
1217800,819.15,875.32,1.00,2,2,2,796.42,2.86,10840.40,929.37,2.83,2853.99,887.21,2.94,3305.35,561.76,3.04,2641.36,172.22,-3.12,2472.19
1232900,801.22,882.19,1.00,1,1,1,1271.29,2.78,31979.10,880.74,2.94,7596.86,742.30,2.94,9596.58,612.56,3.02,3452.88,176.00,-3.00,1444.28
1248400,792.72,880.61,1.00,1,1,1,557.89,-2.96,54669.71,542.19,-3.10,24217.59,602.02,3.02,9590.00,715.57,3.00,6720.67,253.65,-3.05,5051.90
1278000,776.79,881.26,1.00,1,1,1,538.78,3.10,4214.16,411.01,3.13,4507.65,459.14,-3.07,5993.53,492.73,2.98,7544.44,317.37,3.14,2340.92
1292100,774.76,880.85,1.00,1,1,1,146.55,-2.94,28228.20,333.48,-2.97,7362.29,526.80,3.11,6105.93,282.12,3.07,15123.76,370.28,3.09,3924.75
1307300,767.16,879.58,1.00,1,1,1,506.94,-2.98,23718.34,691.81,3.09,24576.12,131.44,-3.04,26115.13,189.26,-2.92,7634.00,373.26,3.05,1066.70
1322800,753.55,881.86,1.00,1,1,1,890.55,2.98,28580.27,30.11,0.74,46018.04,73.29,-0.52,12623.56,184.22,-2.97,706.42,359.14,3.01,1291.29
1345200,768.00,880.36,1.00,1,1,1,648.73,-0.10,68685.67,689.33,-0.14,29935.36,126.16,-0.41,2405.18,139.50,-2.95,1999.93,317.04,3.00,1888.94
1360200,779.09,878.37,1.00,1,1,1,751.09,-0.18,7636.83,273.00,-0.54,30102.53,213.89,-0.41,5848.72,139.25,-2.95,18.40,130.76,-3.04,12868.55
1375100,775.00,876.15,1.00,1,1,1,312.63,-2.64,68073.07,405.98,-2.95,42696.43,149.67,-2.86,23020.09,79.78,-3.00,4003.30,79.79,-1.01,12144.61
1390800,766.88,876.06,1.00,1,1,1,516.66,-3.13,17900.02,523.91,3.03,11537.12,365.17,-3.10,14169.41,63.35,-0.26,8932.08,223.92,-0.29,10945.00
1405100,759.38,877.91,1.00,1,1,1,540.70,2.90,9463.68,332.89,2.99,13400.36,301.57,3.03,5628.19,85.91,-3.12,10338.75,437.41,-0.22,14997.91
1420000,757.27,877.50,1.00,1,1,1,144.00,-2.95,27820.48,77.01,3.06,17186.13,95.89,2.53,14934.14,67.80,-0.91,9237.39,461.97,-0.17,2388.64
1434800,757.10,878.10,1.00,1,1,1,42.68,1.85,9911.81,136.17,0.46,13919.43,47.42,2.33,3392.27,314.65,-0.31,17676.23,511.72,-0.13,3591.83
1456500,761.73,879.69,1.00,1,1,1,225.69,0.33,10484.96,57.33,1.51,5465.31,421.04,-0.21,21248.35,675.07,-0.15,16947.32,557.71,-0.15,2191.07
1470600,757.23,880.15,1.00,2,2,2,321.08,3.04,37904.67,820.66,-0.34,59446.36,868.31,-0.25,31753.14,1009.92,-0.17,23772.64,496.71,-0.18,4423.49
1485700,784.31,871.65,1.00,2,2,2,1879.62,-0.30,145375.68,1911.10,-0.28,72390.80,1525.95,-0.18,43832.26,1032.76,-0.12,3478.84,441.81,-0.17,3649.79
1500800,812.68,864.14,1.00,2,2,2,1943.57,-0.26,7152.03,2235.91,-0.12,30482.44,2148.48,-0.18,41227.85,1076.94,-0.11,3053.57,358.76,-0.17,5502.84
1515300,849.99,863.52,1.00,1,1,1,2573.49,-0.02,57218.59,2403.37,-0.10,11948.48,1632.06,-0.10,37212.21,1028.85,-0.14,4201.91,277.59,-0.06,6090.68
1530900,884.63,856.64,1.00,1,1,1,2263.99,-0.20,34111.37,1159.23,-0.06,79875.88,1296.35,-0.02,22772.86,1009.53,-0.16,1642.24,259.26,-0.12,1546.42
1553000,893.61,860.79,1.00,1,1,1,447.68,0.43,86897.92,429.36,0.38,35882.81,672.55,-0.09,28366.28,755.83,-0.12,11612.64,166.70,-0.13,4188.95
1567600,899.26,862.49,1.00,1,1,1,404.20,0.29,5097.82,255.92,-0.18,17232.61,173.53,0.03,34290.88,396.04,-0.09,24664.34,161.67,-0.15,446.01
1596900,904.67,858.82,1.00,1,1,1,223.02,-0.60,10753.97,120.06,-1.65,9291.22,101.77,-0.34,2958.55,49.11,1.94,14339.28,109.45,-0.33,1944.47
1612700,898.82,857.10,1.00,1,1,1,386.16,-2.85,35135.08,57.63,-2.74,6718.76,226.19,-2.95,20145.33,316.41,2.90,18431.08,39.05,-0.71,4732.96
1642800,902.24,857.78,1.00,2,2,2,115.87,0.20,16667.12,404.70,3.09,11760.68,707.00,2.93,16826.80,565.11,3.02,8430.02,45.48,2.76,2770.00
1665300,877.56,858.29,1.00,2,2,2,1096.79,3.12,53784.50,1517.42,2.91,49850.19,796.72,2.96,4109.78,610.50,3.05,2168.96,157.57,2.94,5027.75
1680200,847.06,871.07,1.00,1,1,1,2219.58,2.74,84932.39,1492.05,2.90,1714.26,1448.09,3.00,43818.45,793.33,3.05,12276.32,292.16,3.05,9179.91
1695300,834.07,868.86,1.00,1,1,1,873.05,-2.97,102962.96,1383.63,3.14,23333.16,1256.76,2.97,12957.06,935.77,3.02,9515.78,353.47,3.01,4144.73
1710400,805.28,871.26,1.00,1,1,1,1913.25,3.06,72174.52,1028.92,3.08,23992.93,925.29,-3.12,25883.66,1025.77,3.00,6179.75,399.39,3.07,3305.15
1725100,803.47,870.89,1.00,1,1,1,125.35,-2.94,121997.59,469.16,-3.03,38954.65,1129.04,3.08,14994.20,863.32,3.01,11059.20,314.38,3.07,5785.01
1740600,791.19,869.74,1.00,1,1,1,795.86,-3.05,43316.25,1225.66,3.09,49425.94,553.18,2.98,37491.57,640.63,3.14,15784.56,364.65,3.04,3304.32
1756000,765.65,872.85,1.00,1,1,1,1670.74,3.02,59036.44,664.99,2.80,40177.04,524.05,3.07,3588.61,405.84,3.12,15256.71,387.60,3.04,1490.51
1770800,772.28,876.49,1.00,1,1,1,510.58,0.50,142334.34,48.21,0.31,47564.47,390.35,3.09,9054.07,199.09,-3.07,14079.25,403.63,3.07,1344.49
1794100,767.40,873.41,1.00,1,1,1,247.41,-2.58,32518.23,247.65,-2.53,12621.10,246.21,-0.19,27259.53,52.28,-0.34,10640.28,373.74,3.07,1291.06
1809100,764.49,871.08,1.00,1,1,1,248.97,-2.47,1855.54,510.24,-0.24,46580.05,152.08,-0.76,9608.85,119.26,-0.08,4660.61,258.49,-3.03,8579.17
1823600,782.01,869.77,1.00,1,1,1,1211.65,-0.07,96839.18,518.27,-0.11,4769.79,725.20,-0.11,42125.10,203.43,-0.20,5941.54,229.07,-3.10,2298.17
1838800,779.78,869.37,1.00,1,1,1,148.44,-2.97,89209.71,948.67,-0.04,28509.37,712.85,-0.06,2477.61,204.96,-0.44,3207.97,153.15,-3.06,5019.95
1852900,809.78,868.68,1.00,1,1,1,2127.99,-0.02,161257.19,912.46,-0.03,2597.34,159.33,-0.22,39441.01,141.41,-0.47,4520.18,47.79,-2.91,7525.91
1867900,806.32,868.50,1.00,1,1,1,230.91,-3.09,157219.31,487.13,-3.07,93196.90,272.60,-0.26,7566.58,153.86,-0.38,1187.60,38.45,0.27,5747.53
1889100,792.19,867.48,1.00,1,1,1,668.43,-3.07,20640.51,276.16,-2.77,11235.91,407.94,-3.02,31558.80,77.29,-2.81,10293.10,44.22,0.47,461.34
1904100,797.01,864.87,1.00,1,1,1,365.18,-0.50,66389.98,313.39,-2.92,3894.85,378.79,-2.96,2566.81,112.61,-3.04,2755.50,22.74,1.78,2950.06
1918700,783.13,865.47,1.00,1,1,1,951.21,3.10,88324.42,518.40,-3.08,14713.71,260.24,-3.07,8501.53,130.36,-3.10,1312.71,88.71,2.68,5250.03
1932800,782.15,864.00,1.00,1,1,1,125.31,-2.16,63326.02,232.87,3.09,20432.52,419.83,3.06,11858.55,38.23,2.38,7615.34,50.35,1.90,4508.42
1969300,771.36,866.08,1.00,1,1,1,301.06,2.95,7614.82,370.03,2.95,3931.47,98.95,0.31,14047.49,121.84,2.51,2303.35,49.74,1.35,744.42
1984200,763.50,867.70,1.00,2,2,2,539.01,2.94,15973.14,650.35,0.09,67828.92,224.32,0.42,8488.24,197.21,2.53,5063.46,42.05,2.01,2055.54
1999200,790.73,867.87,1.00,2,2,2,1815.41,0.01,156358.84,865.62,0.13,14481.08,184.84,1.15,10029.80,265.92,2.68,5069.49,191.14,2.93,11263.16
2028900,801.86,872.74,1.00,1,1,1,409.14,0.41,48773.78,393.63,2.48,39590.74,209.79,1.12,856.22,187.29,2.39,3389.83,212.45,2.97,784.11
2043400,777.00,878.56,1.00,1,1,1,1760.66,2.91,145003.86,894.05,2.82,37196.48,603.35,2.79,45360.46,157.76,0.91,16165.15,165.47,2.98,3242.36
2065400,770.90,883.04,1.00,1,1,1,344.22,2.51,65918.87,887.13,2.95,5304.80,657.13,2.86,3242.31,118.79,0.85,1812.04,171.83,2.93,499.62
2080500,744.69,884.79,1.00,1,1,1,1739.67,3.07,96744.12,372.92,2.99,34086.54,142.16,0.56,50277.47,260.86,2.80,21469.11,114.71,2.81,3943.05
2095400,759.84,884.72,1.00,1,1,1,1016.78,-0.00,184913.54,1318.35,-0.03,113357.15,76.87,-0.63,9028.43,443.50,3.04,13420.39,132.83,2.76,1288.93
2111200,785.15,883.72,1.00,1,1,1,1603.10,-0.04,37215.62,507.01,-0.29,53120.47,204.82,-0.37,8351.71,239.57,-3.03,13658.38,157.76,0.91,14726.26
2125900,774.66,880.30,1.00,1,1,1,750.68,-2.83,157940.20,1005.04,-3.03,100979.23,250.51,-2.72,28621.52,186.39,-2.80,4860.04,118.79,0.85,2711.89
2140300,756.10,880.34,1.00,1,1,1,1288.81,3.14,43150.10,972.39,-3.08,4599.77,617.39,-2.93,26067.35,69.55,-0.96,14978.55,260.86,2.80,22512.74
2155300,746.11,878.65,1.00,1,1,1,674.87,-2.97,42255.65,328.62,-2.69,45361.14,401.43,-2.95,14415.72,114.32,-2.78,9854.89,443.50,3.04,13330.92
2177700,745.03,874.99,1.00,1,1,1,170.44,-1.86,27638.81,116.24,-0.93,16452.37,84.13,-2.59,14467.54,617.39,-2.93,22522.69,239.57,-3.03,9634.04
2191900,748.65,875.23,1.00,1,1,1,255.56,0.07,24865.99,126.97,0.32,10077.70,17.92,2.85,5170.04,401.43,-2.95,15227.87,186.39,-2.80,5031.17
2221400,750.29,876.75,1.00,2,2,2,75.77,0.75,6857.21,122.81,2.37,7228.57,126.97,0.32,4813.84,84.13,-2.59,10985.52,69.55,-0.96,7311.57
2236600,744.72,879.06,1.00,2,2,2,396.94,2.75,28557.34,396.94,2.75,18846.57,122.81,2.37,14029.14,17.92,2.85,4829.91,114.32,-2.78,9725.22
