@RELATION gaze_labels

%@METADATA width_px 1920
%@METADATA height_px 1080
%@METADATA width_mm 540.00
%@METADATA height_mm 254.00
%@METADATA distance_mm 620.00


@ATTRIBUTE time INTEGER
@ATTRIBUTE x NUMERIC
@ATTRIBUTE y NUMERIC
@ATTRIBUTE confidence NUMERIC
@ATTRIBUTE handlabeller1 INTEGER
@ATTRIBUTE handlabeller2 INTEGER
@ATTRIBUTE handlabeller_final INTEGER
@ATTRIBUTE speed_1 numeric
@ATTRIBUTE direction_1 numeric
@ATTRIBUTE acceleration_1 numeric
@ATTRIBUTE speed_2 numeric
@ATTRIBUTE direction_2 numeric
@ATTRIBUTE acceleration_2 numeric
@ATTRIBUTE speed_4 numeric
@ATTRIBUTE direction_4 numeric
@ATTRIBUTE acceleration_4 numeric
@ATTRIBUTE speed_8 numeric
@ATTRIBUTE direction_8 numeric
@ATTRIBUTE acceleration_8 numeric
@ATTRIBUTE speed_16 numeric
@ATTRIBUTE direction_16 numeric
@ATTRIBUTE acceleration_16 numeric

%The number after speed, direction denotes the step size that was used for the calculation.
%Acceleration was calculated between two adjacent samples of the already low pass filtered velocity

@DATA
0,1427.23,929.81,1.00,1,1,1,0.00,0.00,0.00,710.33,3.11,0.00,104.67,-2.10,0.00,601.62,-0.33,0.00,256.43,-0.46,0.00
22400,1411.33,930.31,1.00,1,1,1,710.33,3.11,31711.13,104.67,-2.10,29774.51,946.68,-0.24,43820.44,1070.39,-0.27,21017.27,342.81,-0.24,4766.11
38200,1425.22,926.35,1.00,1,1,1,914.24,-0.28,102056.76,946.68,-0.24,62125.18,601.62,-0.33,22240.79,744.64,-0.33,20857.85,352.00,-0.26,682.42
68300,1453.55,920.04,1.00,1,1,1,964.25,-0.22,2455.47,1132.16,-0.25,6174.45,1070.39,-0.27,15640.76,357.62,-0.50,13179.96,353.10,-0.52,3006.00
83300,1474.70,913.72,1.00,1,1,1,1471.21,-0.29,34261.41,1262.72,-0.31,9989.78,744.64,-0.33,21970.27,256.43,-0.46,6799.29,325.20,-0.86,7911.72
98100,1489.37,908.50,1.00,1,1,1,1052.23,-0.34,28638.58,206.62,-1.05,75552.15,357.62,-0.50,26805.18,342.81,-0.24,7213.57,347.16,-1.00,3524.65
112700,1477.73,908.46,1.00,1,1,1,796.95,-3.14,124808.97,416.56,3.12,37821.54,201.75,-3.09,36985.56,352.00,-0.26,738.51,439.82,-0.86,7393.12
134300,1474.29,908.77,1.00,1,1,1,159.99,3.05,29529.54,467.12,2.87,5720.53,507.93,2.83,15175.55,353.10,-0.52,4188.92,543.58,-0.71,5799.05
148800,1461.50,913.03,1.00,2,2,2,929.69,2.82,53436.24,664.87,2.59,17239.58,109.34,2.32,28667.13,325.20,-0.86,8184.54,441.67,-0.57,8488.95
162900,1458.07,918.70,1.00,2,2,2,470.09,2.11,45989.23,386.80,0.06,71402.23,348.18,-0.54,32215.60,347.16,-1.00,3699.63,511.24,-0.51,5409.68
178200,1472.85,913.70,1.00,2,2,2,1019.61,-0.33,92267.36,1310.73,-0.54,66425.60,843.97,-0.65,32627.53,439.82,-0.86,7054.88,395.89,-0.60,7998.17
193000,1491.83,898.27,1.00,3,3,3,1652.47,-0.68,52875.49,1416.16,-0.83,26747.51,1118.38,-0.71,19062.54,543.58,-0.71,8463.48,293.32,-0.80,8307.58
207600,1501.10,883.11,1.00,1,1,1,1217.09,-1.02,44332.41,990.94,-0.90,29799.48,986.41,-0.85,13508.42,665.29,-0.63,9071.90,224.59,-0.96,5513.77
229000,1513.92,870.26,1.00,1,1,1,848.28,-0.79,20532.55,640.64,-0.91,16369.54,724.95,-0.79,12481.82,720.32,-0.65,2650.61,240.45,-0.74,2488.93
244000,1515.49,864.76,1.00,1,1,1,381.28,-1.29,36479.02,432.22,-0.47,20584.03,506.92,-0.60,16438.66,480.00,-0.86,18053.08,255.29,-0.64,1952.20
258700,1525.37,864.46,1.00,1,1,1,672.56,-0.03,45226.17,447.45,-0.04,12693.88,291.59,-0.36,15947.39,266.52,-1.15,16132.85,275.31,-0.62,1412.88
273800,1528.81,864.19,1.00,1,1,1,228.51,-0.08,29433.15,160.64,-0.05,18994.76,24.07,2.53,20857.77,135.74,-1.19,8676.95,230.11,-0.87,5166.28
288300,1530.12,864.21,1.00,1,1,1,90.28,0.02,9581.66,403.93,3.04,38926.41,285.27,3.06,18262.08,168.98,-0.17,10469.62,223.67,-1.35,7433.42
310200,1514.18,865.68,1.00,1,1,1,730.75,3.05,37467.73,637.21,3.07,10671.51,316.55,3.04,1462.68,128.52,0.12,2688.28,237.01,-2.05,7238.50
325800,1506.29,865.97,1.00,1,1,1,506.39,3.10,14540.19,211.92,3.04,27270.61,81.18,0.46,24850.63,61.36,0.22,4339.34,237.51,-2.42,5625.57
340600,1507.78,866.34,1.00,1,1,1,103.49,0.24,40979.08,961.25,0.02,79175.11,258.68,0.07,12590.31,152.24,-3.06,14403.48,263.72,-2.73,5501.27
355700,1535.02,866.64,1.00,1,1,1,1804.59,0.01,112852.80,580.06,0.02,25244.43,371.73,0.01,7566.40,358.52,-2.99,13703.62,256.88,-2.92,3270.83
384900,1533.46,866.95,1.00,2,2,2,54.42,2.94,63625.35,27.89,-2.88,20794.57,57.13,-2.31,14136.64,471.87,-2.97,3898.32,286.33,-3.00,1227.26
399900,1533.83,866.32,1.00,3,3,3,48.76,-1.04,6273.65,574.32,-2.98,36439.11,664.37,-2.97,41349.66,431.92,-2.95,2722.31,279.50,-3.00,460.44
436700,1504.08,862.27,1.00,1,1,1,815.79,-3.01,22706.51,1206.52,-2.97,17182.08,1133.10,-2.99,12748.40,499.50,-2.97,1849.12,285.43,-3.00,162.41
451800,1472.13,855.63,1.00,1,1,1,2161.29,-2.94,89317.24,2079.03,-2.99,57839.94,1156.11,-3.00,1738.47,579.97,-3.01,5516.23,247.15,-2.95,2659.36
467300,1441.15,852.95,1.00,1,1,1,2006.17,-3.06,18848.07,1071.82,-3.06,65333.74,1235.87,-3.01,5217.77,677.81,-3.00,6317.82,144.69,-2.76,6997.40
481700,1440.18,853.17,1.00,1,1,1,69.23,2.92,134742.69,342.91,-3.13,50702.75,461.15,-3.09,53944.27,601.06,-2.99,5340.75,89.66,-2.49,4393.15
496100,1431.28,852.88,1.00,1,1,1,618.59,-3.11,38322.76,36.92,0.64,25926.35,117.87,-3.12,23842.88,456.23,-2.97,10094.70,84.31,-2.48,377.17
518800,1441.28,853.99,1.00,1,1,1,443.32,0.11,46745.83,52.41,-0.07,1503.11,69.74,-0.04,8261.11,106.56,-2.77,15527.76,148.64,-2.83,3327.56
534200,1433.27,852.75,1.00,1,1,1,526.31,-2.99,62948.21,122.45,-0.27,4666.30,227.77,-0.04,10261.78,232.42,-0.10,21485.49,196.89,-2.89,3197.59
549500,1444.91,853.00,1.00,1,1,1,760.67,0.02,83938.03,450.51,-0.03,21739.04,305.93,-0.18,5673.16,317.32,-0.08,5562.96,264.87,-2.94,4505.63
564200,1446.78,852.30,1.00,1,1,1,135.90,-0.36,43286.80,495.55,-0.16,5059.57,544.23,-0.07,16476.73,375.62,-0.04,4043.43,135.93,-2.88,8802.96
579300,1459.49,850.66,1.00,1,1,1,848.64,-0.13,47478.79,607.09,-0.09,7743.16,543.90,-0.08,224.42,355.19,-0.02,1442.86,31.29,2.96,7178.84
609200,1473.97,849.71,1.00,1,1,1,485.55,-0.07,12217.73,578.03,-0.04,1521.78,498.86,-0.04,1633.48,318.59,0.00,1251.02,149.64,0.21,5985.52
623600,1485.08,849.75,1.00,1,1,1,771.08,0.00,20041.58,369.00,0.06,14819.42,396.15,0.07,7942.62,99.45,-0.14,15316.21,156.50,0.36,1600.99
645900,1487.49,850.49,1.00,1,1,1,113.33,0.30,29750.26,197.81,0.44,8943.40,78.64,0.64,14918.33,158.69,0.03,2825.92,126.82,0.51,1652.11
661000,1491.78,852.89,1.00,1,1,1,325.10,0.51,14283.91,331.53,2.90,33179.58,401.62,3.09,30795.42,52.47,1.00,9003.21,71.03,0.94,4553.86
675000,1478.13,852.80,1.00,1,1,1,974.95,-3.14,90667.09,1166.98,-3.09,61103.80,322.09,3.01,6088.48,105.54,0.92,3815.79,136.07,0.39,6000.84
689400,1458.68,851.07,1.00,1,1,1,1355.56,-3.05,27232.20,316.49,3.12,59154.11,432.71,2.99,7692.69,131.38,1.70,6499.47,83.17,0.57,3911.92
704000,1468.95,853.01,1.00,2,2,2,715.75,0.19,141715.07,211.18,0.89,32629.84,131.03,1.05,33918.15,200.35,2.39,8827.55,104.17,0.33,2125.06
726700,1463.67,857.17,1.00,2,2,2,295.97,2.48,41286.91,327.26,0.56,6359.93,367.06,0.64,11117.78,270.66,2.70,4433.83,92.45,0.40,607.37
756000,1483.39,862.01,1.00,3,3,3,693.18,0.24,30919.99,506.68,0.56,6123.44,198.42,1.78,11483.42,108.01,2.01,6783.38,32.41,1.75,3108.60
770600,1482.57,868.90,1.00,1,1,1,474.91,1.69,54198.87,468.36,2.66,57952.03,189.52,2.19,5426.83,106.66,1.14,6245.24,96.51,0.35,6599.41
800500,1464.96,871.74,1.00,1,1,1,596.50,2.98,21806.09,628.50,3.07,9147.72,182.96,2.69,3073.04,74.19,0.90,1297.30,146.21,0.18,1797.86
816500,1453.80,871.03,1.00,1,1,1,699.03,-3.08,11053.68,214.56,-0.55,51575.26,218.81,-3.00,7731.09,140.45,0.20,6000.06,28.12,1.04,8103.72
832500,1470.82,868.16,1.00,1,1,1,1078.81,-0.17,110411.17,406.43,-0.37,12453.64,234.39,-0.69,25864.01,79.72,-2.88,13754.43,97.08,2.95,6844.67
848100,1465.79,866.43,1.00,1,1,1,340.90,-2.81,88965.74,259.13,-0.82,13276.65,474.06,-0.28,17654.16,210.43,-0.31,17984.01,145.84,2.99,3140.86
863600,1476.33,862.28,1.00,1,1,1,730.64,-0.38,65439.30,531.53,-0.23,22355.20,136.42,-1.41,27972.99,500.00,-0.21,18801.93,367.85,3.12,14458.31
886500,1485.65,861.71,1.00,2,2,2,407.85,-0.06,15961.63,141.17,-2.46,27414.84,691.24,-0.15,28939.92,339.12,-0.26,7079.33,387.39,-3.12,1118.43
900500,1472.28,859.00,1.00,2,2,2,974.65,-2.94,98055.03,911.58,-0.09,72718.10,783.21,-0.08,7498.29,174.34,-2.67,34524.03,506.83,-3.08,8642.67
914900,1511.44,859.50,1.00,2,2,2,2720.14,0.01,255709.01,1883.34,-0.02,67764.68,177.44,-0.19,42157.28,373.35,-2.97,14744.61,520.42,-3.03,1839.16
930300,1528.39,858.01,1.00,2,2,2,1104.80,-0.09,105505.19,525.24,3.12,156401.52,359.37,-3.10,34659.51,865.61,-3.08,32256.32,457.40,-2.97,4491.48
944700,1495.79,859.78,1.00,1,1,1,2267.08,3.09,234129.19,2631.76,3.14,146291.42,1411.05,-3.12,73039.74,1064.54,-3.09,13822.72,337.20,-2.92,8459.42
959700,1451.02,858.18,1.00,1,1,1,2986.97,-3.11,50473.56,2115.32,-3.12,34725.18,2516.54,-3.13,73701.48,1004.18,-3.10,4043.10,321.76,-2.96,1282.17
982200,1416.50,857.68,1.00,1,1,1,1534.41,-3.13,64589.65,2425.55,-3.11,13791.59,2157.24,-3.11,16095.23,1343.77,-3.11,15104.02,180.22,-2.82,6472.61
996700,1361.31,855.53,1.00,1,1,1,3808.80,-3.10,156906.42,2212.78,-3.10,14855.04,1587.88,-3.09,39301.17,1378.01,-3.11,2362.47,199.90,-2.92,1926.93
1010600,1353.71,854.92,1.00,1,1,1,548.31,-3.06,234608.49,500.18,-2.98,123517.96,1266.25,-3.09,23148.46,968.00,-3.08,29577.33,173.87,-2.94,1883.27
1025100,1347.29,853.28,1.00,1,1,1,457.50,-2.89,8539.03,361.86,-3.03,9642.63,226.03,-2.89,72102.65,472.14,-3.06,34213.38,68.69,-2.89,7263.16
1040300,1343.03,853.72,1.00,1,1,1,281.22,3.04,14250.82,38.61,-1.77,23167.35,220.35,-0.19,28650.80,53.36,-1.21,32198.99,210.92,-3.13,9551.53
1062000,1347.01,851.88,1.00,1,1,1,201.87,-0.43,21968.54,684.98,-0.06,31847.17,613.57,-0.01,18391.92,443.90,-0.08,19529.24,225.27,3.06,1187.35
1076900,1368.05,852.12,1.00,1,1,1,1412.39,0.01,82764.71,1367.86,0.03,46209.75,938.77,-0.04,21889.63,581.86,-0.03,9417.42,24.91,1.83,14643.74
1092400,1388.58,853.01,1.00,1,1,1,1325.40,0.04,6277.21,1147.76,-0.03,14864.79,1023.02,-0.02,5573.78,652.18,0.01,4807.82,127.76,0.43,8112.76
1121400,1419.11,850.72,1.00,1,1,1,1055.75,-0.07,10464.55,787.05,-0.08,12540.65,880.15,-0.00,4967.52,667.22,0.05,1042.37,267.75,0.26,4950.12
1136400,1423.11,850.37,1.00,1,1,1,267.59,-0.09,52546.55,556.56,0.07,16615.55,679.58,0.02,13397.85,761.36,0.10,6754.11,453.33,0.19,12482.40
1158000,1439.43,852.09,1.00,2,2,2,760.01,0.11,23149.63,593.18,0.12,2218.07,406.03,0.25,13863.44,785.81,0.12,1287.50,409.44,0.22,2107.72
1187500,1453.20,854.03,1.00,2,2,2,471.17,0.14,9816.60,300.39,0.53,11493.16,537.34,0.31,4560.85,615.68,0.21,6204.25,436.71,0.19,992.88
1202100,1450.87,858.78,1.00,1,1,1,362.01,2.03,46405.74,498.51,0.72,14451.71,704.18,0.26,11594.51,519.86,0.36,8654.87,510.61,0.13,5497.41
1216600,1464.14,863.56,1.00,1,1,1,972.43,0.35,74077.15,1214.00,0.19,56820.76,575.71,0.56,15642.94,491.45,0.42,3011.56,571.04,0.13,4167.83
1238200,1493.95,866.85,1.00,1,1,1,1388.52,0.11,23057.66,646.21,0.46,28600.63,665.05,0.44,5316.12,290.35,0.77,11108.03,604.07,0.10,1626.76
1252600,1484.97,873.91,1.00,1,1,1,792.92,2.48,141091.96,379.06,1.90,48862.51,446.60,0.59,16161.52,231.97,0.94,5054.18,578.00,0.11,1821.05
1267800,1490.36,877.49,1.00,1,1,1,425.38,0.59,66480.47,240.01,1.01,19386.88,485.15,2.65,52607.71,328.15,0.33,12650.27,468.70,0.17,7469.87
1283400,1488.93,880.15,1.00,1,1,1,194.12,2.06,28892.61,738.71,3.01,55576.44,255.74,2.91,15832.00,350.69,0.19,3306.44,354.35,0.23,7498.53
1297700,1468.47,880.42,1.00,1,1,1,1431.00,3.13,94255.70,664.46,-2.99,14713.34,75.21,-1.25,21119.41,371.48,0.07,3295.34,251.58,0.14,7404.07
1311900,1470.20,877.35,1.00,1,1,1,248.29,-1.06,110604.50,674.89,-0.32,91785.33,338.20,-0.35,20911.76,540.46,-0.04,12436.61,171.44,0.07,5738.65
1334300,1491.94,872.74,1.00,1,1,1,992.27,-0.21,37889.08,1063.91,-0.12,18821.80,1096.84,-0.14,34365.19,435.46,-0.10,4843.50,163.36,-0.01,698.58
1349500,1509.90,872.40,1.00,1,1,1,1181.27,-0.02,18358.62,1634.47,-0.05,38077.23,1244.00,-0.08,10875.05,233.21,-0.27,13801.33,142.80,-0.07,1502.88
1364100,1540.59,870.30,1.00,1,1,1,2107.25,-0.07,63650.06,1479.07,-0.03,10867.36,891.98,-0.01,24550.24,323.61,-0.44,6983.11,38.56,0.14,7220.73
1378700,1553.07,871.12,1.00,1,1,1,856.41,0.07,86564.82,159.44,0.41,91524.62,121.25,-0.01,52789.39,241.44,-0.59,6323.88,19.60,0.02,1316.94
1393700,1544.92,872.16,1.00,1,1,1,547.18,3.01,93157.23,1200.38,3.11,89759.85,514.92,-2.90,42189.15,104.82,-1.34,11911.31,26.94,-2.43,2925.85
1408700,1517.07,872.30,1.00,2,2,2,1856.74,3.14,87689.16,1052.98,-2.88,24354.33,684.97,-2.89,11338.35,82.77,-1.96,4093.56,36.83,-1.22,2472.11
1430700,1507.33,861.93,1.00,2,2,2,646.67,-2.33,67876.35,453.62,-2.43,30515.06,636.33,-2.87,2281.99,220.21,-3.09,9059.11,68.99,-0.52,2146.41
1459200,1499.65,857.42,1.00,1,1,1,312.41,-2.61,12557.17,284.39,-2.86,7961.42,176.53,-2.37,17157.14,350.72,3.09,4682.18,60.06,-0.39,427.34
1474500,1495.37,858.45,1.00,1,1,1,288.04,2.91,14770.25,140.14,0.53,27556.50,72.32,1.92,14134.62,343.18,-3.14,1182.18,31.20,-3.02,5786.72
1503800,1505.04,860.59,1.00,1,1,1,338.00,0.22,20821.23,267.17,0.81,4692.80,193.97,2.05,4185.00,138.53,-3.04,7029.22,76.64,-3.07,1553.04
1526200,1504.94,868.41,1.00,1,1,1,349.05,1.58,19354.03,373.15,2.38,20527.09,183.88,2.26,1752.89,131.42,2.77,2862.70,192.70,3.10,5221.56
1556100,1490.92,874.06,1.00,1,1,1,505.74,2.76,16440.77,474.07,2.96,8765.00,187.48,2.51,1551.22,107.97,2.33,1896.41,176.96,-3.12,684.36
1570700,1484.18,872.15,1.00,1,1,1,479.43,-2.87,21895.90,160.68,-1.18,39511.89,249.09,3.06,9082.30,112.48,2.34,317.12,135.58,-3.06,2895.41
1585500,1492.72,869.69,1.00,1,1,1,600.37,-0.28,70190.57,108.32,-0.74,5265.33,78.12,-2.30,14295.36,140.22,2.64,3115.70,70.86,3.04,4533.56
1600300,1486.55,870.00,1.00,1,1,1,417.14,3.09,68305.34,142.18,3.05,16065.93,25.79,-2.81,3849.57,164.45,2.94,3530.27,91.24,2.55,2977.07
1622800,1487.44,870.18,1.00,1,1,1,40.19,0.20,20273.49,115.25,2.76,2018.97,90.39,2.98,3059.42,73.69,-0.47,10496.79,126.97,2.47,1637.22
1637700,1482.55,871.59,1.00,1,1,1,341.59,2.86,25342.39,30.32,2.54,5765.92,79.89,2.56,2468.26,156.98,-0.17,6012.18,106.37,2.46,1383.71
1653300,1486.67,870.70,1.00,1,1,1,270.57,-0.21,39218.27,48.88,1.94,1894.40,196.02,-0.03,17142.74,43.92,1.02,9377.43,119.63,2.69,1878.33
1668400,1482.01,872.99,1.00,1,1,1,344.05,2.69,40404.67,423.95,-0.07,29596.90,357.82,-0.13,10844.08,57.48,1.87,2892.20,95.45,3.02,2804.90
1683000,1499.23,869.78,1.00,1,1,1,1199.81,-0.18,105066.50,758.38,-0.19,23338.93,163.94,0.40,15819.78,153.58,2.59,7979.27,50.79,-2.95,3403.12
1697700,1503.84,868.84,1.00,2,2,2,320.01,-0.20,59855.51,198.77,2.23,62345.01,74.22,1.10,7996.27,100.97,2.63,3595.57,38.22,-2.87,888.03
1712600,1495.65,874.45,1.00,3,3,3,666.59,2.54,65073.43,571.33,2.73,27418.54,449.77,2.78,31137.10,96.40,2.79,1094.09,105.41,3.13,4666.67
1735100,1484.26,877.40,1.00,1,1,1,522.59,2.89,11083.51,672.84,2.90,6557.96,494.08,2.87,2686.72,24.31,-2.67,3645.45,59.77,-3.07,2048.35
1750700,1470.74,880.52,1.00,1,1,1,889.69,2.91,23560.54,418.79,3.10,17587.23,296.67,3.11,14008.61,163.68,3.06,9210.00,42.78,-3.10,1093.90
1766200,1471.25,877.97,1.00,1,1,1,168.11,-1.37,62650.43,222.32,-0.91,37931.16,123.41,-2.28,15401.19,225.50,3.12,4060.19,38.57,-2.89,627.47
1782100,1475.03,875.02,1.00,1,1,1,301.67,-0.66,12956.11,324.85,-0.68,7524.58,188.62,-0.88,13043.25,234.90,-2.99,2554.42,94.15,-0.12,8228.02
1797700,1479.22,871.55,1.00,1,1,1,348.56,-0.69,3071.71,153.81,-0.84,11196.65,151.28,-1.18,4005.44,119.27,-2.59,8565.50,137.71,-0.19,2843.25
1812300,1478.15,871.57,1.00,1,1,1,73.52,3.12,27992.77,168.99,-2.71,17846.53,178.49,-2.64,15172.66,83.66,-1.13,9456.79,143.43,-3.02,19017.83
1826700,1474.76,869.52,1.00,1,1,1,275.08,-2.60,15047.93,431.76,-3.01,19086.98,124.72,-2.85,4282.35,63.92,-1.44,2090.04,348.33,-3.09,14274.39
1841200,1465.77,869.98,1.00,1,1,1,620.77,3.09,29138.37,98.34,-2.99,22997.02,36.13,-2.46,6361.37,250.23,-0.19,16398.67,485.29,-3.05,9508.70
1872000,1470.35,868.85,1.00,1,1,1,153.33,-0.24,25060.67,192.69,-0.03,9416.30,29.16,-2.90,512.20,269.59,-0.14,751.97,613.55,-3.03,4176.61
1893600,1475.86,869.72,1.00,1,1,1,258.23,0.16,6078.65,57.03,0.05,6290.29,492.42,-0.05,24093.48,132.93,-2.81,18173.82,426.74,-2.94,8943.59
1908600,1472.44,868.94,1.00,2,2,2,234.04,-2.92,32800.41,847.86,-0.06,52743.77,627.64,-0.06,9029.48,446.68,-3.06,21301.75,339.01,-2.91,5895.94
1937800,1513.28,867.57,1.00,2,2,2,1399.32,-0.03,55711.47,1111.39,-0.07,9033.99,233.24,-2.86,29142.50,684.82,-3.07,8156.77,406.29,-2.97,2456.67
1951800,1520.34,865.61,1.00,2,2,2,523.31,-0.27,64225.47,1530.34,-3.09,188344.46,872.38,-3.06,46106.36,1088.18,-3.08,28818.05,364.32,-2.98,3004.69
1974100,1457.81,864.58,1.00,1,1,1,2804.39,-3.13,148409.96,3167.88,-3.12,73520.61,2427.68,-3.10,69792.46,884.34,-3.03,9367.52,365.52,-2.99,207.59
1989000,1402.51,863.55,1.00,1,1,1,3711.90,-3.12,60908.08,3559.10,-3.11,26369.11,3145.45,-3.11,48176.85,678.47,-3.00,13892.81,443.48,-3.03,5322.12
2002900,1355.35,861.67,1.00,1,1,1,3395.73,-3.10,23379.41,3118.14,-3.09,32382.90,1761.50,-3.06,99899.85,1202.07,-3.06,37888.03,477.41,-3.03,2441.18
2018200,1311.60,858.50,1.00,1,1,1,2866.75,-3.07,35207.23,209.32,-2.05,197127.10,428.43,-2.83,88079.73,1079.87,-3.07,7988.00,512.15,-3.04,2278.87
2034200,1352.30,855.87,1.00,1,1,1,2549.05,-0.06,337698.42,2134.05,-0.04,139463.22,145.95,-0.70,32545.54,665.85,-3.04,25915.76,512.17,-3.03,141.48
2049300,1377.91,855.66,1.00,1,1,1,1695.96,-0.01,57025.62,331.50,0.01,119404.26,937.01,-0.06,54625.94,439.94,-2.99,15064.43,515.14,-3.06,873.84
2063900,1362.14,855.93,1.00,1,1,1,1079.79,3.12,190118.54,72.21,-2.79,27409.23,322.57,0.01,42154.73,216.96,-2.88,15450.54,705.40,-3.09,13113.92
2086400,1375.39,854.74,1.00,1,1,1,591.14,-0.09,74218.81,315.40,0.01,17071.51,459.65,-3.13,34764.69,157.50,-0.23,16162.45,720.37,-3.10,689.93
2100900,1373.81,855.99,1.00,1,1,1,138.87,2.47,49056.89,964.44,3.13,88260.45,505.40,-3.10,3272.23,141.85,-3.04,20363.44,451.90,-3.07,18542.76
2115200,1347.62,855.19,1.00,1,1,1,1832.59,-3.11,120890.86,1541.70,-3.11,40580.75,750.45,-3.12,17170.21,363.19,3.13,15585.05,72.68,-2.97,26547.44
2130200,1328.66,854.53,1.00,1,1,1,1264.40,-3.11,37881.64,547.72,-3.07,66310.08,556.40,-3.09,13032.56,285.91,3.10,5210.54,298.48,-0.11,24598.61
2145400,1331.12,854.00,1.00,1,1,1,165.29,-0.21,93766.65,83.34,-0.20,41342.04,286.70,3.10,17920.15,379.46,3.10,6156.69,588.03,-0.05,19103.36
2175500,1332.36,853.78,1.00,1,1,1,41.97,-0.18,4098.31,143.45,2.85,7526.59,116.45,2.78,5967.11,278.58,-3.13,3389.59,533.59,-0.02,1908.27
2198000,1323.90,856.20,1.00,1,1,1,391.16,2.86,19241.55,359.49,2.83,9603.36,117.89,2.85,323.28,223.51,0.14,22265.77,454.17,0.04,3771.60
2212600,1319.67,857.89,1.00,1,1,1,311.73,2.76,5951.87,72.46,2.84,19660.60,33.27,2.38,6125.75,657.46,-0.02,30031.57,402.71,0.15,4849.35
2227600,1321.85,856.83,1.00,1,1,1,161.32,-0.45,31518.49,248.70,-0.21,21394.54,793.46,0.07,54419.14,894.62,-0.03,15820.87,290.68,0.45,10009.19
2256700,1330.41,855.65,1.00,2,2,2,296.93,-0.14,5218.98,1371.57,0.05,38935.38,1313.86,-0.05,18326.54,1112.90,-0.01,7550.33,261.64,0.47,1026.38
2271700,1382.25,860.13,1.00,2,2,2,3468.66,0.09,211985.95,2214.89,-0.03,57115.37,1745.03,-0.05,28744.48,1228.51,0.03,8131.79,340.23,0.36,5719.51
2309000,1446.19,851.94,1.00,2,2,2,1728.30,-0.13,48714.43,2062.67,-0.10,5811.07,2221.48,-0.02,12871.09,1051.77,0.10,5280.85,417.45,0.26,2286.88
2325100,1491.80,848.67,1.00,3,3,3,2839.91,-0.07,69471.66,2233.59,0.01,18064.92,1614.78,0.01,37797.26,869.10,0.26,14790.38,440.40,0.19,2247.79
2340000,1515.43,852.32,1.00,1,1,1,1604.96,0.15,88882.38,930.28,0.46,97878.74,726.42,0.54,71000.13,829.78,0.31,3686.63,478.52,0.16,2723.07
2354900,1516.59,861.06,1.00,1,1,1,592.32,1.44,103794.17,1318.50,2.53,130250.69,974.12,2.29,88200.17,470.13,0.46,24991.80,551.32,0.12,5170.53
2369400,1483.74,874.64,1.00,1,1,1,2451.65,2.75,163437.19,2373.50,2.68,75199.17,1374.87,2.64,39249.46,282.18,1.41,26266.84,557.26,0.11,487.00
2384500,1453.57,892.11,1.00,1,1,1,2308.79,2.62,23008.08,1445.87,2.75,61900.98,1163.89,2.74,16065.92,336.59,2.31,18198.60,527.31,0.16,2630.16
2399600,1443.45,891.47,1.00,1,1,1,671.72,-3.08,118490.70,224.04,-3.07,82795.53,511.25,2.76,43236.15,407.51,2.65,9595.90,490.36,0.18,2602.91
2421500,1445.30,891.50,1.00,1,1,1,84.76,0.02,34538.81,262.52,-0.45,21469.02,232.39,-0.90,32988.88,314.42,2.81,4935.36,268.59,0.27,10228.93
2436100,1452.08,887.32,1.00,1,1,1,545.55,-0.55,32622.38,718.97,-0.57,31474.35,451.82,-0.51,17244.71,56.29,3.10,17881.77,116.85,1.39,16555.73
2451100,1463.22,880.01,1.00,1,1,1,887.90,-0.58,22861.71,678.64,-0.55,2932.15,634.84,-0.48,12281.73,158.75,-0.63,13853.00,128.81,1.78,3300.96
2466700,1469.84,876.54,1.00,1,1,1,478.94,-0.48,26543.38,559.58,-0.36,10695.62,459.75,-0.47,11226.86,173.20,-0.51,1637.68,387.84,2.86,22178.48
2481300,1479.06,874.13,1.00,1,1,1,653.00,-0.26,14700.21,238.97,-0.23,22167.07,109.29,0.02,25127.45,113.48,-0.95,5851.05,451.66,3.04,6729.07
2495900,1476.62,874.92,1.00,1,1,1,175.50,2.83,56729.44,362.27,2.56,40599.59,108.82,2.60,14356.71,50.64,-1.66,5629.34,453.84,-3.09,4765.97
2511700,1469.84,880.15,1.00,1,1,1,542.01,2.49,24114.76,378.13,2.75,4530.94,392.67,2.92,18430.39,173.70,0.01,11762.77,472.35,-2.94,4408.52
2533000,1463.65,880.25,1.00,1,1,1,290.70,3.12,16621.26,450.36,-3.13,8502.76,392.53,2.90,249.82,386.35,3.08,26279.10,501.40,-2.92,1443.23
2547600,1453.67,879.89,1.00,1,1,1,683.64,-3.11,26961.50,423.41,3.08,2932.72,234.14,0.01,42616.99,580.17,-3.14,13436.62,392.74,-2.83,7960.05
2561700,1451.52,880.98,1.00,1,1,1,171.37,2.67,38305.45,1090.34,0.01,107299.76,715.46,-3.12,67346.57,797.35,-3.08,15602.56,530.91,-2.93,10264.42
2576300,1484.96,880.30,1.00,2,2,2,2291.24,-0.02,167586.45,995.84,-3.09,142858.15,745.85,-3.04,4630.55,934.94,-3.04,9719.30,539.25,-2.96,1239.99
2591800,1421.59,879.34,1.00,2,2,2,4089.17,-3.13,411579.70,1753.77,-3.07,48923.62,1144.97,-3.00,25832.14,1048.10,-3.02,7483.74,569.99,-2.99,2277.86
2628500,1393.66,873.61,1.00,3,3,3,776.82,-2.94,90710.92,1236.78,-2.96,14714.93,1718.63,-3.05,15742.99,729.29,-2.95,8855.36,586.06,-3.02,667.43
2642400,1360.01,868.19,1.00,1,1,1,2452.23,-2.98,120607.84,1677.69,-3.03,32506.12,1253.84,-2.98,34227.16,928.52,-2.97,14378.31,533.15,-3.00,3867.48
2672600,1320.13,865.44,1.00,1,1,1,1323.71,-3.07,37759.95,1273.22,-3.00,13456.54,719.17,-2.85,18175.19,1086.12,-2.98,5232.04,444.00,-2.91,3282.40
2688300,1302.12,860.17,1.00,1,1,1,1195.03,-2.86,19113.81,512.49,-0.46,109573.09,718.81,-2.91,2510.86,721.59,-2.90,23626.66,308.05,-2.74,9579.64
2710200,1337.36,856.81,1.00,1,1,1,1616.26,-0.10,126114.55,158.47,-1.53,20906.22,257.30,-2.16,25498.56,600.75,-2.90,5517.87,729.29,-2.95,19750.71
2724900,1302.34,854.38,1.00,1,1,1,2387.98,-3.07,271510.72,947.11,-2.94,63511.74,166.31,-0.96,17023.80,281.75,-2.77,22005.86,928.52,-2.97,13595.81
2739000,1310.66,851.22,1.00,1,1,1,631.19,-0.36,210848.43,235.80,-0.48,80835.12,437.16,-3.01,37901.89,206.29,-0.58,30878.34,1086.12,-2.98,11206.22
2753500,1308.33,851.28,1.00,1,1,1,160.66,3.11,54115.71,96.51,0.94,16599.25,289.27,-0.07,49845.72,618.45,-0.18,30033.03,721.59,-2.90,25581.97
2768000,1312.31,853.48,1.00,1,1,1,313.48,0.50,31672.11,352.95,0.13,20320.11,490.43,-0.02,13939.49,437.16,-3.01,71938.09,600.75,-2.90,8333.88
2790300,1321.20,853.00,1.00,1,1,1,399.52,-0.05,9569.73,833.81,-0.10,22259.36,1114.10,-0.08,28030.54,289.27,-0.07,32410.90,281.75,-2.77,14506.10
2805000,1343.02,850.55,1.00,1,1,1,1493.34,-0.11,74470.51,2065.61,-0.12,83828.58,833.81,-0.10,19101.91,490.43,-0.02,13749.83,206.29,-0.58,29618.00
2820100,1382.30,845.53,1.00,1,1,1,2622.82,-0.13,74826.62,2622.82,-0.13,36911.12,2065.61,-0.12,81607.96,1114.10,-0.08,41396.09,618.45,-0.18,28839.66
