@RELATION gaze_labels

%@METADATA width_px 1920
%@METADATA height_px 1080
%@METADATA width_mm 540.00
%@METADATA height_mm 254.00
%@METADATA distance_mm 620.00


@ATTRIBUTE time INTEGER
@ATTRIBUTE x NUMERIC
@ATTRIBUTE y NUMERIC
@ATTRIBUTE confidence NUMERIC
@ATTRIBUTE handlabeller1 INTEGER
@ATTRIBUTE handlabeller2 INTEGER
@ATTRIBUTE handlabeller_final INTEGER
@ATTRIBUTE speed_1 numeric
@ATTRIBUTE direction_1 numeric
@ATTRIBUTE acceleration_1 numeric
@ATTRIBUTE speed_2 numeric
@ATTRIBUTE direction_2 numeric
@ATTRIBUTE acceleration_2 numeric
@ATTRIBUTE speed_4 numeric
@ATTRIBUTE direction_4 numeric
@ATTRIBUTE acceleration_4 numeric
@ATTRIBUTE speed_8 numeric
@ATTRIBUTE direction_8 numeric
@ATTRIBUTE acceleration_8 numeric
@ATTRIBUTE speed_16 numeric
@ATTRIBUTE direction_16 numeric
@ATTRIBUTE acceleration_16 numeric

%The number after speed, direction denotes the step size that was used for the calculation.
%Acceleration was calculated between two adjacent samples of the already low pass filtered velocity

@DATA
0,549.54,854.82,1.00,1,1,1,0.00,0.00,0.00,374.96,-0.63,0.00,553.88,-0.25,0.00,681.90,-0.12,0.00,297.05,-0.15,0.00
14900,554.06,851.53,1.00,1,1,1,374.96,-0.63,25165.42,553.88,-0.25,16720.06,697.94,-0.02,13550.93,762.92,-0.07,6145.24,217.36,-0.03,5728.97
30200,565.77,850.74,1.00,1,1,1,766.77,-0.07,32140.17,697.94,-0.02,13196.66,681.90,-0.12,4885.05,207.25,-0.10,36329.87,214.40,-0.06,356.02
52700,580.44,851.05,1.00,1,1,1,652.28,0.02,5799.82,792.89,-0.05,4380.89,762.92,-0.07,4069.52,87.60,-2.68,12680.86,425.23,-0.02,9384.98
66800,594.74,849.18,1.00,1,1,1,1023.17,-0.13,27721.12,849.38,-0.11,5353.42,207.25,-0.10,39421.77,297.05,-0.15,26388.89,516.44,0.05,6788.76
81800,604.99,848.21,1.00,1,1,1,686.27,-0.09,22552.39,532.81,3.13,92033.45,87.60,-2.68,19021.30,217.36,-0.03,5690.77,759.01,0.05,16170.98
95800,579.29,849.39,1.00,1,1,1,1837.55,3.10,180231.52,1004.20,3.12,33672.38,135.97,-3.12,4854.08,214.40,-0.06,389.08,1113.03,0.04,25290.06
110800,575.88,848.79,1.00,1,1,1,231.21,-2.97,107503.60,240.40,-0.05,82968.18,331.13,3.04,13128.00,425.23,-0.02,14077.47,1162.65,0.07,3874.80
126400,586.64,849.03,1.00,1,1,1,690.21,0.02,58940.77,196.64,0.24,4869.93,221.72,-0.02,35404.55,516.44,0.05,6136.00,736.07,0.04,27384.00
148400,583.06,850.54,1.00,1,1,1,176.55,2.74,38837.20,206.48,0.02,2072.82,861.56,0.02,29094.22,759.01,0.05,11025.67,696.02,0.07,1998.89
163400,594.28,849.16,1.00,2,2,2,753.52,-0.12,61641.97,1715.59,-0.01,100611.91,999.44,0.04,9265.70,1113.03,0.04,23604.06,704.18,0.06,596.13
177900,633.67,850.18,1.00,2,2,2,2717.51,0.03,136236.13,1673.97,0.05,6793.01,1736.00,0.02,50840.99,1162.65,0.07,4008.42,676.14,0.04,2151.47
206900,667.02,852.48,1.00,1,1,1,1152.77,0.07,54019.71,1750.16,0.04,2675.74,1735.72,0.04,1482.57,1080.60,0.08,2902.18,708.29,0.04,1114.16
222500,711.68,853.08,1.00,1,1,1,2862.59,0.01,109793.90,1786.12,0.04,2421.11,1371.25,0.08,23695.93,1069.19,0.08,731.22,737.30,0.04,1859.61
260200,762.13,856.64,1.00,1,1,1,1341.71,0.07,40450.31,1053.99,0.15,19811.08,1160.65,0.12,5687.01,1084.79,0.08,424.28,844.60,0.02,2860.51
275100,766.48,861.44,1.00,1,1,1,434.75,0.83,71880.42,237.55,1.47,68577.62,571.65,0.23,40005.36,859.28,0.06,15173.86,787.92,0.04,3859.37
290000,762.82,863.68,1.00,1,1,1,288.22,2.59,37872.73,96.13,1.68,9717.23,260.30,0.39,21282.75,870.62,0.03,1891.44,756.75,0.03,2099.68
320100,766.01,865.74,1.00,1,1,1,126.15,0.57,12003.21,384.49,0.02,13445.40,199.95,-0.13,4362.69,718.75,0.03,5045.77,677.64,0.03,2633.51
335400,780.27,863.99,1.00,1,1,1,939.05,-0.12,55289.83,552.27,-0.39,16359.72,590.64,-0.13,25534.85,533.47,-0.01,12238.64,618.55,0.02,3864.70
350100,781.35,859.47,1.00,1,1,1,316.32,-1.34,59898.57,851.13,-0.22,21862.98,964.06,-0.14,25405.48,353.62,-0.08,12391.90,518.05,0.01,6855.55
372500,811.12,857.23,1.00,1,1,1,1332.81,-0.07,56835.45,1318.19,-0.06,22170.63,873.38,-0.14,4051.17,386.18,-0.13,1691.25,495.22,-0.00,1040.82
386900,829.78,856.74,1.00,1,1,1,1296.39,-0.03,5114.30,907.61,-0.06,28513.27,529.21,-0.06,24252.67,191.18,-0.40,14457.92,337.19,0.04,11041.08
401800,837.67,855.67,1.00,1,1,1,534.10,-0.14,51521.75,471.97,3.09,92588.82,94.86,-0.12,29168.23,81.97,-1.41,10958.09,94.92,0.25,16450.04
415900,816.11,857.49,1.00,1,1,1,1533.96,3.06,146634.26,738.28,3.10,18894.43,610.98,-3.12,49998.09,94.90,-0.68,4600.90,33.41,0.83,4924.06
430400,816.57,856.56,1.00,1,1,1,71.52,-1.12,108407.45,721.32,-3.08,5394.74,856.37,-3.10,16949.65,39.47,-1.78,5859.20,52.73,0.24,2149.66
453000,789.41,855.82,1.00,1,1,1,1202.43,-3.11,54594.45,952.17,-3.05,10274.93,389.83,-2.91,21193.20,169.80,3.12,7386.55,95.34,0.03,1994.79
466900,781.97,853.34,1.00,2,2,2,564.20,-2.82,49095.31,156.48,-1.19,72553.16,117.13,-2.58,20269.86,415.88,3.00,17844.54,100.76,0.01,420.13
481800,791.10,851.65,1.00,2,2,2,623.50,-0.18,77186.77,973.69,-0.03,61853.39,336.42,0.07,29746.16,337.09,2.90,5862.76,152.05,0.04,3451.69
495800,810.09,852.47,1.00,2,2,2,1357.89,0.04,54533.75,641.17,0.31,30384.96,179.70,1.12,20853.62,310.23,2.88,1961.14,74.24,2.91,16036.17
510700,808.77,857.24,1.00,3,3,3,331.78,1.84,98581.18,854.92,2.72,94047.71,370.44,2.41,24424.26,85.92,1.46,20775.60,138.12,3.01,4335.32
525900,786.56,862.90,1.00,1,1,1,1507.38,2.89,90308.17,993.25,2.85,11748.62,541.01,2.73,14572.24,210.98,0.42,12031.49,135.55,2.97,407.48
548700,772.65,868.19,1.00,1,1,1,653.06,2.78,37794.87,286.34,2.74,31114.88,302.06,2.67,10531.58,245.19,0.31,1871.61,22.30,2.25,5249.48
563000,776.81,867.10,1.00,1,1,1,300.73,-0.26,66616.88,611.56,-0.09,62123.47,294.03,0.07,40174.62,139.97,2.68,25103.96,27.33,2.25,351.59
578200,790.61,866.51,1.00,1,1,1,908.95,-0.04,40687.93,988.39,-0.10,24792.16,822.10,-0.15,35435.55,113.81,2.87,2362.02,182.13,0.13,13019.75
592900,806.22,864.23,1.00,1,1,1,1073.18,-0.15,13139.76,1035.59,-0.18,6629.06,189.81,-0.35,43346.12,77.77,-0.04,12950.38,236.66,0.16,3746.64
607500,820.45,861.04,1.00,1,1,1,999.22,-0.22,7363.77,288.49,-2.98,89776.32,61.58,-1.23,10803.24,256.09,-0.14,12255.27,155.72,0.32,5896.62
644900,791.42,861.79,1.00,1,1,1,776.65,3.12,47261.71,530.93,3.12,6774.86,74.42,-2.89,2693.62,224.16,-0.13,860.61,77.90,0.68,2330.91
660500,792.32,861.74,1.00,1,1,1,58.18,-0.05,53513.30,177.05,0.08,45337.11,87.77,2.97,2367.55,318.21,-0.08,6073.91,59.06,0.38,1772.89
689400,799.27,862.41,1.00,1,1,1,241.52,0.10,6372.62,451.54,0.04,9506.21,270.98,0.04,12358.95,266.30,0.00,1992.53,136.80,0.01,2918.52
704300,812.09,862.51,1.00,1,1,1,860.09,0.01,41604.26,410.58,0.02,2790.14,644.03,0.01,25052.42,87.50,0.34,12469.17,148.66,-0.08,1162.41
719400,811.58,862.69,1.00,1,1,1,35.24,2.80,59155.83,918.13,-0.00,33630.58,804.74,0.04,10716.45,258.08,0.13,11472.40,201.73,-0.20,3786.33
735100,840.36,862.37,1.00,1,1,1,1833.16,-0.01,118884.54,1190.00,0.05,17632.91,326.89,0.15,30640.96,230.24,0.06,2145.27,177.92,-0.35,2378.73
750100,848.08,864.34,1.00,1,1,1,530.87,0.25,88482.64,192.30,2.65,90561.99,246.50,0.24,5645.81,212.36,0.03,1237.45,236.63,-0.33,3932.00
772300,834.07,865.78,1.00,1,1,1,634.31,3.04,51682.59,552.06,3.03,17132.93,236.02,3.07,21462.98,27.89,0.73,8641.34,267.99,-0.27,1562.18
787100,827.79,866.68,1.00,1,1,1,428.92,3.00,13950.30,328.65,-2.91,18095.22,321.94,-3.09,6237.69,176.38,-0.32,11097.47,414.08,-0.12,10414.29
801500,824.74,863.56,1.00,1,1,1,303.28,-2.34,24295.39,119.53,-1.95,19259.59,319.66,-3.10,163.41,105.93,-1.73,13281.61,327.75,-0.04,6337.54
817400,826.44,863.32,1.00,2,2,2,108.05,-0.14,23746.12,321.84,3.01,19785.99,201.82,-1.12,27677.87,241.49,-0.77,12620.27,342.72,-0.06,1091.43
832800,814.75,864.90,1.00,2,2,2,765.69,3.01,56736.57,334.07,-0.86,39852.79,321.68,-0.83,9182.55,536.51,-0.39,21090.67,279.99,-0.07,4076.12
847900,833.12,855.63,1.00,2,2,2,1362.71,-0.47,139160.53,934.43,-0.60,40887.86,782.36,-0.44,33047.91,598.30,-0.24,7075.75,287.85,-0.06,585.25
863100,838.18,848.99,1.00,1,1,1,548.69,-0.92,59327.57,1246.15,-0.34,27537.81,1354.42,-0.29,38934.92,435.42,-0.09,11761.68,150.94,-0.13,9066.60
879700,870.52,842.53,1.00,1,1,1,1987.13,-0.20,97400.38,1822.41,-0.14,38851.80,1022.58,-0.10,24124.59,473.53,-0.11,2334.60,116.72,-0.21,2143.63
894400,894.62,840.78,1.00,1,1,1,1643.80,-0.07,27950.03,895.25,0.18,68979.75,642.75,0.21,31144.51,540.79,-0.11,4575.64,185.47,-0.20,4677.37
916800,903.21,848.42,1.00,1,1,1,513.08,0.73,59719.44,601.41,2.23,57558.56,327.74,0.71,17237.11,408.34,0.05,6824.57,221.50,-0.18,1621.41
931300,881.01,858.31,1.00,1,1,1,1675.93,2.72,134094.54,610.01,2.67,17995.78,294.16,2.15,28360.16,297.12,0.18,8222.12,237.22,-0.09,1783.77
946400,887.16,856.70,1.00,1,1,1,421.17,-0.26,138582.74,101.06,-0.34,47033.39,349.08,2.63,10867.81,120.29,1.03,15604.09,213.55,-0.01,2010.62
961400,883.88,857.31,1.00,1,1,1,222.43,2.96,42881.27,87.81,2.42,12356.15,21.44,-1.07,24492.80,103.84,2.12,7848.24,271.14,-0.03,3856.99
975700,885.24,858.41,1.00,1,1,1,121.90,0.68,22062.65,41.23,-2.89,5114.32,93.06,3.01,7492.91,97.87,2.66,3792.08,245.80,0.06,2437.93
1012400,881.85,856.78,1.00,1,1,1,102.40,-2.70,6069.52,108.24,-3.01,1839.26,30.06,-0.85,3197.83,71.46,-0.08,4524.93,327.61,-0.00,2283.58
1027100,879.72,857.69,1.00,1,1,1,157.25,2.74,8026.43,95.64,-0.39,13398.77,56.83,-0.59,1963.63,39.51,1.31,5116.62,288.40,-0.02,2686.43
1056900,885.78,855.15,1.00,1,1,1,220.39,-0.40,12672.26,232.11,-0.23,4655.94,138.21,0.06,3330.38,69.61,0.48,1740.28,249.27,-0.06,1363.98
1071500,889.76,855.38,1.00,1,1,1,273.55,0.06,8414.28,226.11,0.35,8892.74,127.41,0.52,4205.44,119.27,0.09,4178.14,272.79,-0.20,3005.22
1086500,892.07,857.43,1.00,1,1,1,205.68,0.73,11332.96,200.26,1.70,17786.43,162.45,0.74,3111.47,368.44,-0.15,16948.01,279.76,-0.26,1252.28
1109500,888.81,862.93,1.00,2,2,2,277.77,2.10,13575.96,142.71,1.22,4289.51,230.15,0.31,4616.05,532.96,-0.22,7270.85,135.89,-0.20,6276.48
1125100,893.97,862.60,1.00,1,1,1,331.45,-0.06,34562.65,532.81,-0.17,33707.19,621.30,-0.20,27912.99,647.64,-0.22,7355.20,64.63,-0.04,4675.30
1139800,904.72,860.20,1.00,1,1,1,749.40,-0.22,28916.56,1404.39,-0.33,60028.45,1130.77,-0.32,35321.11,714.52,-0.24,4650.22,16.08,1.14,4106.09
1155100,933.84,848.96,1.00,1,1,1,2039.57,-0.37,85173.88,1726.64,-0.36,21364.45,1280.62,-0.34,9933.57,533.61,-0.29,11977.53,74.67,2.39,4653.09
1170600,954.41,841.23,1.00,1,1,1,1417.78,-0.36,40125.92,1159.46,-0.35,36606.21,1308.63,-0.35,1943.73,309.83,-0.36,14562.54,61.68,2.29,952.09
1185700,967.12,836.67,1.00,1,1,1,894.36,-0.34,34683.83,874.34,-0.32,19038.67,440.53,-0.44,57671.18,82.93,-0.60,15235.31,80.31,2.40,1341.93
1200200,978.99,833.15,1.00,2,2,2,854.19,-0.29,4369.11,330.78,3.03,82774.99,437.97,2.88,60338.88,139.92,3.00,14987.69,119.22,2.61,3023.59
1214700,957.59,837.78,1.00,2,2,2,1510.20,2.93,162954.96,1470.44,2.86,79025.61,1016.32,2.84,39931.33,553.96,2.83,28746.73,533.61,-0.29,44825.28
1237800,925.96,848.77,1.00,2,2,2,1449.74,2.81,8232.28,1552.98,2.81,4602.82,1454.76,2.83,18988.14,719.96,2.82,7196.31,309.83,-0.36,9771.40
1252100,902.66,856.64,1.00,1,1,1,1719.80,2.82,18911.48,1435.57,2.80,8322.07,1437.61,2.79,3860.75,731.92,2.81,838.50,82.93,-0.60,16087.64
1266500,887.17,862.66,1.00,1,1,1,1154.02,2.77,39538.06,1292.00,2.77,10326.66,1046.68,2.78,27165.47,836.38,2.82,7265.44,139.92,3.00,15091.77
1281600,867.15,870.50,1.00,1,1,1,1423.59,2.77,17854.10,670.10,2.75,41200.16,477.70,2.76,37693.44,1437.61,2.79,39863.90,553.96,2.83,27604.48
1296100,868.82,870.20,1.00,1,1,1,116.96,-0.18,106105.04,62.42,-0.28,50493.25,336.03,2.79,9797.55,1046.68,2.78,26978.12,719.96,2.82,11464.47
1326100,869.83,869.75,1.00,1,1,1,36.74,-0.43,2727.96,147.85,2.88,7008.69,62.42,-0.28,13276.37,477.70,2.76,18972.36,731.92,2.81,399.69
1348400,861.35,872.19,1.00,1,1,1,395.57,2.86,19370.12,395.57,2.86,11110.97,147.85,2.88,9428.73,336.03,2.79,6370.60,836.38,2.82,4691.58
