@RELATION gaze_labels

%@METADATA width_px 1920
%@METADATA height_px 1080
%@METADATA width_mm 540.00
%@METADATA height_mm 254.00
%@METADATA distance_mm 620.00


@ATTRIBUTE time INTEGER
@ATTRIBUTE x NUMERIC
@ATTRIBUTE y NUMERIC
@ATTRIBUTE confidence NUMERIC
@ATTRIBUTE handlabeller1 INTEGER
@ATTRIBUTE handlabeller2 INTEGER
@ATTRIBUTE handlabeller_final INTEGER
@ATTRIBUTE speed_1 numeric
@ATTRIBUTE direction_1 numeric
@ATTRIBUTE acceleration_1 numeric
@ATTRIBUTE speed_2 numeric
@ATTRIBUTE direction_2 numeric
@ATTRIBUTE acceleration_2 numeric
@ATTRIBUTE speed_4 numeric
@ATTRIBUTE direction_4 numeric
@ATTRIBUTE acceleration_4 numeric
@ATTRIBUTE speed_8 numeric
@ATTRIBUTE direction_8 numeric
@ATTRIBUTE acceleration_8 numeric
@ATTRIBUTE speed_16 numeric
@ATTRIBUTE direction_16 numeric
@ATTRIBUTE acceleration_16 numeric

%The number after speed, direction denotes the step size that was used for the calculation.
%Acceleration was calculated between two adjacent samples of the already low pass filtered velocity

@DATA
0,621.93,840.11,1.00,1,1,1,0.00,0.00,0.00,1324.48,0.18,0.00,1197.82,0.16,0.00,655.39,0.19,0.00,98.56,2.25,0.00
14600,640.96,843.53,1.00,1,1,1,1324.48,0.18,90717.56,1197.82,0.16,8812.48,877.90,0.14,21955.94,86.41,1.03,41171.61,182.08,2.93,8392.26
30000,657.41,845.82,1.00,1,1,1,1078.19,0.14,16275.36,877.90,0.14,20815.37,655.39,0.19,14632.18,388.03,2.98,27763.34,160.64,3.08,2149.80
44800,667.22,847.23,1.00,1,1,1,669.49,0.14,27615.87,109.39,0.50,52452.57,86.41,1.03,40615.24,680.34,3.06,19992.42,288.01,-3.13,8669.81
59500,660.25,847.36,1.00,1,1,1,474.23,3.12,77559.43,640.19,3.09,50051.50,388.03,2.98,29085.40,98.56,2.25,41970.46,194.05,3.13,6403.12
81200,643.95,848.45,1.00,1,1,1,752.88,3.07,12909.32,766.01,3.04,5971.85,680.34,3.06,13635.38,182.08,2.93,5646.41,29.15,-2.94,7635.95
96700,631.88,850.11,1.00,1,1,1,785.51,3.00,4060.09,728.72,3.04,2423.81,696.20,3.09,1503.90,160.64,3.08,2135.93,36.33,-1.13,3330.57
111700,621.84,850.73,1.00,1,1,1,671.08,3.08,8452.42,609.49,-3.12,9623.65,425.85,-3.14,18140.17,288.01,-3.13,8554.21,83.76,-0.67,3579.22
125800,614.15,849.76,1.00,1,1,1,549.35,-3.02,11778.72,141.46,-2.53,35363.25,52.76,-0.80,32899.78,194.05,3.13,6675.60,169.30,0.02,8345.58
141100,618.44,848.33,1.00,1,1,1,295.34,-0.32,53959.61,446.86,-0.12,36589.81,75.90,-0.74,1534.38,29.15,-2.94,10830.08,174.96,0.07,685.26
172000,634.64,847.25,1.00,1,1,1,525.62,-0.07,8130.61,167.67,-0.19,9056.76,206.80,-0.12,4912.02,36.33,-1.13,1670.68,307.38,0.09,4288.74
187600,626.09,846.84,1.00,1,1,1,548.86,-3.09,68764.47,93.00,2.99,16705.49,218.48,-0.04,1308.26,83.76,-0.67,3441.56,467.69,0.08,10279.81
209000,631.24,847.76,1.00,1,1,1,244.39,0.18,37002.64,268.75,0.05,16840.27,28.46,-1.72,10445.71,349.83,-0.15,13098.17,566.97,0.08,4643.01
237500,639.48,847.53,1.00,1,1,1,289.37,-0.03,2466.09,94.63,-0.74,7471.23,91.52,-0.62,2904.96,447.01,-0.02,3888.18,685.65,0.04,4222.85
252600,634.29,844.98,1.00,2,2,2,382.88,-2.69,43249.35,295.90,-2.56,21987.35,496.19,-0.16,27537.25,756.74,0.06,20730.38,760.91,0.02,5119.95
267600,632.06,842.60,1.00,2,2,2,217.35,-2.32,13015.20,978.59,-0.10,81430.58,774.47,-0.01,19666.86,1201.22,0.07,29632.78,768.29,0.02,525.19
290400,671.08,841.14,1.00,3,3,3,1712.72,-0.04,81696.44,1605.37,0.08,29229.06,1677.49,0.08,39854.10,1376.61,0.06,7696.07,784.66,0.02,722.28
304800,691.60,847.19,1.00,1,1,1,1485.71,0.29,39082.19,2621.25,0.17,71855.79,2551.68,0.09,60726.57,1560.77,0.05,12880.51,756.91,0.03,1930.43
319400,745.97,854.21,1.00,1,1,1,3754.45,0.13,157488.08,3733.38,0.10,77683.77,2613.29,0.12,6472.94,1677.26,0.04,7990.13,731.21,0.04,1846.62
334600,802.29,858.48,1.00,1,1,1,3715.68,0.08,13199.20,2612.35,0.07,74032.70,2440.00,0.07,14616.94,1584.17,0.06,6435.91,711.81,0.04,1285.72
349400,824.15,859.72,1.00,1,1,1,1479.39,0.06,151131.53,1185.92,-0.05,97350.20,1680.06,-0.00,52144.45,1353.85,0.08,15703.56,689.54,0.05,1523.48
365100,838.42,856.85,1.00,1,1,1,927.28,-0.20,39937.00,782.46,-0.24,28292.93,632.96,-0.06,66826.44,1154.64,0.05,12984.97,639.73,0.06,3198.30
379600,847.11,854.14,1.00,1,1,1,627.78,-0.30,21376.27,180.79,-0.17,41532.12,288.34,-0.22,24189.95,702.22,0.01,31304.27,707.95,0.07,4784.04
402300,845.05,855.71,1.00,1,1,1,114.21,2.49,32429.22,98.92,2.80,12279.14,39.07,-1.35,12072.20,148.06,-0.19,24579.46,846.85,0.08,6119.22
418200,843.52,855.43,1.00,1,1,1,97.97,-2.96,5479.66,205.19,-2.91,8409.43,176.74,3.08,12032.12,79.01,-2.79,13794.48,779.17,0.11,4564.54
432600,839.00,854.28,1.00,1,1,1,323.77,-2.89,15703.20,290.38,-3.07,6525.58,414.03,-3.11,16576.17,250.91,-3.14,12423.37,682.88,0.11,6689.22
446600,835.29,854.86,1.00,1,1,1,268.10,2.99,9326.58,640.93,3.11,25232.49,501.23,3.11,6563.05,221.23,2.99,3382.18,384.93,0.12,21290.28
461200,820.68,854.86,1.00,2,2,2,1000.86,-3.14,50485.54,710.37,3.07,5045.58,523.89,3.07,2236.65,60.55,0.51,18601.23,136.85,0.21,17052.87
475500,814.81,856.25,1.00,2,2,2,421.87,2.91,41842.67,431.69,3.02,19613.95,267.59,2.92,18312.09,252.91,0.24,13652.12,116.94,0.23,1396.10
497100,805.30,856.79,1.00,1,1,1,440.83,3.08,3617.00,107.53,0.65,23790.17,471.30,0.15,33688.73,257.02,0.35,1303.81,148.52,0.19,1481.86
512800,817.99,858.68,1.00,1,1,1,817.43,0.15,79760.76,1518.32,0.06,91123.85,775.69,0.12,19417.88,153.70,0.54,7043.19,152.03,0.29,997.11
527700,851.69,859.40,1.00,1,1,1,2261.89,0.02,97633.73,1351.73,0.08,11479.94,916.19,0.14,9526.09,145.00,0.53,592.20,160.21,0.24,734.81
557100,877.67,863.66,1.00,1,1,1,895.51,0.16,46977.69,504.75,0.32,29579.39,412.46,0.23,17236.33,267.76,0.26,4574.33,76.21,0.62,3196.68
571200,872.51,866.36,1.00,1,1,1,412.51,2.66,88662.78,411.82,2.95,62870.96,136.01,2.53,36407.08,483.19,0.11,15745.21,57.55,0.87,1751.32
609100,856.65,867.79,1.00,1,1,1,420.11,3.05,4272.31,599.86,3.13,5480.71,254.77,2.97,3780.41,459.73,0.11,622.12,51.48,0.79,194.51
623800,840.96,866.87,1.00,1,1,1,1069.27,-3.08,44680.40,23.69,-0.81,41957.67,99.24,-0.19,24081.78,242.32,0.19,14893.57,106.81,0.38,4288.90
638900,857.14,867.28,1.00,1,1,1,1071.90,0.03,141779.83,1325.65,-0.05,86652.62,546.71,-0.04,29733.50,114.88,2.87,23114.19,182.79,0.15,5480.56
653700,880.54,864.77,1.00,1,1,1,1590.23,-0.11,36918.92,1074.75,-0.02,17144.88,798.08,-0.01,17030.70,153.80,3.12,3438.26,300.24,0.08,8004.10
668800,889.27,866.60,1.00,1,1,1,590.49,0.21,69175.11,281.50,0.20,53153.35,63.68,0.23,48760.17,89.55,-2.93,4639.03,171.04,0.12,8574.26
683800,888.85,866.47,1.00,1,1,1,29.69,-2.84,41336.51,768.59,3.08,69544.36,468.31,3.07,35304.53,66.18,-0.06,10285.44,97.99,2.90,17674.87
705300,861.26,868.23,1.00,1,1,1,1285.46,3.08,58502.10,1088.48,3.13,15011.08,664.59,-3.11,9466.11,83.59,-0.32,1200.61,323.06,3.11,10609.66
719800,849.66,866.91,1.00,1,1,1,805.26,-3.03,35360.84,543.91,-2.96,38886.54,597.39,-3.14,4755.21,75.93,-0.11,1235.47,338.58,3.12,1098.65
734400,845.69,865.41,1.00,1,1,1,290.87,-2.78,36171.62,21.94,-2.15,36233.45,121.61,-0.62,47910.45,182.49,-3.05,17618.40,230.95,-3.03,7757.83
750000,849.30,866.35,1.00,1,1,1,239.15,0.26,33930.09,702.99,-0.07,45773.64,668.46,-0.08,36407.21,503.01,-3.13,20616.67,61.91,-2.85,10925.95
765000,867.15,863.98,1.00,1,1,1,1200.82,-0.13,65578.41,1340.94,-0.07,42530.25,331.16,-0.05,22505.54,566.25,-3.11,4272.48,84.92,-2.74,1623.22
780500,890.11,863.67,1.00,2,2,2,1481.11,-0.01,20752.43,35.13,2.78,88682.39,401.28,-3.12,47226.77,549.16,3.13,1899.46,194.73,-3.05,7521.77
796200,866.13,864.37,1.00,2,2,2,1528.04,3.11,191659.48,2119.22,3.11,132866.01,1135.78,3.11,46823.84,366.99,-3.06,11946.36,213.64,-3.04,1209.23
811400,824.66,865.92,1.00,1,1,1,2729.89,3.10,79076.76,2029.33,3.12,6112.73,1608.77,3.10,31132.87,183.72,-2.97,12145.88,215.21,-3.08,656.42
834700,788.02,866.17,1.00,1,1,1,1572.71,3.13,49738.56,1202.29,3.10,35523.48,990.39,-3.10,26914.23,235.60,-2.97,2226.28,152.70,-2.98,2798.68
850200,778.06,867.98,1.00,1,1,1,653.07,2.96,60391.29,359.14,-0.46,99239.81,55.25,-1.27,64886.32,433.97,-3.08,12989.02,93.09,-2.72,4321.64
865200,797.86,861.36,1.00,1,1,1,1391.77,-0.32,136018.35,1617.99,-0.12,85635.43,838.66,-0.15,54417.79,240.20,-3.03,12955.84,56.42,-2.19,3515.73
879900,825.78,862.31,1.00,1,1,1,1900.39,0.03,52326.89,1369.04,-0.06,17788.04,697.48,-0.16,9631.08,37.87,-0.54,18452.88,51.46,-1.77,1588.90
894000,837.21,858.81,1.00,1,1,1,847.41,-0.30,80339.53,83.15,-0.79,92776.44,404.81,-0.03,21367.51,196.29,-0.16,11473.50,39.38,-1.66,925.09
923200,828.31,859.74,1.00,1,1,1,306.43,3.04,39372.33,134.76,2.90,7193.02,47.02,0.19,12295.25,312.71,-0.25,4051.56,59.19,-2.75,1846.12
945700,830.43,860.45,1.00,1,1,1,99.69,0.32,17748.68,94.13,1.22,7667.99,197.70,3.01,10792.20,255.63,-0.23,2544.57,17.71,-1.01,2869.89
960100,829.48,863.01,1.00,2,2,2,189.53,1.93,15077.14,271.45,3.08,21589.92,56.92,-2.26,12100.20,143.03,-0.48,8485.84,163.86,-0.17,10600.10
990700,818.25,861.26,1.00,2,2,2,371.69,-2.99,12484.26,175.80,-2.11,8054.14,135.24,-0.95,4338.78,182.10,-0.21,1892.90,269.81,-0.09,3506.23
1006000,825.31,856.10,1.00,1,1,1,571.65,-0.63,57187.27,696.24,-0.46,47869.49,248.55,-0.59,8506.96,309.62,-0.06,8678.61,322.22,-0.14,3571.79
1019600,836.29,852.35,1.00,1,1,1,852.99,-0.33,25785.62,597.66,-0.21,13817.05,738.76,-0.18,38300.20,270.70,-0.01,3021.42,242.99,-0.12,5845.02
1042000,846.35,851.62,1.00,1,1,1,450.58,-0.07,19312.40,806.92,0.01,11495.09,745.09,0.02,6636.13,298.80,-0.12,1859.97,140.28,-0.17,4602.60
1056600,866.14,852.54,1.00,1,1,1,1356.91,0.05,62405.35,958.13,0.19,15344.68,491.46,0.23,19422.26,361.04,-0.04,4629.85,113.07,-0.09,1970.29
1071600,874.18,857.11,1.00,1,1,1,616.03,0.52,56958.80,255.17,1.22,56934.95,432.87,0.24,3929.23,338.57,-0.02,1564.08,129.85,-0.06,1158.23
1087700,868.87,860.00,1.00,1,1,1,375.33,2.64,54302.97,87.21,2.83,16949.66,117.09,1.85,28127.03,232.64,0.02,6625.75,110.48,0.00,1284.39
1102200,871.64,857.93,1.00,1,1,1,238.38,-0.64,42220.96,157.95,-3.02,5975.60,106.80,-2.85,10989.14,156.02,0.20,5768.61,111.07,-0.14,1104.53
1117900,864.13,859.44,1.00,1,1,1,487.55,2.94,45238.27,151.53,-2.50,5072.79,106.28,-1.77,6974.45,38.62,0.71,7887.96,163.04,-0.08,3344.51
1132100,868.00,855.23,1.00,1,1,1,402.02,-0.83,59599.17,199.63,-1.08,16345.88,94.30,-2.76,6759.43,79.72,3.08,7790.84,123.05,0.06,3147.81
1153800,867.50,853.11,1.00,1,1,1,100.53,-1.80,16373.33,60.42,2.99,11090.77,102.76,-0.57,8073.55,71.08,3.08,398.20,79.95,0.11,2000.45
1169100,865.79,855.57,1.00,1,1,1,196.02,2.18,17887.73,117.53,0.84,10372.07,69.99,2.58,11290.89,102.33,3.07,2042.94,22.36,0.38,3837.72
1184100,869.86,855.77,1.00,1,1,1,272.19,0.05,27412.34,93.25,2.25,9144.27,178.86,2.36,7434.08,32.66,-2.73,4999.52,52.23,2.74,4655.80
1198900,864.05,857.74,1.00,1,1,1,414.79,2.81,45636.25,379.24,2.69,20112.56,131.63,2.70,4724.54,84.85,2.90,4199.54,76.03,3.00,1966.24
1213100,859.98,860.58,1.00,1,1,1,349.92,2.53,8841.59,186.62,2.93,14281.23,151.79,2.94,2817.80,85.22,3.00,595.84,12.94,-2.63,4659.94
1227300,858.87,858.87,1.00,1,1,1,143.94,-2.14,27001.77,79.97,-1.49,15732.13,106.13,3.12,3569.99,100.75,-3.02,2048.83,20.19,-2.68,512.40
1249000,860.21,857.72,1.00,1,1,1,81.07,-0.71,7160.45,54.30,-2.66,3546.92,101.40,-2.04,5095.65,119.79,3.00,1582.24,33.84,-0.68,2122.73
1264600,857.08,857.92,1.00,1,1,1,200.98,3.08,17322.79,149.74,-2.39,6312.92,106.48,-2.52,3139.16,73.48,2.94,2996.57,71.69,-0.22,2807.80
1279200,856.92,854.62,1.00,1,1,1,226.27,-1.62,20874.64,151.69,-2.48,938.43,92.49,3.10,4570.79,37.77,-0.40,7586.89,178.79,-0.13,7367.76
1308200,851.88,853.83,1.00,1,1,1,175.88,-2.99,8861.09,112.17,2.38,6050.98,53.95,2.70,1643.27,51.08,-0.44,462.37,246.51,-0.15,2339.56
1323300,853.34,858.04,1.00,1,1,1,294.97,1.24,27045.10,120.23,1.49,6626.13,97.72,0.39,9257.26,78.92,-0.36,1873.00,271.33,-0.18,1721.07
1361000,852.39,860.16,1.00,1,1,1,61.74,1.99,6731.02,235.59,0.01,6750.27,176.86,0.10,2325.49,205.76,-0.23,3393.84,260.34,-0.22,399.99
1375400,865.62,858.19,1.00,2,2,2,928.98,-0.15,66931.32,496.98,-0.33,19897.14,232.31,-0.25,6235.34,382.77,-0.14,12428.44,275.03,-0.23,1031.95
1390900,866.43,855.31,1.00,2,2,2,192.96,-1.30,55976.64,263.50,-0.67,16969.49,633.42,-0.26,25879.85,570.04,-0.11,12109.50,299.42,-0.21,1645.39
1404900,871.71,853.36,1.00,1,1,1,402.12,-0.35,23446.07,779.37,-0.21,39663.83,819.87,-0.22,13455.37,639.84,-0.18,5764.22,364.81,-0.23,4714.45
1419300,888.07,850.66,1.00,1,1,1,1151.33,-0.16,52783.82,1292.35,-0.15,35864.80,1074.68,-0.15,18285.55,693.93,-0.22,4289.03,402.66,-0.24,2629.21
1441500,918.47,846.20,1.00,1,1,1,1383.90,-0.15,10528.11,1304.13,-0.12,1673.16,1143.90,-0.16,3128.64,585.35,-0.22,4892.00,383.56,-0.22,913.95
1456100,935.69,844.68,1.00,1,1,1,1184.09,-0.09,14584.73,959.78,-0.17,23801.44,747.74,-0.19,27217.96,628.06,-0.18,3293.72,282.24,-0.15,7086.92
1471000,946.39,841.51,1.00,1,1,1,749.10,-0.29,31811.26,123.59,-1.24,60876.29,319.50,-0.20,28742.13,701.81,-0.22,5189.09,107.80,-0.08,11739.97
1485800,936.89,841.21,1.00,1,1,1,642.22,-3.11,92819.20,337.43,3.04,27381.77,140.78,-0.42,12489.22,632.03,-0.24,4818.43,36.76,2.63,9596.74
1499800,936.72,842.49,1.00,1,1,1,91.88,1.70,45685.51,216.86,0.01,39537.34,272.51,-0.46,9423.75,388.38,-0.32,17663.38,159.88,2.99,9013.18
1515300,943.29,841.26,1.00,1,1,1,430.97,-0.19,30180.88,727.60,-0.34,34091.44,517.97,-0.31,16280.74,62.09,-2.78,28278.98,205.86,2.96,2992.11
1537500,962.62,833.44,1.00,1,1,1,939.20,-0.38,23588.55,769.61,-0.37,2297.72,451.29,-0.40,3617.45,519.92,2.92,21133.09,203.88,3.00,367.68
1552100,969.64,830.89,1.00,2,2,2,511.98,-0.35,29310.47,117.18,-0.91,45977.14,222.87,3.10,45540.25,756.57,2.89,16257.10,270.51,2.97,4582.70
1567200,964.76,830.70,1.00,2,2,2,323.49,-3.10,54349.24,1410.71,2.88,99731.99,1406.04,2.87,78803.74,856.43,2.95,7255.46,374.68,2.98,6902.87
1582400,928.35,841.93,1.00,1,1,1,2506.91,2.84,145019.19,2927.73,2.85,99910.08,2166.61,2.88,50046.27,989.39,2.96,8773.82,431.86,3.00,3782.30
1596500,882.70,855.69,1.00,1,1,1,3381.41,2.85,62034.33,2940.39,2.88,6577.84,2192.31,2.91,4679.91,1069.07,2.95,5677.28,444.42,3.00,891.65
1612000,844.34,864.67,1.00,1,1,1,2541.97,2.91,55459.29,1609.29,2.99,87442.78,1779.43,2.94,27052.52,1131.49,2.94,4201.29,386.26,2.98,3800.78
1632800,824.91,864.25,1.00,1,1,1,934.00,-3.12,79507.79,837.72,3.14,37926.26,827.74,3.06,46240.06,966.83,2.93,7918.49,382.25,3.00,436.55
1647700,814.43,864.83,1.00,1,1,1,704.68,3.09,15949.27,196.10,-2.78,44207.42,364.01,-3.08,31562.87,728.29,2.97,16127.87,402.72,3.00,1376.50
1676200,816.96,861.22,1.00,1,1,1,154.79,-0.96,28405.88,49.93,-1.03,7399.57,132.67,-3.04,8123.14,388.41,3.08,12114.53,491.22,2.95,3185.28
1691200,815.56,862.97,1.00,1,1,1,149.93,2.25,20303.96,95.76,2.78,9240.51,31.68,-2.11,7767.38,111.04,-2.84,19153.34,525.26,2.93,2337.57
1728400,812.29,863.00,1.00,1,1,1,87.75,3.13,3130.66,53.49,-2.87,1650.61,41.98,-0.54,1418.94,41.16,-1.22,3235.49,549.26,2.91,713.83
1743400,812.86,862.23,1.00,1,1,1,63.78,-0.93,9075.69,280.66,-0.43,21556.32,148.18,-0.30,7183.44,96.15,-0.46,4807.73,396.19,2.93,10222.79
1758400,819.93,859.45,1.00,1,1,1,506.14,-0.37,30214.61,484.66,-0.20,14763.32,255.87,-0.31,7179.78,68.91,-0.15,2453.88,194.71,3.00,13485.12
1773600,827.21,859.32,1.00,1,1,1,478.90,-0.02,11608.06,236.21,-0.17,16357.55,255.27,-0.26,824.60,36.24,-0.14,2149.39,19.20,-1.89,12657.88
1789400,827.14,858.20,1.00,1,1,1,70.98,-1.63,30812.35,44.77,-0.99,13175.74,111.38,0.04,9656.77,33.59,2.11,3986.74,80.41,-0.34,5201.43
1804700,827.97,858.16,1.00,1,1,1,54.18,-0.05,5845.65,52.77,1.85,6303.73,101.66,2.71,13543.55,40.42,0.73,3093.67,45.78,-0.52,2376.04
1819300,826.71,859.72,1.00,1,1,1,137.56,2.25,12222.87,220.87,2.62,12780.55,284.62,2.68,12537.14,65.28,0.55,1811.18,68.91,-0.15,2124.88
1841400,820.95,862.20,1.00,2,2,2,283.90,2.74,7887.17,486.81,2.74,12172.77,205.72,2.55,3820.21,121.99,0.01,3365.98,36.24,-0.14,1478.31
1856300,810.10,866.70,1.00,2,2,2,787.78,2.75,33819.70,188.05,2.46,20863.11,61.90,1.50,12300.68,152.85,-0.08,2215.28,33.59,2.11,4227.55
1870500,816.70,865.65,1.00,2,2,2,470.31,-0.16,88020.93,585.00,-0.17,53131.41,373.05,-0.13,26872.80,15.42,3.12,11848.56,40.42,0.73,3333.32
1885600,827.00,863.81,1.00,2,2,2,692.91,-0.18,14759.63,903.99,-0.24,21369.50,637.06,-0.27,18077.09,61.90,1.50,4270.81,65.28,0.55,1751.21
1900000,842.63,859.41,1.00,1,1,1,1127.44,-0.27,30764.87,693.79,-0.35,15971.87,176.93,-0.68,33325.72,373.05,-0.13,26499.57,121.99,0.01,5165.84
1915300,846.33,856.67,1.00,1,1,1,301.11,-0.64,55740.17,446.56,-3.07,72927.17,693.79,-0.35,34584.29,637.06,-0.27,17840.78,152.85,-0.08,2157.36
1937500,825.93,858.20,1.00,1,1,1,921.63,3.07,53476.35,921.63,3.07,21818.35,446.56,-3.07,50260.62,176.93,-0.68,21616.68,15.42,3.12,7578.81
