@RELATION gaze_labels

%@METADATA width_px 1920
%@METADATA height_px 1080
%@METADATA width_mm 540.00
%@METADATA height_mm 254.00
%@METADATA distance_mm 620.00


@ATTRIBUTE time INTEGER
@ATTRIBUTE x NUMERIC
@ATTRIBUTE y NUMERIC
@ATTRIBUTE confidence NUMERIC
@ATTRIBUTE handlabeller1 INTEGER
@ATTRIBUTE handlabeller2 INTEGER
@ATTRIBUTE handlabeller_final INTEGER
@ATTRIBUTE speed_1 numeric
@ATTRIBUTE direction_1 numeric
@ATTRIBUTE acceleration_1 numeric
@ATTRIBUTE speed_2 numeric
@ATTRIBUTE direction_2 numeric
@ATTRIBUTE acceleration_2 numeric
@ATTRIBUTE speed_4 numeric
@ATTRIBUTE direction_4 numeric
@ATTRIBUTE acceleration_4 numeric
@ATTRIBUTE speed_8 numeric
@ATTRIBUTE direction_8 numeric
@ATTRIBUTE acceleration_8 numeric
@ATTRIBUTE speed_16 numeric
@ATTRIBUTE direction_16 numeric
@ATTRIBUTE acceleration_16 numeric

%The number after speed, direction denotes the step size that was used for the calculation.
%Acceleration was calculated between two adjacent samples of the already low pass filtered velocity

@DATA
0,831.69,851.25,1.00,1,1,1,0.00,0.00,0.00,228.12,-2.56,0.00,547.85,-3.11,0.00,657.60,3.10,0.00,20.05,-1.68,0.00
14500,828.92,849.44,1.00,1,1,1,228.12,-2.56,15732.43,547.85,-3.11,25697.11,994.60,3.02,31843.47,409.39,3.01,17406.43,200.73,0.04,14120.34
29800,815.37,850.73,1.00,1,1,1,889.69,3.05,47433.55,994.60,3.02,30178.46,657.60,3.10,22459.32,122.93,2.99,18726.01,324.21,0.01,8093.15
44400,799.42,853.19,1.00,1,1,1,1105.39,2.99,15282.78,768.49,3.05,15592.33,409.39,3.01,17287.21,181.76,-0.40,20718.28,320.72,-0.04,1129.04
60000,792.27,852.96,1.00,1,1,1,458.59,-3.11,42304.78,50.03,-0.05,52466.33,122.93,2.99,18365.90,20.05,-1.68,11348.02,326.72,-0.06,539.66
82500,801.32,853.09,1.00,1,1,1,402.45,0.01,38266.90,380.15,-0.06,14672.02,181.76,-0.40,13443.86,200.73,0.04,9099.77,135.14,-0.20,8613.77
98800,806.99,852.04,1.00,1,1,1,353.56,-0.18,5454.60,350.16,-0.46,9044.34,484.32,-0.12,19266.58,324.21,0.01,7596.64,51.01,-0.35,5220.86
113100,810.92,848.33,1.00,1,1,1,378.21,-0.76,14582.12,580.19,-0.15,18862.22,762.97,-0.04,19730.84,320.72,-0.04,1152.73,64.34,-3.11,7919.89
141300,831.38,848.43,1.00,1,1,1,725.60,0.01,18513.06,1084.47,0.05,18729.69,650.34,-0.01,4058.19,326.72,-0.06,298.53,180.67,-3.10,4125.52
155900,857.27,850.71,1.00,1,1,1,1780.32,0.09,72527.81,714.92,0.07,25350.86,432.67,0.07,15190.46,135.14,-0.20,13274.65,179.40,-3.13,394.02
193100,868.31,851.20,1.00,2,2,2,296.98,0.04,39883.68,107.67,3.08,22090.34,172.78,0.10,6990.01,51.01,-0.35,2287.64,62.60,3.12,3141.30
207600,851.72,851.04,1.00,1,1,1,1144.46,-3.13,99400.25,766.66,-3.08,45509.05,435.27,-3.09,41924.38,64.34,-3.11,7810.65,8.88,-0.20,4921.20
223000,845.43,849.81,1.00,1,1,1,416.01,-2.95,48013.65,1004.91,-3.07,15479.07,913.92,-3.11,31087.44,350.61,3.13,18594.18,163.48,0.03,10055.29
237400,821.84,848.96,1.00,1,1,1,1639.08,-3.11,85415.69,1065.20,-3.13,5726.09,765.26,-3.08,10421.95,540.79,-3.12,13249.76,101.47,0.08,4329.73
252200,814.33,849.33,1.00,1,1,1,508.24,3.09,76590.55,573.38,-3.10,33266.74,992.61,-3.13,15627.94,562.27,-3.14,1658.92,30.10,1.49,6837.22
274600,800.53,848.01,1.00,1,1,1,618.73,-3.05,6132.44,935.81,-3.14,16228.47,669.12,-3.14,14446.16,393.71,3.11,7557.58,58.47,1.54,1269.54
289500,779.42,849.12,1.00,1,1,1,1418.67,3.09,54491.64,789.15,3.10,10186.40,255.40,3.03,27925.38,60.00,2.48,23278.12,135.26,2.53,7678.53
304600,776.88,848.94,1.00,1,1,1,169.11,-3.07,82849.00,597.73,0.11,91579.89,81.93,1.28,18691.57,81.09,0.65,7473.08,302.62,2.93,12249.94
319500,797.24,851.17,1.00,1,1,1,1374.72,0.11,103605.51,858.93,0.15,17603.83,1016.31,0.09,66363.25,98.61,2.10,8079.47,251.61,2.86,3656.70
334100,801.94,852.68,1.00,1,1,1,338.04,0.31,71622.00,1445.20,0.08,40519.59,816.77,0.12,13823.27,150.00,1.02,9259.64,164.02,2.73,6239.07
348800,839.46,854.42,1.00,2,2,2,2555.10,0.05,151733.37,783.25,0.10,45055.69,213.63,0.74,44511.36,209.91,0.82,4741.47,168.87,2.76,457.97
370700,830.47,855.47,1.00,2,2,2,413.23,3.03,135326.03,885.51,2.95,75397.82,202.83,0.95,2060.58,149.93,1.80,8101.39,67.67,1.84,6338.68
385400,807.65,860.65,1.00,2,2,2,1591.64,2.92,80380.51,494.70,2.64,30008.03,537.12,2.76,41980.39,135.45,1.32,4735.93,77.13,0.88,4598.27
414600,811.45,865.95,1.00,1,1,1,223.39,0.95,57905.00,295.57,2.26,8392.18,817.73,2.91,10209.71,123.88,1.09,1110.88,115.26,0.52,1740.17
429300,799.38,870.64,1.00,1,1,1,880.95,2.77,65375.22,1339.92,3.06,78387.42,138.43,2.08,49777.56,255.86,2.81,20480.74,217.13,0.24,7552.13
444100,772.06,869.30,1.00,1,1,1,1847.84,-3.09,74555.39,74.69,-0.05,95577.63,45.67,1.90,6337.38,119.52,2.42,10321.27,209.14,0.23,555.29
466900,802.18,870.51,1.00,1,1,1,1322.14,0.04,139032.78,1023.82,-0.01,41630.42,37.64,-1.24,3653.91,132.88,0.30,9648.73,94.25,0.45,5222.26
481600,810.45,868.84,1.00,1,1,1,573.94,-0.20,52831.71,75.95,-2.15,72563.15,548.60,-0.03,36473.01,118.96,-0.03,2957.94,47.03,1.26,4789.96
510200,800.38,867.76,1.00,1,1,1,354.31,-3.03,32098.74,143.41,-0.18,6532.49,306.64,-0.12,8539.23,271.42,-0.13,5370.10,95.88,2.60,3377.84
525400,816.64,867.74,1.00,1,1,1,1069.67,-0.00,93579.79,632.74,-0.01,32353.86,214.57,-0.17,6118.14,407.05,-0.09,8977.18,116.48,2.70,1522.22
555900,829.29,867.36,1.00,1,1,1,415.09,-0.03,21470.44,273.50,-0.16,11950.99,520.50,-0.07,10087.86,140.02,-0.32,8937.41,20.67,1.58,3577.91
578300,830.91,865.40,1.00,1,1,1,113.58,-0.88,15650.31,386.47,-0.18,5048.69,270.88,-0.19,11326.06,31.19,-2.59,7226.87,29.37,-0.50,1936.50
593200,843.48,864.80,1.00,1,1,1,844.13,-0.05,51822.29,266.80,-0.24,8132.75,109.35,-2.62,24218.13,99.49,0.12,8622.30,161.20,-0.22,8946.35
608600,838.77,863.49,1.00,1,1,1,317.18,-2.87,74653.68,692.48,-3.09,61763.03,413.12,3.11,21137.09,123.73,3.00,14367.14,280.74,-0.09,7960.99
622900,822.94,863.71,1.00,1,1,1,1107.16,3.13,56474.85,1112.02,3.06,30545.10,491.19,2.98,6720.23,162.01,-3.12,3138.06,229.26,-0.05,3673.33
637900,806.31,866.28,1.00,1,1,1,1121.97,2.99,10431.27,340.32,2.54,55504.12,676.30,2.97,12347.13,99.47,-2.85,4744.55,121.56,0.16,7539.39
653000,814.48,869.48,1.00,2,2,2,581.38,0.37,109307.01,272.00,2.63,4835.41,234.38,2.93,29282.48,35.58,-1.23,7117.08,196.55,0.10,5008.09
668000,799.18,870.31,1.00,2,2,2,1021.49,3.09,104611.32,199.46,-2.79,13956.07,201.04,-0.34,28966.18,114.11,-0.10,6933.63,163.43,-0.01,2570.36
689700,807.62,866.93,1.00,1,1,1,418.79,-0.38,65645.28,591.14,-0.41,34482.90,481.44,-0.28,12945.41,349.33,0.08,10970.02,160.11,-0.14,948.87
704300,818.90,861.84,1.00,1,1,1,847.64,-0.42,29427.46,1293.52,-0.17,50153.15,832.70,-0.15,24732.66,298.99,0.21,4374.36,168.46,-0.22,1043.32
719000,844.98,860.58,1.00,1,1,1,1776.58,-0.05,70478.99,1173.62,0.01,16822.29,1002.97,0.01,15269.08,301.36,0.09,2442.18,142.53,-0.37,2379.02
733300,852.93,862.09,1.00,1,1,1,565.76,0.19,86263.67,769.10,0.31,34505.05,438.96,0.45,44308.15,471.87,-0.05,12469.03,127.96,-0.27,1384.50
748600,866.69,867.43,1.00,1,1,1,964.85,0.37,27536.86,391.11,2.13,61927.91,232.79,0.93,16785.49,501.00,-0.09,2188.86,86.46,-0.28,2712.66
770600,845.14,874.42,1.00,1,1,1,1029.84,2.83,85421.68,372.21,2.73,10135.96,149.01,0.53,5103.44,423.64,-0.10,3540.17,296.85,-0.03,9733.37
785300,854.20,872.96,1.00,1,1,1,624.27,-0.16,112212.88,603.56,-0.42,66378.45,104.07,-1.00,12098.32,261.31,-0.27,11637.49,90.29,0.06,14088.42
800400,861.57,867.11,1.00,1,1,1,623.22,-0.67,20845.07,655.36,-0.61,8706.35,538.74,-0.59,29496.00,142.32,-0.39,8027.99,76.45,3.06,11013.84
815600,870.47,861.57,1.00,1,1,1,689.35,-0.56,6520.64,494.52,-0.78,12327.17,508.50,-0.74,5820.10,163.78,-2.70,18440.00,345.53,3.14,17723.50
831800,872.61,856.20,1.00,1,1,1,357.36,-1.19,27995.28,381.16,-0.97,8644.84,212.90,-0.89,18476.67,308.99,-0.23,27690.03,479.89,-3.13,8300.44
846800,877.19,851.76,1.00,1,1,1,424.76,-0.77,11757.37,43.02,-1.89,23792.85,330.46,-2.97,31549.32,83.50,-3.01,25873.12,652.45,-3.12,11513.30
877900,871.99,854.32,1.00,1,1,1,186.44,2.69,19448.40,705.34,2.97,22515.90,213.31,0.46,17302.03,529.01,3.08,14383.10,400.54,-3.07,8135.71
892600,845.37,857.35,1.00,2,2,2,1822.02,3.03,112079.89,520.89,0.54,78335.94,414.64,2.65,38463.64,953.05,3.11,28874.56,457.89,-3.05,3932.74
914600,888.42,864.09,1.00,2,2,2,1980.34,0.16,171279.69,272.01,1.88,24163.21,1167.28,2.96,35546.64,1141.15,3.12,8573.54,402.31,-2.96,3114.28
946100,840.89,871.19,1.00,3,3,3,1525.57,2.99,110039.59,2420.72,3.07,74039.23,1447.25,3.07,10119.37,1317.36,3.13,5594.70,516.40,-3.03,3767.65
960800,776.87,872.10,1.00,1,1,1,4355.71,3.13,193955.96,3073.31,-3.11,48307.67,2353.18,-3.12,62587.00,885.45,-3.13,29431.37,501.43,-3.07,1623.64
990800,703.58,866.94,1.00,1,1,1,2449.02,-3.07,64219.67,2305.12,-3.02,26748.64,2594.06,-3.06,9498.72,724.75,-3.12,5369.76,515.36,-3.11,907.12
1005600,674.32,859.93,1.00,1,1,1,2033.00,-2.91,37492.92,1895.07,-2.94,30192.75,646.51,-2.75,134411.05,1031.60,-3.07,20946.08,476.08,-3.13,2711.61
1020600,648.27,855.54,1.00,1,1,1,1761.16,-2.97,20069.41,1909.63,-0.11,250482.78,375.82,-0.50,61928.36,1009.07,-3.03,2914.51,544.55,3.13,4619.80
1036000,732.00,853.38,1.00,1,1,1,5439.03,-0.03,465945.38,2080.85,-0.01,17473.86,769.29,-0.15,28352.24,482.00,-2.90,34738.62,542.37,-3.14,383.54
1057800,725.67,854.86,1.00,1,1,1,298.12,2.91,262904.27,177.30,-2.99,103484.20,761.69,0.00,5291.16,119.64,-0.70,25735.50,410.09,3.12,6081.79
1072900,725.54,852.37,1.00,1,1,1,165.03,-1.63,24175.56,896.59,3.11,47893.46,323.92,3.02,71779.44,394.90,-0.10,20093.71,511.88,-3.13,6788.74
1087400,699.15,855.74,1.00,1,1,1,1834.76,3.01,127870.04,522.57,2.90,27526.06,181.89,2.92,9938.66,463.93,-0.04,5162.96,199.72,-2.99,21748.84
1101900,710.81,855.93,1.00,1,1,1,804.20,0.02,181601.87,540.95,0.09,72356.16,36.44,1.13,13325.83,132.88,3.09,41158.28,160.46,-0.26,24323.63
1117100,715.15,857.21,1.00,1,1,1,297.70,0.29,34441.92,430.99,-0.09,9222.05,167.66,-0.22,10746.04,37.84,1.42,9332.99,450.06,-0.08,19309.88
1138600,726.56,854.53,1.00,2,2,2,545.44,-0.23,15001.59,174.54,-2.50,26640.34,60.13,-0.44,5108.32,166.97,0.53,6794.75,546.91,-0.03,4668.72
1153800,710.02,853.37,1.00,2,2,2,1090.74,-3.07,106561.89,407.31,-3.12,18679.27,174.70,0.20,8653.26,717.90,0.08,37617.81,566.86,-0.01,1508.90
1168400,714.43,854.23,1.00,2,2,2,307.45,0.19,95639.73,602.96,0.36,68260.33,319.91,0.46,10771.20,851.50,0.05,9374.91,256.50,-0.00,21257.67
1182800,726.39,859.53,1.00,1,1,1,908.32,0.42,42515.27,1035.79,0.29,30303.72,1354.29,0.13,73409.81,752.80,-0.01,7467.61,330.74,-0.01,5159.07
1197700,743.51,862.91,1.00,1,1,1,1171.34,0.19,23380.27,2118.65,0.06,76134.75,1738.04,0.06,26530.13,691.85,0.01,4141.90,166.97,0.53,13890.52
1212100,788.35,863.33,1.00,1,1,1,3113.88,0.01,137120.67,2445.57,-0.03,26562.43,1217.13,-0.03,37425.44,655.90,0.00,2502.17,717.90,0.08,39707.68
1228300,818.32,860.96,1.00,1,1,1,1855.83,-0.08,78749.10,732.42,-0.18,106480.01,988.99,-0.10,14754.70,587.53,-0.01,4267.92,851.50,0.05,8449.00
1265200,826.63,856.48,1.00,1,1,1,255.90,-0.49,44036.72,158.52,-0.79,16516.29,258.50,-0.40,20221.81,581.11,-0.06,827.89,752.80,-0.01,2914.19
1279500,824.04,855.21,1.00,1,1,1,202.06,-2.68,28514.88,364.83,-2.96,33097.37,153.82,-2.57,25761.98,988.99,-0.10,28570.78,691.85,0.01,4315.68
1308100,811.23,853.72,1.00,1,1,1,451.04,-3.03,9420.77,409.71,-3.02,1757.05,80.34,-2.65,2587.75,258.50,-0.40,26090.38,655.90,0.00,1259.83
1324100,805.90,853.03,1.00,1,1,1,335.85,-3.01,7205.87,257.00,-0.03,41562.91,409.71,-3.02,21001.33,153.82,-2.57,23024.77,587.53,-0.01,4321.27
1345800,820.91,853.45,1.00,1,1,1,692.20,0.03,47323.06,692.20,0.03,20084.06,257.00,-0.03,30645.46,80.34,-2.65,3410.58,581.11,-0.06,1407.80
