@RELATION gaze_labels

%@METADATA width_px 1920
%@METADATA height_px 1080
%@METADATA width_mm 540.00
%@METADATA height_mm 254.00
%@METADATA distance_mm 620.00


@ATTRIBUTE time INTEGER
@ATTRIBUTE x NUMERIC
@ATTRIBUTE y NUMERIC
@ATTRIBUTE confidence NUMERIC
@ATTRIBUTE handlabeller1 INTEGER
@ATTRIBUTE handlabeller2 INTEGER
@ATTRIBUTE handlabeller_final INTEGER
@ATTRIBUTE speed_1 numeric
@ATTRIBUTE direction_1 numeric
@ATTRIBUTE acceleration_1 numeric
@ATTRIBUTE speed_2 numeric
@ATTRIBUTE direction_2 numeric
@ATTRIBUTE acceleration_2 numeric
@ATTRIBUTE speed_4 numeric
@ATTRIBUTE direction_4 numeric
@ATTRIBUTE acceleration_4 numeric
@ATTRIBUTE speed_8 numeric
@ATTRIBUTE direction_8 numeric
@ATTRIBUTE acceleration_8 numeric
@ATTRIBUTE speed_16 numeric
@ATTRIBUTE direction_16 numeric
@ATTRIBUTE acceleration_16 numeric

%The number after speed, direction denotes the step size that was used for the calculation.
%Acceleration was calculated between two adjacent samples of the already low pass filtered velocity

@DATA
0,1352.02,865.53,1.00,1,1,1,0.00,0.00,0.00,569.58,-2.76,0.00,684.90,-3.09,0.00,991.18,2.99,0.00,131.96,-3.14,0.00
13900,1344.68,862.55,1.00,1,1,1,569.58,-2.76,40976.96,684.90,-3.09,17055.61,980.43,2.92,26721.80,1020.82,2.97,2567.69,83.59,2.92,3890.87
29000,1332.18,864.48,1.00,1,1,1,837.63,2.99,30152.70,980.43,2.92,24598.21,991.18,2.99,4843.57,573.25,2.96,29647.12,111.76,0.21,12634.64
43600,1316.28,868.98,1.00,1,1,1,1131.78,2.87,21733.31,1310.73,2.89,22737.00,1020.82,2.97,2444.58,31.83,-2.25,38271.11,251.26,0.05,9741.52
58700,1294.48,874.18,1.00,1,1,1,1484.31,2.91,23615.82,1056.09,3.01,19422.65,573.25,2.96,29647.12,131.96,-3.14,7583.18,434.84,-0.01,12213.94
79700,1278.47,873.84,1.00,1,1,1,762.63,-3.12,36701.96,82.23,-1.35,51773.75,31.83,-2.25,26607.53,83.59,2.92,2575.39,681.42,0.01,11746.69
94700,1295.14,871.29,1.00,1,1,1,1124.39,-0.15,125349.43,835.63,-0.19,53749.79,500.89,-0.22,34387.29,111.76,0.21,12718.87,652.12,0.09,4120.88
123800,1314.68,866.99,1.00,1,1,1,687.45,-0.22,15141.88,882.14,-0.15,1921.74,680.88,-0.16,6313.92,251.26,0.05,4887.50,430.07,0.26,8278.84
138900,1333.69,865.43,1.00,1,1,1,1263.20,-0.08,39024.97,495.86,-0.09,25702.16,569.76,-0.05,8469.04,434.84,-0.01,12213.94,129.75,0.61,20612.47
160400,1332.75,865.29,1.00,2,2,2,44.31,-2.99,60761.02,316.01,0.18,9715.05,518.22,0.09,4410.76,681.42,0.01,11473.51,118.13,0.81,1277.43
190900,1349.87,868.30,1.00,1,1,1,570.01,0.17,20141.22,548.13,0.23,7643.23,395.00,0.26,4736.85,652.12,0.09,2026.66,84.53,1.53,2555.57
205800,1356.99,870.90,1.00,1,1,1,508.81,0.35,7558.19,536.74,0.34,4349.88,701.87,0.18,20800.93,430.07,0.26,16168.73,68.87,1.91,2208.06
220700,1364.92,873.71,1.00,1,1,1,564.69,0.34,3764.33,944.68,0.13,29231.58,806.84,0.25,8000.53,361.52,0.41,6076.52,51.18,1.45,2170.71
234800,1384.16,874.45,1.00,1,1,1,1365.10,0.04,59775.79,1087.03,0.20,11413.90,347.38,0.59,34966.39,278.00,0.57,6836.97,54.60,1.38,367.92
249800,1395.90,880.12,1.00,1,1,1,869.31,0.45,44406.70,339.37,2.31,86275.50,334.45,0.64,1500.72,195.53,2.23,23599.96,75.77,2.16,3550.26
271100,1375.83,883.53,1.00,1,1,1,955.62,2.97,81625.92,415.46,2.68,7343.16,253.42,2.39,21279.38,363.00,2.79,10463.07,91.29,2.12,745.27
286100,1382.40,886.85,1.00,1,1,1,490.98,0.47,92109.73,185.50,2.50,15666.22,783.07,2.99,39381.07,476.57,2.91,8301.38,109.61,2.20,1338.61
315700,1369.18,888.45,1.00,2,2,2,449.94,3.02,30424.20,1101.36,3.08,32125.61,891.17,3.07,4293.71,699.51,2.99,7694.39,96.47,1.93,1031.49
330900,1333.16,889.98,1.00,2,2,2,2371.87,3.10,126553.47,1977.13,3.14,57921.54,1043.97,3.11,10370.81,770.57,3.05,5534.53,153.78,2.48,5737.47
346000,1309.27,888.59,1.00,1,1,1,1584.61,-3.08,53712.42,976.95,-3.14,66238.09,1299.54,3.12,16974.68,530.98,3.06,15873.48,103.94,2.54,3338.94
368600,1296.33,889.93,1.00,1,1,1,575.80,3.04,45154.06,746.85,3.09,10401.37,760.02,3.13,23877.30,478.19,3.08,2372.58,52.99,2.65,2284.32
383100,1281.61,890.11,1.00,1,1,1,1015.42,3.13,30694.59,479.19,3.11,18481.41,125.97,3.03,43779.57,364.52,3.09,7846.26,6.62,-2.21,3614.51
397700,1282.39,890.39,1.00,1,1,1,57.08,0.34,73230.65,655.44,-0.03,77714.18,320.03,0.05,30466.20,127.16,2.89,16521.95,36.06,-1.10,2305.70
412600,1300.93,889.49,1.00,1,1,1,1245.75,-0.05,80075.18,1107.37,0.02,30462.45,702.56,0.01,25705.16,182.48,-0.06,20695.38,60.41,-0.26,3036.23
427200,1315.06,890.96,1.00,1,1,1,972.49,0.10,21928.69,750.85,0.06,24532.22,518.54,0.11,13199.99,395.27,-0.16,14684.17,46.67,2.90,7334.24
442200,1323.12,890.72,1.00,1,1,1,538.17,-0.03,29660.08,97.33,1.09,47083.46,489.91,-0.08,6501.85,730.49,-0.17,22349.17,11.27,3.01,2365.66
464300,1316.72,894.16,1.00,2,2,2,329.03,2.65,38251.70,297.77,-0.34,13583.73,456.59,-0.27,4403.31,770.41,-0.17,1806.76,107.28,0.03,5358.30
479400,1333.57,887.01,1.00,2,2,2,1211.73,-0.40,101964.24,816.03,-0.36,34331.01,764.72,-0.29,20420.60,573.97,-0.11,13220.63,219.46,-0.04,7463.91
509800,1351.41,880.92,1.00,1,1,1,620.28,-0.33,19564.29,1155.48,-0.28,11505.31,978.47,-0.28,7041.59,329.35,-0.01,8174.53,241.30,-0.11,903.49
523900,1383.01,872.91,1.00,1,1,1,2312.16,-0.25,120188.78,1152.65,-0.21,5550.18,633.03,-0.13,25729.56,263.79,-0.04,4690.33,251.91,-0.09,867.40
553700,1400.90,870.37,1.00,1,1,1,606.25,-0.14,57402.41,237.48,0.51,33133.56,244.61,0.50,15396.05,305.80,-0.07,1431.16,252.44,-0.12,293.30
575100,1393.60,878.89,1.00,1,1,1,524.35,2.28,49451.49,1046.86,2.59,55144.24,289.27,2.39,20275.05,251.30,-0.03,2604.55,236.15,-0.12,766.00
589900,1368.64,890.25,1.00,1,1,1,1853.10,2.71,94278.94,993.21,2.79,14581.87,638.07,2.63,24598.60,88.63,0.11,11072.94,241.53,-0.01,1701.28
604700,1365.95,888.89,1.00,1,1,1,203.47,-2.67,117125.04,152.79,3.00,57037.15,372.23,2.82,18953.33,208.26,2.79,19614.23,300.40,0.07,4286.65
619700,1364.13,890.90,1.00,1,1,1,181.00,2.31,15609.36,241.18,-0.41,26038.11,156.68,-2.12,24706.29,357.81,2.91,10209.66,266.19,0.08,2281.48
634700,1372.58,885.99,1.00,1,1,1,651.71,-0.53,55067.76,287.99,-1.61,20111.95,192.57,-2.73,7319.15,198.49,3.03,10856.16,37.83,1.68,18014.57
649800,1363.75,882.24,1.00,1,1,1,635.21,-2.74,76218.38,499.39,-3.02,35274.27,200.39,-2.35,4856.99,128.30,-0.01,21618.50,232.59,2.96,14861.81
672000,1354.10,883.65,1.00,1,1,1,439.24,3.00,15567.23,247.72,-3.05,11349.57,88.00,-2.30,5072.86,352.09,0.19,10260.85,474.99,3.02,10957.71
686400,1354.72,881.41,1.00,2,2,2,161.28,-1.30,36490.28,500.73,-0.14,51668.02,339.09,0.35,29085.89,228.08,0.32,9002.87,557.53,3.04,5762.67
701400,1368.68,881.60,1.00,2,2,2,930.59,0.01,60211.13,1054.71,0.28,42077.52,968.97,0.24,42222.50,315.32,2.85,34607.76,417.38,3.09,9531.11
716100,1384.83,890.06,1.00,2,2,2,1240.18,0.48,39948.13,1480.84,0.36,29864.71,694.06,0.47,22645.57,566.18,3.00,17599.03,286.51,-3.03,9671.03
731000,1409.64,897.21,1.00,2,2,2,1732.82,0.28,38536.99,402.96,0.99,79025.78,599.72,2.72,78435.44,796.37,3.09,15921.18,321.57,-3.05,2406.70
745600,1391.37,899.98,1.00,3,3,3,1265.22,2.99,200706.72,2100.99,3.13,160587.26,1428.44,3.12,61957.41,770.81,3.10,1804.84,236.38,-3.04,5843.49
767800,1332.32,897.85,1.00,1,1,1,2661.66,-3.11,64759.65,2726.05,-3.07,29464.97,2321.12,-3.09,40739.38,612.49,3.11,7144.50,200.47,-3.11,1767.20
783300,1288.87,892.56,1.00,1,1,1,2824.17,-3.02,18359.88,2596.35,-3.03,11043.74,1994.36,-3.04,22304.98,604.28,-3.05,4842.32,114.68,3.06,5642.85
798300,1253.65,888.82,1.00,1,1,1,2361.10,-3.04,30987.15,1086.08,-2.93,101290.02,693.10,-2.88,87627.74,836.34,-3.02,15526.13,88.63,3.12,1773.95
813400,1256.92,885.65,1.00,1,1,1,301.83,-0.77,169841.33,631.36,-0.16,111863.56,124.58,-1.82,42482.91,557.85,-2.98,18557.70,71.59,3.12,1128.52
843400,1281.74,884.17,1.00,1,1,1,828.94,-0.06,21067.57,438.11,-0.17,6441.62,212.00,-0.41,7591.88,145.85,-2.56,14280.29,123.39,3.11,1726.94
880500,1285.92,880.82,1.00,1,1,1,144.34,-0.68,19304.10,185.95,-2.76,16308.92,313.40,-0.07,3619.79,235.98,-0.19,9586.86,221.26,-3.07,2676.24
896000,1272.65,880.57,1.00,1,1,1,856.12,-3.12,62666.59,147.06,0.38,21484.61,301.91,-0.01,1405.11,429.93,-0.06,12776.32,371.00,-3.05,9670.86
926000,1292.13,883.30,1.00,1,1,1,655.69,0.14,50303.36,860.25,0.09,24022.09,574.59,0.10,9203.82,443.84,-0.05,488.60,397.21,-3.04,880.09
941000,1311.21,883.98,1.00,1,1,1,1272.81,0.04,41620.02,1244.58,0.05,25778.48,737.82,0.07,10958.65,296.77,-0.03,9820.01,349.27,-3.02,3239.76
955500,1328.80,885.03,1.00,1,1,1,1215.56,0.06,4442.97,553.21,0.02,47704.04,690.01,-0.04,6092.48,221.71,0.15,6019.89,260.16,-3.01,6148.40
970700,1327.63,884.33,1.00,1,1,1,89.57,-2.60,85240.17,182.81,-0.62,27709.72,289.60,-0.06,26350.95,175.38,0.25,3340.72,191.80,-3.03,4502.53
985700,1333.30,881.82,1.00,1,1,1,412.77,-0.42,31338.74,91.57,-0.44,6274.53,173.62,3.11,30879.10,177.61,2.94,22934.97,241.45,-3.13,3632.39
1008700,1330.78,882.85,1.00,1,1,1,118.01,2.76,23075.15,446.58,2.92,23316.81,469.61,3.06,12880.32,654.50,3.13,20915.29,429.91,3.12,8204.38
1022800,1317.12,885.43,1.00,2,2,2,985.74,2.95,61728.23,1215.87,3.03,54839.53,951.26,3.05,34168.24,850.16,-3.12,14035.45,533.24,3.10,7363.91
1037000,1296.59,886.75,1.00,2,2,2,1448.83,3.08,34220.59,1589.82,3.09,27076.48,1741.22,3.12,56003.64,902.90,-3.12,3734.74,509.05,3.11,1721.43
1052400,1270.12,887.75,1.00,1,1,1,1720.07,3.10,17814.06,2235.74,-3.12,42882.07,1455.94,-3.11,19366.73,1033.42,3.12,8815.38,542.84,-3.13,2580.66
1067500,1228.42,885.13,1.00,1,1,1,2767.07,-3.08,70842.40,1375.04,-3.05,57573.26,1248.38,-3.09,13820.17,1281.23,3.12,16411.27,598.61,-3.12,3766.86
1098000,1207.70,881.90,1.00,1,1,1,687.81,-2.99,68299.80,683.45,-3.05,22675.18,1103.63,-3.11,4783.81,1290.86,3.13,636.47,689.16,-3.11,2969.61
1120700,1192.23,881.69,1.00,1,1,1,681.52,-3.13,4281.25,776.49,3.04,7494.20,952.58,3.12,7044.16,1185.97,-3.13,4703.73,718.00,-3.11,1271.25
1134700,1179.34,884.77,1.00,1,1,1,946.10,2.91,23620.80,1459.43,3.03,48793.09,1106.06,3.07,11533.28,858.75,-3.10,23504.67,715.19,-3.13,860.33
1149800,1150.04,886.58,1.00,1,1,1,1944.42,3.08,67914.24,1519.78,3.10,7939.03,1099.08,3.08,880.17,551.60,-3.07,20371.86,801.49,-3.13,5715.13
1164000,1134.86,886.80,1.00,1,1,1,1068.98,3.13,61830.36,738.76,-3.08,55568.13,551.79,-3.07,39155.44,531.92,-3.11,1845.39,770.88,-3.12,2259.24
1178300,1129.02,885.30,1.00,1,1,1,421.58,-2.89,46964.76,262.19,-0.50,67925.72,114.66,-1.95,35822.19,518.08,-3.09,1136.61,578.92,-3.12,13424.31
1200300,1143.23,882.28,1.00,2,2,2,660.39,-0.21,47940.59,520.02,-0.30,12164.76,112.73,-2.12,878.60,378.19,-3.03,6473.25,370.25,-3.10,9489.45
1215000,1147.25,879.64,1.00,1,1,1,326.78,-0.58,25515.37,308.86,-2.91,54501.51,138.61,-2.43,3144.72,370.16,-3.02,607.45,88.44,-0.15,31117.82
1243900,1130.14,879.13,1.00,1,1,1,592.30,-3.11,30457.46,604.59,-3.08,10554.74,225.95,-2.94,4303.49,326.51,-3.00,1526.78,501.93,-0.02,14339.34
1259300,1120.52,877.97,1.00,1,1,1,629.29,-3.02,4318.66,108.43,-3.06,32219.71,600.72,-3.14,24815.36,60.61,-2.88,17302.82,571.25,-0.01,4518.53
1274400,1126.84,878.86,1.00,1,1,1,423.00,0.14,69684.77,599.07,3.09,32576.43,573.64,3.14,1803.63,86.87,0.10,9733.06,567.80,0.01,743.94
1305700,1092.76,879.52,1.00,2,2,2,1088.99,3.12,48183.88,837.61,3.13,7694.03,57.90,1.81,17977.20,681.37,0.01,19004.57,675.01,0.05,3506.63
1328200,1081.78,879.27,1.00,2,2,2,488.25,-3.12,26734.77,714.67,0.12,68850.38,362.27,0.16,16510.33,1545.96,-0.00,38431.73,651.74,0.08,1377.15
1343200,1119.37,882.69,1.00,2,2,2,2516.66,0.09,200264.77,2491.62,0.06,118588.67,2398.99,0.01,136086.43,1618.37,0.01,4953.07,658.67,0.09,643.79
1358400,1156.90,883.59,1.00,2,2,2,2469.69,0.02,11419.65,4496.79,-0.01,132806.51,4519.05,-0.00,139496.51,1486.00,0.04,9083.98,626.29,0.11,2244.54
1373400,1255.17,881.05,1.00,3,3,3,6553.17,-0.03,272558.62,6572.81,-0.02,138463.68,3892.89,-0.01,41825.67,1881.97,0.06,26603.62,612.96,0.12,1183.21
1388300,1353.37,878.96,1.00,1,1,1,6592.62,-0.02,3313.00,3284.97,-0.01,220712.11,3071.48,0.02,55444.48,1910.93,0.09,4012.75,674.17,0.14,4195.98
1403400,1353.71,880.24,1.00,1,1,1,87.91,1.31,435271.04,505.43,2.63,247380.93,1371.30,0.16,114355.07,1592.19,0.10,21116.76,701.82,0.13,1924.09
1418100,1340.25,886.34,1.00,1,1,1,1005.63,2.72,67667.72,468.77,2.02,19946.61,546.84,2.48,121576.59,1304.77,0.11,19572.24,671.70,0.11,2219.38
1440600,1346.11,895.93,1.00,1,1,1,499.45,1.02,52283.95,587.51,2.37,9682.13,598.58,2.55,3051.90,540.66,0.30,34730.97,875.18,0.07,9178.33
1455700,1324.39,901.72,1.00,1,1,1,1488.70,2.88,112551.72,896.04,2.90,32230.39,378.91,2.52,14600.75,400.76,2.59,56903.13,982.03,0.04,7250.12
1470100,1320.46,902.34,1.00,1,1,1,275.78,2.98,84352.24,157.03,-2.98,52388.46,451.23,2.94,13067.56,351.62,2.62,3506.59,836.73,0.03,10115.00
1484100,1319.98,901.00,1.00,1,1,1,102.05,-1.91,19712.61,38.24,-1.84,10367.46,247.25,2.89,14617.91,238.05,2.70,8276.52,617.18,0.06,15757.97
1499300,1320.16,901.27,1.00,1,1,1,21.34,0.98,8083.30,350.38,2.72,23562.80,111.45,3.00,9009.08,207.92,-3.10,7280.79,290.78,0.20,21805.53
1514100,1310.40,905.32,1.00,1,1,1,714.10,2.75,48546.04,198.12,2.84,10528.34,126.45,-3.00,2484.44,108.74,-1.08,18433.87,130.62,0.43,11234.91
1536200,1313.18,903.42,1.00,1,1,1,152.22,-0.60,39076.87,151.28,-1.36,13677.44,97.01,-1.59,6657.15,136.12,-0.88,1678.33,351.62,2.62,19954.50
1551200,1311.58,899.84,1.00,1,1,1,261.45,-1.99,18503.64,370.12,-0.90,16285.72,379.55,-0.66,22052.41,54.12,-1.36,6113.56,238.05,2.70,7724.76
1566000,1320.06,894.80,1.00,1,1,1,666.38,-0.54,46413.65,707.50,-0.49,26732.23,383.71,-0.67,343.31,94.79,-0.34,5480.43,207.92,-3.10,7477.57
1582000,1330.80,889.58,1.00,1,1,1,746.71,-0.45,6222.10,414.67,-0.47,18321.49,158.85,-0.56,14138.55,476.05,-0.14,23975.77,108.74,-1.08,17051.33
1596800,1331.47,889.07,1.00,1,1,1,56.72,-0.65,46700.93,229.48,2.74,43503.73,165.03,0.13,7499.94,383.71,-0.67,16302.09,136.12,-0.88,2506.15
1625700,1321.58,893.50,1.00,2,2,2,375.24,2.72,14902.43,152.49,1.31,8875.16,594.38,0.09,14864.60,158.85,-0.56,7827.57,54.12,-1.36,3173.13
1647900,1333.45,896.60,1.00,2,2,2,552.99,0.26,39530.73,1258.32,0.02,55221.04,152.49,1.31,25290.22,165.03,0.13,4999.96,94.79,-0.34,3653.62
1678400,1387.88,894.61,1.00,1,1,1,1785.67,-0.04,41513.28,1785.67,-0.04,17487.57,1258.32,0.02,40193.67,594.38,0.09,14084.82,476.05,-0.14,12577.46
