@RELATION gaze_labels

%@METADATA width_px 1920
%@METADATA height_px 1080
%@METADATA width_mm 540.00
%@METADATA height_mm 254.00
%@METADATA distance_mm 620.00


@ATTRIBUTE time INTEGER
@ATTRIBUTE x NUMERIC
@ATTRIBUTE y NUMERIC
@ATTRIBUTE confidence NUMERIC
@ATTRIBUTE handlabeller1 INTEGER
@ATTRIBUTE handlabeller2 INTEGER
@ATTRIBUTE handlabeller_final INTEGER
@ATTRIBUTE speed_1 numeric
@ATTRIBUTE direction_1 numeric
@ATTRIBUTE acceleration_1 numeric
@ATTRIBUTE speed_2 numeric
@ATTRIBUTE direction_2 numeric
@ATTRIBUTE acceleration_2 numeric
@ATTRIBUTE speed_4 numeric
@ATTRIBUTE direction_4 numeric
@ATTRIBUTE acceleration_4 numeric
@ATTRIBUTE speed_8 numeric
@ATTRIBUTE direction_8 numeric
@ATTRIBUTE acceleration_8 numeric
@ATTRIBUTE speed_16 numeric
@ATTRIBUTE direction_16 numeric
@ATTRIBUTE acceleration_16 numeric

%The number after speed, direction denotes the step size that was used for the calculation.
%Acceleration was calculated between two adjacent samples of the already low pass filtered velocity

@DATA
0,1325.89,876.47,1.00,1,1,1,0.00,0.00,0.00,3805.36,-0.08,0.00,1852.64,-0.09,0.00,229.17,0.05,0.00,727.03,-0.02,0.00
14900,1382.41,872.02,1.00,1,1,1,3805.36,-0.08,255393.40,1852.64,-0.09,131085.21,1163.04,3.10,202320.11,441.98,2.94,44721.93,64.09,0.68,45595.57
29000,1379.37,871.40,1.00,1,1,1,219.79,-2.94,284904.78,1163.04,3.10,213799.26,229.17,0.05,98682.25,120.14,0.75,36971.36,91.40,2.61,9123.65
43900,1348.71,873.32,1.00,1,1,1,2062.10,3.08,124206.44,1331.11,3.00,14301.59,441.98,2.94,44721.93,986.81,0.04,60332.66,33.81,0.68,7246.81
59300,1339.46,877.18,1.00,1,1,1,651.10,2.75,94972.92,172.20,0.77,93650.19,120.14,0.75,33850.40,727.03,-0.02,17236.86,85.03,-0.01,4064.30
81900,1353.39,877.89,1.00,1,1,1,617.13,0.05,54723.37,1254.79,-0.01,50397.75,986.81,0.04,39776.84,64.09,0.68,30060.80,20.72,-2.55,4548.97
95800,1385.26,876.86,1.00,1,1,1,2293.96,-0.03,120843.43,2137.65,-0.03,63583.31,1173.03,-0.04,14689.24,91.40,2.61,9254.92,292.92,-3.13,19841.17
110400,1414.28,875.94,1.00,1,1,1,1988.84,-0.03,20898.61,1074.67,-0.08,72991.22,603.39,-0.02,39025.74,33.81,0.68,7395.72,478.62,3.13,12734.09
125600,1417.17,874.24,1.00,1,1,1,220.83,-0.53,118290.81,854.27,3.10,126880.87,213.95,3.06,53751.93,85.03,-0.01,4117.78,19.35,-2.82,30286.37
140400,1388.68,877.06,1.00,1,1,1,1935.00,3.04,144429.01,939.87,3.06,6262.41,751.95,3.13,36412.07,20.72,-2.55,6946.40,237.65,3.07,14856.74
178500,1367.63,878.39,1.00,1,1,1,553.51,3.08,36272.48,693.44,-3.12,6806.38,664.11,3.10,2400.49,292.92,-3.13,7238.64,215.82,3.02,649.33
192400,1352.62,876.46,1.00,2,2,2,1088.47,-3.01,39923.45,331.87,-3.05,26135.97,391.48,-3.12,19781.63,478.62,3.13,13375.37,126.09,2.96,6492.20
221900,1353.28,877.09,1.00,1,1,1,30.90,0.76,37748.84,43.18,-2.95,9795.07,383.15,-3.06,742.44,594.69,3.14,3935.42,159.91,3.09,1311.26
237400,1350.71,876.09,1.00,1,1,1,177.84,-2.77,13340.57,455.95,-3.08,26655.14,178.18,3.13,13311.53,457.77,-3.14,8838.11,186.70,-3.13,1844.31
252500,1339.36,876.18,1.00,1,1,1,751.88,3.13,39092.50,385.01,3.09,5637.32,495.80,-3.07,21100.83,359.98,3.13,6487.91,307.89,-3.13,8025.78
267000,1339.33,876.63,1.00,1,1,1,30.98,1.64,51734.49,530.16,-3.06,10742.03,555.19,3.12,5269.29,284.97,3.06,5417.02,377.17,-3.13,4778.02
288000,1320.60,874.71,1.00,1,1,1,896.68,-3.04,42773.86,692.99,3.14,8127.75,337.60,3.02,10589.34,462.96,3.10,8512.65,347.66,3.14,1417.12
303600,1313.97,876.79,1.00,1,1,1,445.41,2.84,33215.68,175.66,2.20,38796.06,408.12,3.02,4522.83,388.61,3.12,4780.65,285.19,3.12,4022.77
317700,1317.52,878.93,1.00,1,1,1,294.07,0.54,48037.80,110.89,1.90,5478.14,436.26,2.98,2415.52,325.82,-3.14,4503.95,346.97,3.09,4447.53
332100,1312.95,879.79,1.00,1,1,1,323.02,2.96,40065.44,703.14,3.12,46782.93,217.40,3.11,15445.01,257.10,-3.09,4857.20,225.53,2.94,8894.73
353300,1292.49,879.38,1.00,1,1,1,965.08,-3.12,30762.31,367.98,-2.95,16572.27,319.74,-3.00,5284.39,29.85,-3.07,10719.67,208.75,2.87,1055.62
368000,1299.98,877.30,1.00,2,2,2,528.32,-0.27,100608.57,178.38,-0.67,34231.27,133.17,-2.58,14030.73,63.01,2.89,2450.02,131.44,2.80,5328.62
383400,1296.71,876.06,1.00,2,2,2,226.71,-2.78,46980.44,190.94,-0.40,3318.58,407.89,-0.20,33261.39,333.57,3.03,17623.45,66.31,2.55,4474.75
399000,1305.43,875.00,1.00,1,1,1,563.08,-0.12,49426.76,655.60,-0.08,30640.07,106.04,0.23,20173.31,166.87,2.72,11680.85,69.80,2.67,550.32
414200,1316.84,874.45,1.00,1,1,1,751.39,-0.05,12762.72,128.20,1.34,42725.56,367.94,2.81,30326.92,125.04,0.88,15370.79,56.24,2.46,1254.02
429300,1306.30,878.79,1.00,1,1,1,754.73,2.75,98287.05,1383.56,2.93,92117.42,295.23,2.30,12028.35,164.96,0.51,4412.33,74.81,0.28,7717.51
444900,1275.34,883.49,1.00,1,1,1,2007.68,2.99,82515.69,521.95,2.49,59986.68,361.70,2.29,4263.84,233.09,0.33,4911.38,24.48,0.52,3293.03
460200,1293.44,888.52,1.00,1,1,1,1227.98,0.27,207073.83,911.10,0.28,84569.84,223.37,0.62,28925.84,139.93,0.55,6612.93,50.97,0.01,2087.09
475600,1302.23,891.17,1.00,1,1,1,596.37,0.29,41032.27,682.09,-0.03,21825.08,743.75,0.04,37021.19,89.01,2.25,11386.57,21.44,0.77,2492.06
497100,1318.59,887.64,1.00,1,1,1,778.59,-0.21,17993.47,648.10,-0.24,6390.06,362.48,-0.11,18126.40,176.16,0.14,10922.36,56.74,0.36,1767.70
511800,1325.04,885.70,1.00,1,1,1,458.27,-0.29,22026.40,101.89,-0.56,37584.18,121.10,-0.80,19037.93,299.70,-0.02,8755.96,43.93,0.56,1110.01
540400,1322.33,885.30,1.00,1,1,1,95.94,-2.99,19111.71,370.45,-3.05,15934.19,177.64,-0.30,3223.29,219.82,-0.25,3446.17,49.53,0.69,286.10
555400,1308.96,884.24,1.00,1,1,1,894.21,-3.06,53235.26,244.71,-0.21,40570.18,37.78,-1.97,12346.23,58.01,-2.19,16444.44,36.79,1.46,2303.60
592300,1334.76,882.66,1.00,1,1,1,700.37,-0.06,43109.23,291.73,-0.12,1416.71,94.68,-0.79,2365.94,38.22,-2.22,537.87,104.17,0.21,2682.98
606200,1323.67,882.41,1.00,1,1,1,797.93,-3.12,107697.64,267.40,-2.77,38981.78,150.46,-3.09,16155.82,109.55,-2.98,6189.90,100.25,0.26,479.50
620800,1327.67,879.86,1.00,1,1,1,324.74,-0.57,74177.93,903.24,3.10,45746.02,333.70,3.13,12594.64,40.39,-2.94,4740.32,128.44,-0.06,3178.58
635900,1296.87,883.58,1.00,1,1,1,2054.47,3.02,155726.02,424.77,2.90,32678.30,238.63,3.11,6300.92,61.54,0.08,6739.56,215.11,-0.20,5942.47
651400,1315.04,882.94,1.00,1,1,1,1172.96,-0.04,208048.74,280.97,-0.07,45373.35,177.69,2.78,5929.67,19.97,1.22,3618.49,226.98,-0.20,774.84
673900,1307.52,882.85,1.00,1,1,1,334.15,-3.13,66969.98,50.79,0.68,10941.31,315.84,0.07,21468.82,176.83,2.75,7872.93,288.45,-0.14,2818.26
688100,1316.49,884.11,1.00,1,1,1,637.70,0.14,68314.02,368.13,0.20,22806.26,315.73,0.10,715.53,53.23,1.07,13383.71,360.09,-0.09,5173.18
703000,1318.01,885.01,1.00,1,1,1,118.90,0.53,35563.38,664.88,0.05,20582.63,158.38,2.07,27139.77,505.90,-0.08,32652.06,350.74,-0.03,1503.01
716900,1335.61,884.99,1.00,2,2,2,1266.38,-0.00,83858.69,553.96,2.76,85733.96,224.16,0.13,22816.92,511.21,-0.12,1527.44,297.17,-0.07,3974.95
731900,1303.13,890.92,1.00,2,2,2,2201.11,2.96,230301.51,127.19,2.91,28567.60,703.76,-0.14,32804.63,794.18,-0.08,18921.45,403.80,-0.08,7111.01
753700,1331.06,886.07,1.00,3,3,3,1300.15,-0.17,160606.78,1672.10,-0.20,82533.94,711.25,-0.21,2222.37,822.59,-0.07,1411.83,362.77,-0.05,1931.85
769100,1364.05,878.34,1.00,1,1,1,2200.33,-0.23,58804.75,1716.26,-0.21,3060.66,1546.54,-0.16,54369.39,687.35,-0.04,8899.33,457.87,-0.06,6176.72
784400,1382.55,874.91,1.00,1,1,1,1229.90,-0.18,63630.29,1401.78,-0.09,24115.12,1463.49,-0.10,7632.36,580.23,-0.10,7458.17,383.60,-0.06,4854.36
800200,1407.47,874.46,1.00,1,1,1,1577.44,-0.02,26361.72,1238.97,0.05,15563.65,678.38,0.08,50966.57,969.16,-0.13,24660.67,375.67,-0.03,778.25
815500,1421.03,876.87,1.00,1,1,1,900.34,0.18,46757.22,249.61,1.88,86534.64,448.36,0.09,15041.67,716.70,-0.12,16511.38,351.95,-0.10,2158.35
830000,1405.24,881.55,1.00,1,1,1,1136.34,2.85,136746.33,376.57,3.09,25721.10,306.29,0.00,10064.26,412.91,-0.04,21199.29,340.64,-0.09,789.08
845400,1409.79,877.41,1.00,1,1,1,399.64,-0.74,97806.25,733.26,-0.33,71407.95,35.33,-1.02,18800.53,267.35,0.05,9635.24,285.50,-0.08,3582.94
859400,1425.60,874.49,1.00,1,1,1,1148.85,-0.18,59742.15,348.60,-0.20,27890.11,223.84,-0.30,14197.57,36.23,1.43,18782.38,403.48,-0.11,8458.87
881900,1422.25,874.87,1.00,1,1,1,149.79,3.03,57703.11,68.85,2.63,18430.06,133.67,-0.05,4434.67,37.99,-2.74,2870.31,315.52,-0.09,3923.80
910800,1422.52,876.23,1.00,1,1,1,47.83,1.38,5565.57,54.85,2.23,979.12,219.64,2.86,12148.61,78.41,-0.45,3716.27,101.82,0.23,7661.21
927400,1420.73,876.85,1.00,1,1,1,113.92,2.81,7055.65,471.75,2.91,25950.87,74.82,-3.10,9081.71,55.07,0.06,2431.44,51.31,1.55,6133.39
942000,1408.18,879.55,1.00,1,1,1,879.47,2.93,52502.82,128.97,-2.72,25810.74,67.72,-3.10,486.82,36.57,2.63,6034.85,202.31,2.79,13164.40
971000,1415.59,874.57,1.00,1,1,1,308.05,-0.59,40384.07,179.09,-0.39,9792.71,27.22,2.62,1618.66,19.32,2.01,819.74,376.49,2.98,6267.21
994400,1416.86,875.99,1.00,1,1,1,81.44,0.84,13151.11,121.69,0.81,7548.00,149.95,-0.17,7512.81,217.65,2.86,8779.30,426.21,3.08,2708.00
1009300,1418.80,877.95,1.00,1,1,1,185.00,0.79,6961.91,125.81,0.39,3474.81,89.78,0.52,6648.55,281.57,2.82,4339.84,450.85,3.09,1710.38
1024300,1420.34,877.43,1.00,2,2,2,108.49,-0.33,11258.87,71.60,-0.14,4937.46,430.43,2.79,32866.22,397.82,2.88,7878.44,501.25,3.10,3363.34
1039900,1420.96,877.64,1.00,2,2,2,42.33,0.32,5057.38,943.31,2.88,65028.12,630.66,2.83,12908.60,792.89,2.95,25445.92,392.75,3.09,6962.05
1055000,1392.39,885.00,1.00,2,2,2,1954.52,2.89,131805.96,1365.61,2.84,28111.51,1147.28,2.90,34424.37,1073.73,3.04,19453.64,439.85,3.09,3124.09
1069100,1382.90,889.51,1.00,2,2,2,745.03,2.70,87330.94,1360.63,2.91,7096.23,1786.15,2.99,46240.03,1103.38,3.10,4897.60,494.27,3.12,3962.95
1084400,1353.43,894.09,1.00,3,3,3,1949.24,2.99,81933.16,2210.49,3.08,58564.45,1678.34,3.10,14787.22,1112.30,3.12,1364.09,445.80,-3.13,3286.97
1099700,1315.40,893.92,1.00,1,1,1,2485.42,-3.14,41777.89,1962.82,-3.07,24219.85,1551.91,-3.08,12991.90,871.84,3.11,15720.56,439.29,3.11,1231.53
1121200,1281.36,889.24,1.00,1,1,1,1598.28,-3.00,43048.10,1039.75,-2.87,45097.25,1129.01,-2.96,21071.24,702.24,-3.11,8235.28,374.72,3.13,3026.31
1136300,1278.78,883.58,1.00,1,1,1,411.84,-2.00,94117.72,294.57,-1.77,62485.60,208.35,-1.92,68840.78,724.07,-3.05,3198.32,268.95,-3.12,7035.81
1150800,1279.67,880.68,1.00,1,1,1,208.92,-1.27,20055.56,1058.72,-0.09,77897.66,387.24,-0.32,30658.83,515.36,-2.94,15116.13,260.17,-3.11,618.12
1166500,1310.64,880.85,1.00,1,1,1,1972.40,0.01,122452.90,775.84,0.05,19578.01,57.56,-1.16,22387.67,178.82,-2.52,22901.61,313.62,-3.12,3404.43
1181600,1303.54,881.81,1.00,1,1,1,474.32,3.01,161785.72,675.06,-3.10,96085.44,31.53,-2.08,3024.28,259.34,-0.33,25852.82,294.98,-3.05,1810.79
1211200,1280.49,879.62,1.00,1,1,1,782.33,-3.05,11426.29,492.31,-3.01,6438.30,207.30,-2.99,6413.07,412.73,-0.11,5737.21,324.66,-3.01,1075.40
1233100,1278.41,878.41,1.00,1,1,1,109.49,-2.61,31254.48,363.65,-0.09,38837.12,164.72,-0.35,16463.50,401.97,-0.08,752.39,230.06,-2.91,4496.31
1248200,1293.88,878.37,1.00,1,1,1,1024.39,-0.00,74185.67,1254.24,-0.03,59040.49,769.41,-0.05,40673.58,91.64,-0.35,20838.45,116.91,-2.68,7905.43
1263200,1316.15,877.15,1.00,1,1,1,1486.43,-0.05,31092.42,1110.96,-0.04,9563.43,825.15,-0.05,3729.69,27.91,-1.62,5834.39,47.40,-1.55,7044.17
1292200,1342.73,876.44,1.00,1,1,1,916.92,-0.03,19670.06,570.52,-0.06,18644.78,337.65,-0.10,16836.84,32.92,-0.53,1097.87,77.01,-2.64,2376.34
1313900,1345.02,875.41,1.00,1,1,1,115.81,-0.42,37387.47,331.24,-3.07,41473.69,135.24,-3.12,21761.76,46.44,-0.01,1118.42,162.92,-2.93,4239.65
1343300,1325.84,875.25,1.00,1,1,1,652.28,-3.13,25817.99,940.50,3.11,20819.53,714.42,3.13,19702.25,67.79,-3.09,3883.91,316.32,-3.00,5243.96
1358300,1303.29,876.89,1.00,1,1,1,1507.63,3.07,57269.15,1378.41,3.10,29197.35,812.00,3.09,6828.86,214.69,-3.08,9794.14,336.37,-2.99,1344.76
1372900,1285.07,876.92,1.00,1,1,1,1247.37,3.14,19011.36,615.06,3.06,52348.43,649.80,3.08,11122.68,575.17,-3.09,24693.53,309.95,-3.04,2153.17
1387200,1285.57,878.34,1.00,2,2,2,105.02,1.23,89908.53,62.89,2.73,38869.89,329.31,-3.05,22950.75,811.52,-3.10,16529.50,46.44,-0.01,24906.42
1409400,1282.97,877.83,1.00,2,2,2,119.47,-2.95,8776.88,141.52,-2.42,5760.19,409.71,-2.97,3854.27,881.23,-3.07,3323.57,67.79,-3.09,5143.56
1424400,1281.61,874.87,1.00,3,3,3,217.26,-2.00,11789.16,851.14,-2.92,48660.68,819.19,-2.99,27316.42,806.41,-3.04,5243.90,214.69,-3.08,9794.14
1439000,1258.39,872.27,1.00,1,1,1,1600.19,-3.03,102747.68,1699.04,-3.05,59085.56,1152.93,-2.98,22870.32,720.15,-3.08,6222.02,575.17,-3.09,24693.53
1454100,1231.36,870.32,1.00,1,1,1,1795.25,-3.07,13643.71,1463.84,-3.02,15874.80,1345.51,-3.04,13491.13,819.19,-2.99,7778.77,811.52,-3.10,15653.76
1468000,1216.25,867.20,1.00,1,1,1,1109.87,-2.94,51065.53,981.44,-3.01,34716.84,1031.09,-3.12,23671.90,1152.93,-2.98,24022.06,881.23,-3.07,5308.14
1482900,1203.33,866.65,1.00,1,1,1,867.66,-3.10,19367.14,712.02,3.01,23287.49,981.44,-3.01,8008.47,1345.51,-3.04,13672.22,806.41,-3.04,5279.09
1505700,1189.64,870.74,1.00,1,1,1,626.83,2.85,15064.58,626.83,2.85,5953.91,712.02,3.01,15218.58,1031.09,-3.12,14431.55,720.15,-3.08,3984.28
