@RELATION gaze_labels

%@METADATA width_px 1920
%@METADATA height_px 1080
%@METADATA width_mm 540.00
%@METADATA height_mm 254.00
%@METADATA distance_mm 620.00


@ATTRIBUTE time INTEGER
@ATTRIBUTE x NUMERIC
@ATTRIBUTE y NUMERIC
@ATTRIBUTE confidence NUMERIC
@ATTRIBUTE handlabeller1 INTEGER
@ATTRIBUTE handlabeller2 INTEGER
@ATTRIBUTE handlabeller_final INTEGER
@ATTRIBUTE speed_1 numeric
@ATTRIBUTE direction_1 numeric
@ATTRIBUTE acceleration_1 numeric
@ATTRIBUTE speed_2 numeric
@ATTRIBUTE direction_2 numeric
@ATTRIBUTE acceleration_2 numeric
@ATTRIBUTE speed_4 numeric
@ATTRIBUTE direction_4 numeric
@ATTRIBUTE acceleration_4 numeric
@ATTRIBUTE speed_8 numeric
@ATTRIBUTE direction_8 numeric
@ATTRIBUTE acceleration_8 numeric
@ATTRIBUTE speed_16 numeric
@ATTRIBUTE direction_16 numeric
@ATTRIBUTE acceleration_16 numeric

%The number after speed, direction denotes the step size that was used for the calculation.
%Acceleration was calculated between two adjacent samples of the already low pass filtered velocity

@DATA
0,1161.33,827.53,1.00,1,1,1,0.00,0.00,0.00,4470.00,-0.02,0.00,1969.24,0.02,0.00,492.30,2.93,0.00,170.30,0.42,0.00
15200,1229.27,826.49,1.00,1,1,1,4470.00,-0.02,294079.14,1969.24,0.02,164695.95,1453.94,3.03,224681.49,1218.11,3.04,48097.63,366.73,2.93,33836.56
30700,1221.77,828.94,1.00,1,1,1,508.74,2.83,319890.61,1453.94,3.03,220332.82,492.30,2.93,62257.28,848.40,3.05,23853.03,526.45,3.03,10711.81
53000,1174.68,832.81,1.00,2,2,2,2119.13,3.06,73022.71,2449.93,3.08,44902.45,1218.11,3.04,32784.03,53.17,0.85,39498.01,385.06,3.07,6371.01
69000,1128.11,834.62,1.00,3,3,3,2912.37,3.10,50032.23,1019.58,3.07,89408.19,848.40,3.05,23107.62,170.30,0.42,7743.62,121.46,3.09,16479.59
97800,1129.13,836.23,1.00,1,1,1,66.17,1.01,102289.06,552.34,0.04,54503.58,53.17,0.85,30583.52,366.73,2.93,17858.18,101.30,-2.86,1447.44
112900,1152.35,835.50,1.00,1,1,1,1538.38,-0.03,99737.48,1643.84,-0.01,72343.26,622.42,0.07,38780.01,526.45,3.03,10995.57,59.12,-2.85,2793.58
127100,1177.29,835.76,1.00,1,1,1,1756.72,0.01,16116.61,683.73,0.10,68076.23,529.51,0.06,6550.44,385.06,3.07,10005.18,134.75,0.04,13561.28
163500,1186.78,838.83,1.00,1,1,1,274.08,0.31,41135.40,137.75,2.67,22063.14,192.30,2.97,19726.73,121.46,3.09,7243.78,326.27,0.17,5317.29
177300,1171.14,838.92,1.00,1,1,1,1133.60,3.14,101197.91,1734.77,-3.13,116997.22,743.73,3.11,40141.52,101.30,-2.86,3020.75,322.78,0.24,1711.55
192000,1137.35,838.04,1.00,1,1,1,2299.50,-3.12,79389.23,1604.94,-3.12,8875.11,1199.70,-3.10,31340.48,59.12,-2.85,2869.59,499.34,0.16,12229.41
213500,1113.06,837.53,1.00,1,1,1,1130.07,-3.12,54393.66,784.29,-3.05,38312.66,853.75,-3.02,16508.22,134.75,0.04,8956.76,653.44,0.10,7348.15
228600,1108.75,835.54,1.00,2,2,2,314.27,-2.71,56406.71,190.92,-1.24,56391.25,125.54,-0.64,62841.98,541.85,0.07,26965.43,776.90,0.07,8278.73
243600,1114.95,832.11,1.00,2,2,2,472.06,-0.51,46979.59,1176.62,-0.07,74350.16,1412.05,-0.01,87480.29,1139.52,0.07,39845.19,808.85,0.06,2209.17
258700,1144.08,833.06,1.00,2,2,2,1930.47,0.03,102267.82,2801.86,0.05,108643.14,2469.79,0.05,70529.11,1733.94,0.06,39372.62,742.69,0.06,4397.97
272900,1196.92,836.46,1.00,3,3,3,3729.13,0.06,126807.18,3838.49,0.09,73591.64,3141.00,0.08,47606.10,1980.29,0.05,17373.32,727.38,0.07,1078.28
287400,1253.77,843.32,1.00,1,1,1,3948.55,0.12,21146.21,3413.37,0.10,29395.73,3394.99,0.08,17521.33,1922.98,0.06,4034.37,768.86,0.05,3019.09
309600,1321.55,849.19,1.00,1,1,1,3064.61,0.09,40166.33,3052.15,0.08,16714.32,2498.24,0.09,40395.70,1876.18,0.07,2360.80,811.02,0.04,1902.57
324500,1366.68,851.87,1.00,1,1,1,3034.26,0.06,5939.22,1342.18,0.04,114872.89,1437.37,0.07,71241.36,1681.53,0.07,13066.55,945.83,0.04,9047.60
338600,1360.44,850.69,1.00,1,1,1,450.10,-2.96,246894.72,621.98,-3.02,139208.21,438.87,-0.02,70978.78,1382.03,0.07,21249.46,958.22,0.05,1157.89
353600,1348.70,849.74,1.00,1,1,1,785.07,-3.06,22716.66,468.45,-3.00,10280.26,248.78,-2.91,45504.59,982.26,0.04,26770.44,924.51,0.07,2342.43
367600,1347.00,848.74,1.00,1,1,1,141.38,-2.61,47191.68,137.02,-0.32,42434.90,280.10,-0.10,37262.81,465.78,-0.02,36993.33,864.65,0.07,4300.17
383000,1352.53,848.47,1.00,1,1,1,359.43,-0.05,31424.27,856.04,0.01,47246.91,526.42,-0.05,16032.59,114.75,-0.22,22995.10,808.27,0.07,3669.44
404900,1378.93,848.92,1.00,1,1,1,1205.70,0.02,38692.66,846.33,-0.02,965.81,488.94,-0.02,1831.23,48.28,0.12,3249.39,592.89,0.07,9834.76
419300,1383.24,847.96,1.00,1,1,1,306.98,-0.22,63188.17,46.12,-0.75,56434.43,423.17,0.01,4671.04,76.78,0.20,2007.68,357.56,0.05,16354.53
435000,1379.94,847.97,1.00,1,1,1,210.23,3.14,32759.81,88.64,2.87,8365.33,162.15,2.93,37094.18,97.51,0.09,1457.40,59.32,0.05,18996.19
449500,1380.67,848.69,1.00,1,1,1,70.13,0.78,18251.35,300.35,2.87,14600.48,292.54,2.97,9020.08,140.93,0.02,3051.09,207.42,3.12,18388.29
479100,1367.18,851.50,1.00,1,1,1,465.54,2.94,17150.53,413.13,2.99,4040.86,179.00,3.02,3850.52,78.29,-3.06,7402.58,208.41,3.06,421.46
500700,1359.77,851.98,1.00,1,1,1,343.50,3.08,6218.89,86.69,-2.84,15638.65,54.42,3.12,5785.53,170.19,3.13,4280.63,138.53,2.82,3741.56
531100,1362.88,850.14,1.00,2,2,2,118.82,-0.54,14889.17,355.93,-0.20,14269.84,43.61,-1.67,2206.25,269.03,3.09,3262.07,172.70,2.75,1176.91
545600,1375.44,848.82,1.00,2,2,2,870.90,-0.10,52728.54,154.65,-0.50,14707.84,64.87,-2.27,2596.59,452.30,3.08,12642.49,224.16,2.78,3571.57
560100,1366.81,847.99,1.00,2,2,2,597.60,-3.05,100781.99,628.25,-3.11,52802.86,416.43,-3.14,26057.19,450.78,3.08,107.01,287.39,2.90,4801.16
575500,1356.66,848.26,1.00,1,1,1,659.42,3.11,6437.62,947.17,3.07,21308.59,1019.65,3.08,39278.30,355.55,2.93,7267.45,264.47,2.91,1521.55
590400,1338.18,850.00,1.00,1,1,1,1245.56,3.05,39549.53,1334.72,3.04,26095.55,992.52,3.03,3889.75,514.92,2.87,10869.64,228.62,2.93,2414.80
613000,1306.85,853.17,1.00,1,1,1,1393.51,3.04,6558.08,1030.97,2.99,13678.77,728.66,2.84,13564.60,688.44,2.88,7685.60,247.79,2.97,981.45
627400,1300.45,855.60,1.00,1,1,1,475.35,2.78,65450.63,354.68,1.15,81677.14,627.14,2.70,9784.44,536.14,2.84,10689.43,258.00,3.01,984.37
641200,1310.90,862.32,1.00,1,1,1,899.99,0.57,90057.34,419.69,1.53,11559.18,402.48,2.25,22873.12,383.12,2.80,11173.09,277.38,3.04,1486.60
656200,1300.90,867.68,1.00,1,1,1,756.59,2.65,95312.64,699.46,2.70,43855.52,206.38,1.72,16589.72,192.87,2.65,12968.02,291.65,3.06,1022.36
670900,1292.14,871.25,1.00,1,1,1,643.10,2.75,9197.52,75.16,2.61,42490.69,52.35,2.16,10927.07,66.08,1.14,13596.42,276.90,3.07,1042.12
693500,1298.48,869.10,1.00,1,1,1,296.08,-0.33,41540.52,487.24,-0.34,24834.77,236.70,-0.36,12432.52,48.00,2.15,2534.21,208.36,3.04,3053.91
707600,1308.97,865.21,1.00,1,1,1,793.76,-0.35,35309.54,631.24,-0.39,10369.62,314.12,-0.53,6332.08,196.45,-3.03,12747.63,173.02,3.04,2506.06
722900,1315.64,862.05,1.00,1,1,1,482.60,-0.44,20647.68,156.82,-1.29,35834.64,144.45,-1.73,19220.10,128.73,-2.43,7626.40,99.72,2.98,4815.60
737700,1310.26,860.67,1.00,1,1,1,375.20,-2.89,54568.15,620.21,-3.07,45228.44,393.15,-2.90,24524.65,159.95,-0.96,13133.00,5.69,1.96,6545.68
752800,1297.15,860.64,1.00,1,1,1,868.25,-3.14,33960.17,822.02,-3.10,13467.35,427.98,-2.94,2572.33,174.42,-0.80,2021.07,52.06,-0.13,3650.35
766800,1286.36,859.69,1.00,1,1,1,773.69,-3.05,8386.34,279.20,-2.72,40893.99,138.77,-2.29,23457.00,88.17,-1.49,8563.02,36.10,-0.69,2046.28
788800,1287.99,856.51,1.00,2,2,2,162.40,-1.10,38551.09,513.65,-0.32,33821.24,275.64,-0.41,15673.46,62.39,-2.14,2455.61,54.58,-0.76,852.98
803400,1304.23,853.84,1.00,2,2,2,1127.24,-0.16,71172.00,897.65,-0.12,27912.27,307.75,-0.28,3445.28,45.00,-2.16,1193.56,67.06,-1.04,1448.75
817400,1313.49,853.56,1.00,1,1,1,661.93,-0.03,34226.55,134.84,-0.14,54491.42,284.53,-0.09,4179.06,120.31,-0.37,9818.19,56.07,-1.73,3067.37
846600,1309.99,853.00,1.00,1,1,1,121.32,-2.98,26761.51,55.52,2.86,6506.12,22.87,0.39,9060.33,202.78,-0.12,3118.96,87.43,-2.57,2224.16
869100,1310.74,854.36,1.00,1,1,1,68.88,1.07,7656.98,79.63,2.72,1143.37,18.15,0.05,374.36,156.75,0.01,2310.33,61.33,-2.45,1225.60
898300,1306.23,854.67,1.00,1,1,1,154.61,3.07,6634.46,101.64,-0.16,6155.37,113.94,0.30,3302.77,15.97,2.85,5891.19,77.65,-2.87,1138.84
914000,1315.24,853.65,1.00,1,1,1,577.66,-0.11,46633.76,421.40,0.08,20611.83,39.38,1.02,5630.58,107.82,-3.12,5909.08,49.82,-2.78,1808.48
928500,1318.91,855.74,1.00,1,1,1,291.41,0.52,26435.58,147.67,2.32,36224.73,72.38,-3.12,6855.87,149.13,-3.08,2873.50,27.39,-2.73,1553.17
943700,1312.27,856.87,1.00,1,1,1,443.56,2.97,45658.59,564.34,-3.07,31951.23,289.43,-3.12,14279.97,66.26,-2.75,5857.72,10.11,0.17,2452.49
958800,1301.86,854.56,1.00,1,1,1,706.21,-2.92,22466.51,450.84,-2.92,9055.03,465.64,-3.01,11967.51,137.30,3.14,5315.67,55.63,-0.07,3038.19
981000,1295.86,853.19,1.00,1,1,1,277.14,-2.92,19328.30,387.29,-2.93,2871.71,176.70,-2.60,14019.44,249.19,3.08,5064.78,120.28,0.02,2931.10
996000,1287.76,851.59,1.00,1,1,1,550.40,-2.95,18232.57,220.87,-0.37,38963.94,195.61,3.13,6838.60,312.87,3.12,4318.29,170.79,0.03,3369.90
1011100,1302.04,850.76,1.00,1,1,1,947.55,-0.06,98460.93,107.53,1.29,16833.75,207.04,2.95,2563.33,160.33,3.14,10104.25,205.02,0.02,2272.55
1026200,1288.67,854.70,1.00,1,1,1,923.21,2.85,123080.86,639.80,2.88,43156.24,166.38,2.62,4775.04,138.45,-0.10,19763.32,182.23,0.07,1681.02
1040700,1283.73,855.59,1.00,2,2,2,346.19,2.96,40024.23,329.32,2.96,21533.59,193.69,2.63,1885.75,415.50,0.02,19211.62,125.92,0.10,3894.56
1055700,1279.12,856.50,1.00,2,2,2,313.03,2.95,2246.65,199.24,0.20,34637.96,477.56,-0.06,43847.74,551.57,0.04,9099.49,130.37,-0.07,1538.48
1077200,1290.86,857.00,1.00,1,1,1,546.55,0.04,39718.92,1122.89,-0.09,43423.98,969.31,-0.02,22911.62,510.41,0.07,2059.09,153.17,-0.09,1068.04
1092500,1320.27,852.66,1.00,1,1,1,1942.65,-0.15,92133.60,1906.43,-0.05,51379.79,1182.79,-0.03,13956.76,509.93,0.05,591.94,190.35,-0.10,2429.98
1107400,1348.37,854.14,1.00,1,1,1,1888.52,0.05,25850.44,1265.41,0.05,44193.40,1279.76,-0.02,6515.70,485.15,0.02,1974.51,220.57,-0.00,2408.23
1121500,1356.92,854.40,1.00,1,1,1,607.07,0.03,90900.86,607.03,0.07,46709.69,554.25,0.17,52719.96,560.87,-0.04,5901.65,282.36,0.01,4386.82
1135400,1365.33,855.28,1.00,1,1,1,607.87,0.11,3307.88,207.27,2.48,55717.60,45.09,1.83,40302.16,454.96,-0.06,7652.56,257.42,-0.00,1812.29
1150800,1352.12,858.11,1.00,1,1,1,877.10,2.93,95265.27,481.00,3.05,21107.45,70.70,-2.89,5428.41,238.38,-0.09,14076.81,317.34,-0.08,4119.33
1172400,1347.61,856.98,1.00,1,1,1,215.21,-2.90,31970.64,136.48,-1.50,24138.86,147.04,-2.94,3545.03,49.92,-0.14,8728.91,229.30,-0.08,4075.72
1186600,1352.47,853.24,1.00,1,1,1,431.84,-0.66,41544.02,169.26,-0.58,9784.40,103.91,-1.29,13147.76,71.26,-0.18,1511.50,295.32,0.01,4923.14
1215700,1353.75,852.97,1.00,1,1,1,44.85,-0.21,13469.20,85.13,-1.06,3497.52,111.08,-0.46,3011.65,68.75,-0.45,649.49,252.85,0.07,1553.87
1237000,1354.57,849.49,1.00,1,1,1,167.69,-1.34,7237.66,48.72,0.08,3687.89,166.47,-0.06,3630.12,184.14,-0.35,5445.30,67.43,0.36,8884.89
1251300,1355.48,853.11,1.00,1,1,1,260.89,1.32,29160.86,317.73,0.21,18843.83,271.29,-0.11,7380.19,46.08,-1.13,10831.48,197.51,3.12,18273.00
1280400,1368.06,852.34,1.00,1,1,1,433.21,-0.06,15902.09,451.79,-0.13,6374.91,327.07,-0.07,1968.89,84.77,0.30,3109.54,492.55,-3.10,10166.58
1295400,1375.23,850.49,1.00,1,1,1,493.54,-0.25,7145.22,365.59,-0.35,8180.98,66.33,-2.59,25530.53,86.87,0.75,2584.20,787.75,-3.10,19680.48
1318500,1381.16,847.60,1.00,2,2,2,285.53,-0.45,9573.64,631.35,-3.13,42518.80,80.80,2.04,4710.55,134.47,2.59,7728.69,692.64,-3.08,4173.42
1334100,1350.80,850.24,1.00,2,2,2,1953.58,3.06,142467.64,610.63,2.59,22253.16,242.39,2.39,10834.55,447.92,3.10,21601.02,653.45,-3.06,2634.48
1348500,1365.59,857.26,1.00,2,2,2,1137.30,0.44,207690.47,571.83,0.75,65230.82,741.52,2.87,37389.39,1195.84,-3.11,52049.23,577.33,-3.07,5302.10
1363600,1363.12,861.75,1.00,3,3,3,339.29,2.07,79856.98,914.41,3.06,90550.64,998.55,3.05,19839.49,1856.02,-3.12,43725.01,563.93,-3.06,989.76
1378400,1338.33,859.39,1.00,3,3,3,1682.71,-3.05,106714.26,2406.69,-3.05,102177.99,2540.37,-3.08,105443.44,1835.27,-3.13,1866.29,549.89,-3.09,1474.38
1393300,1291.92,855.52,1.00,1,1,1,3125.89,-3.06,96875.28,4228.07,-3.05,122246.60,3808.97,-3.07,85176.00,1513.76,-3.09,21932.85,522.84,-3.05,2119.33
1407400,1216.25,847.99,1.00,1,1,1,5393.05,-3.04,160859.82,5235.59,-3.07,71968.69,2848.11,-3.06,68151.01,1421.55,-3.05,7978.40,511.62,-3.05,797.40
1422500,1139.39,845.22,1.00,1,1,1,5093.64,-3.11,29608.11,1790.56,-3.09,228179.62,1982.34,-3.03,57547.86,1306.37,-3.01,8555.67,408.43,-3.05,6835.89
1445200,1148.65,844.71,1.00,1,1,1,408.58,-0.06,242318.68,566.01,-0.19,103268.38,453.82,-2.91,67544.07,992.98,-3.01,13805.98,1835.27,-3.13,62932.61
1460100,1160.28,841.17,1.00,1,1,1,815.99,-0.30,28872.51,1268.54,-0.10,47419.80,900.73,-0.09,89825.89,604.15,-2.96,26204.64,1513.76,-3.09,21932.85
1475100,1186.38,840.82,1.00,1,1,1,1739.99,-0.01,65519.87,1329.97,-0.04,6921.36,686.07,-0.08,14330.73,90.81,-0.64,44632.60,1421.55,-3.05,7499.69
1489800,1199.75,839.65,1.00,1,1,1,913.19,-0.09,56593.92,294.89,-0.00,70428.16,637.94,-0.02,4220.40,827.59,-0.04,51305.15,1306.37,-3.01,8788.48
1519500,1199.47,840.76,1.00,1,1,1,38.41,1.82,31196.28,181.22,0.08,3881.63,498.55,-0.02,4694.23,686.07,-0.08,4845.77,992.98,-3.01,10552.05
1534700,1207.86,840.29,1.00,1,1,1,552.95,-0.06,37211.98,740.40,-0.03,36884.20,769.31,0.00,17848.39,637.94,-0.02,4081.57,604.15,-2.96,25687.44
1556900,1227.15,839.89,1.00,1,1,1,868.91,-0.02,14272.79,1481.75,-0.01,33414.68,740.40,-0.03,1786.65,498.55,-0.02,6280.12,90.81,-0.64,30157.16
1571800,1262.83,839.94,1.00,1,1,1,2395.05,0.00,102448.64,2395.05,0.00,61303.50,1481.75,-0.01,49785.63,769.31,0.00,18207.75,827.59,-0.04,50616.49
