%@metadata width_px 1920.0
%@metadata height_px 1080.0
%@metadata width_mm 540.0
%@metadata height_mm 254.0
%@metadata distance_mm 620.0
% The number after speed, direction denotes the step size that was used for the calculation.
% Acceleration was calculated between two adjacent samples of the already low pass filtered velocity
@RELATION gaze_labels

@ATTRIBUTE time INTEGER
@ATTRIBUTE x NUMERIC
@ATTRIBUTE y NUMERIC
@ATTRIBUTE confidence NUMERIC
@ATTRIBUTE handlabeller_final INTEGER
@ATTRIBUTE EYE_MOVEMENT_TYPE {UNKNOWN, FIX, SACCADE, SP, NOISE, BLINK, NOISE_CLUSTER, PSO}

@DATA
0,233.85,848.65,1.0,1,FIX
29900,229.03,859.05,1.0,1,FIX
43900,221.1,851.25,1.0,1,FIX
58800,224.71,853.59,1.0,1,FIX
80400,236.55,861.65,1.0,1,FIX
95000,192.26,842.67,1.0,1,FIX
110100,207.57,854.94,1.0,1,FIX
140500,206.61,854.49,1.0,1,FIX
156300,207.75,847.16,1.0,1,FIX
171700,232.99,856.71,1.0,1,FIX
186800,213.91,851.52,1.0,1,FIX
222900,232.99,841.39,1.0,1,FIX
253100,231.59,853.55,1.0,1,FIX
268200,241.01,853.41,1.0,1,FIX
282900,211.14,849.98,1.0,2,SACCADE
298400,197.1,843.66,1.0,3,SACCADE
321800,233.1,844.79,1.0,1,SP
336000,297.74,824.57,1.0,1,FIX
351900,319.54,810.78,1.0,1,FIX
381500,351.36,820.4,1.0,1,FIX
396500,325.35,817.16,1.0,1,FIX
410600,335.65,823.44,1.0,1,FIX
434000,255.77,798.21,1.0,1,FIX
442700,323.75,818.31,1.0,1,FIX
464400,333.02,811.76,1.0,1,FIX
479000,313.86,815.01,1.0,1,FIX
507900,329.66,809.26,1.0,2,SACCADE
522400,314.24,814.11,1.0,3,SACCADE
545200,333.01,791.43,1.0,3,SP
573900,398.41,784.42,1.0,1,FIX
589000,461.54,797.59,1.0,1,FIX
602900,478.59,798.03,1.0,1,FIX
641500,465.1,791.93,1.0,1,FIX
656600,447.29,800.0,1.0,1,FIX
671500,463.4,794.72,1.0,2,SACCADE
686700,416.47,783.63,1.0,2,SACCADE
701700,431.38,794.5,1.0,3,FIX
716700,327.97,822.16,1.0,3,FIX
746100,309.34,825.76,1.0,1,FIX
768600,332.94,825.47,1.0,1,FIX
782500,322.69,826.35,1.0,2,FIX
797500,319.56,821.71,1.0,2,SACCADE
812200,330.12,821.85,1.0,2,SACCADE
826800,351.8,821.34,1.0,3,SP
848900,676.43,775.24,1.0,3,FIX
863600,679.04,774.89,1.0,1,FIX
892800,727.27,783.67,1.0,1,FIX
907400,781.08,795.86,1.0,1,FIX
922600,781.91,795.1,1.0,1,FIX
960700,746.29,800.97,1.0,1,FIX
975900,763.6,804.68,1.0,1,FIX
1006100,780.9,791.56,1.0,1,FIX
1020100,754.87,790.31,1.0,2,SACCADE
1034600,760.95,794.09,1.0,2,SACCADE
1056800,777.8,791.05,1.0,3,SACCADE
1071600,899.57,801.11,1.0,1,FIX
1086700,1084.9,791.63,1.0,1,FIX
1101900,1202.49,799.21,1.0,1,FIX
1117100,1237.97,798.33,1.0,1,FIX
1147000,1245.98,789.6,1.0,1,FIX
1168600,1234.3,806.85,1.0,1,FIX
1183000,1160.14,782.0,1.0,1,FIX
1197600,1168.81,787.92,1.0,2,SACCADE
1212900,1184.8,788.21,1.0,2,SACCADE
1227600,1162.91,780.99,1.0,2,NOISE
1249000,953.34,793.89,1.0,3,NOISE
1263900,798.63,798.81,1.0,1,FIX
1292800,818.89,803.82,1.0,1,FIX
1328400,795.48,795.22,1.0,3,FIX
1342800,788.74,792.73,1.0,3,FIX
1357900,690.21,803.46,1.0,1,FIX
1387400,684.94,808.77,1.0,1,FIX
1408500,664.84,800.47,1.0,1,FIX
1422700,646.12,789.61,1.0,1,FIX
1437800,665.9,790.7,1.0,1,FIX
1453100,657.23,789.65,1.0,1,FIX
1468000,685.05,794.12,1.0,1,FIX
1482400,644.19,779.05,1.0,1,FIX
1498200,633.2,775.35,1.0,1,FIX
