%@metadata width_px 1920.0
%@metadata height_px 1080.0
%@metadata width_mm 540.0
%@metadata height_mm 254.0
%@metadata distance_mm 620.0
% The number after speed, direction denotes the step size that was used for the calculation.
% Acceleration was calculated between two adjacent samples of the already low pass filtered velocity
@RELATION gaze_labels

@ATTRIBUTE time INTEGER
@ATTRIBUTE x NUMERIC
@ATTRIBUTE y NUMERIC
@ATTRIBUTE confidence NUMERIC
@ATTRIBUTE handlabeller_final INTEGER
@ATTRIBUTE EYE_MOVEMENT_TYPE {UNKNOWN, FIX, SACCADE, SP, NOISE, BLINK, NOISE_CLUSTER, PSO}

@DATA
0,228.79,749.01,1.0,1,FIX
15300,214.95,761.27,1.0,1,FIX
30200,225.08,743.76,1.0,1,FIX
53200,204.94,740.5,1.0,1,FIX
68200,208.36,730.55,1.0,0,FIX
82700,213.98,761.02,1.0,0,FIX
98000,237.22,753.5,1.0,1,FIX
112200,155.87,743.01,1.0,1,FIX
127100,230.56,739.57,1.0,1,FIX
142000,251.42,759.11,1.0,1,FIX
163700,154.49,662.76,1.0,1,SACCADE
178700,250.43,774.58,1.0,2,SACCADE
194300,219.39,719.64,1.0,2,SP
209100,281.04,776.46,1.0,2,FIX
223300,287.65,785.3,1.0,3,FIX
244700,553.97,899.49,1.0,1,FIX
259700,588.43,859.99,1.0,1,FIX
274000,632.85,934.5,1.0,1,FIX
302000,634.65,926.36,1.0,1,SACCADE
324500,615.05,893.63,1.0,2,SACCADE
355200,624.75,892.85,1.0,2,SP
370400,650.85,875.87,1.0,2,FIX
385400,736.95,937.82,1.0,3,FIX
400300,904.91,749.38,1.0,1,FIX
415300,1120.15,764.83,1.0,1,FIX
430000,1096.04,699.19,1.0,1,FIX
451600,1100.05,676.12,1.0,1,FIX
466400,1111.95,724.61,1.0,1,FIX
480900,1072.46,656.9,1.0,1,FIX
495800,1041.85,642.56,1.0,1,FIX
510000,1061.59,659.45,1.0,1,FIX
531800,1116.76,641.92,1.0,1,SACCADE
546900,1146.0,700.89,1.0,1,SACCADE
575800,1127.91,730.24,1.0,2,SP
590300,1057.18,673.01,1.0,2,FIX
612900,1106.15,680.44,1.0,3,FIX
627800,1282.09,495.34,1.0,1,FIX
642900,1372.37,493.87,1.0,1,FIX
673700,1424.01,556.87,1.0,1,FIX
688700,1410.7,548.61,1.0,1,FIX
702700,1377.56,535.59,1.0,1,SACCADE
739800,1375.91,488.29,1.0,2,SACCADE
754200,1432.3,532.71,1.0,2,FIX
768800,1398.3,547.39,1.0,3,FIX
783000,1473.09,584.06,1.0,1,FIX
798000,1495.44,546.13,1.0,1,FIX
819700,1475.82,493.59,1.0,1,FIX
833900,1465.42,500.41,1.0,1,FIX
848900,1482.61,483.35,1.0,1,FIX
879100,1488.28,480.01,1.0,1,FIX
894000,1477.51,482.43,1.0,4,FIX
916200,1479.57,498.01,1.0,4,FIX
930100,1488.37,484.16,1.0,4,FIX
945600,1468.3,481.36,1.0,4,SACCADE
959800,1484.37,472.77,1.0,4,SACCADE
974200,1478.93,478.78,1.0,4,SP
996900,1497.14,510.99,1.0,4,FIX
1012100,1491.8,545.81,1.0,4,FIX
1027200,1554.86,519.79,1.0,4,FIX
1055700,1790.65,656.6,1.0,4,FIX
1070100,1776.31,566.41,1.0,4,FIX
1106300,1758.73,654.61,1.0,4,SACCADE
1120400,1767.03,683.81,1.0,4,SACCADE
1135400,1685.75,722.48,1.0,4,NOISE
1150400,1677.27,656.85,1.0,4,SP
1172900,1471.77,701.32,1.0,4,FIX
1188000,1059.74,782.44,1.0,1,FIX
1202900,864.46,953.7,1.0,1,FIX
1217800,803.98,981.32,1.0,1,FIX
1232700,705.6,937.33,1.0,1,NOISE
1247700,710.75,854.11,1.0,1,SACCADE
1262100,711.9,931.28,1.0,1,SACCADE
1284300,683.14,917.85,1.0,1,FIX
1299400,640.02,961.09,1.0,1,FIX
1313900,587.6,934.8,1.0,1,FIX
1328800,589.63,887.52,1.0,1,FIX
1343300,588.28,871.25,1.0,2,FIX
1358400,576.45,877.21,1.0,1,FIX
1379900,513.55,796.3,1.0,1,FIX
1395300,521.04,820.72,1.0,1,FIX
1424600,507.83,884.17,1.0,1,FIX
1439700,499.44,867.47,1.0,1,FIX
1454400,470.94,824.74,1.0,1,SACCADE
1491300,440.48,828.24,1.0,2,SACCADE
1505700,448.28,842.3,1.0,2,SACCADE
1520200,546.77,907.51,1.0,2,FIX
1535200,554.83,902.94,1.0,2,FIX
1550200,875.6,956.97,1.0,3,FIX
1572000,1090.42,681.63,1.0,1,FIX
1587400,1165.03,534.33,1.0,1,FIX
1601300,1227.85,535.59,1.0,1,FIX
1616900,1232.03,602.24,1.0,1,FIX
1631900,1226.85,563.0,1.0,1,FIX
1647100,1237.63,600.16,1.0,1,FIX
1668900,1253.42,644.3,1.0,1,FIX
1682900,1253.82,612.41,1.0,1,FIX
1698700,1301.05,599.51,1.0,1,FIX
1713000,1288.09,639.88,1.0,1,FIX
1728100,1257.66,601.49,1.0,1,FIX
1742000,1280.76,594.72,1.0,1,SACCADE
1764400,1245.92,593.18,1.0,1,SACCADE
1779300,1246.28,600.0,1.0,1,SACCADE
1810400,1272.36,603.28,1.0,4,SP
1825300,1236.13,615.46,1.0,4,FIX
1854200,1403.99,613.74,1.0,4,FIX
1876900,1636.17,602.59,1.0,4,FIX
1892000,1729.31,606.8,1.0,4,FIX
1907000,1775.49,537.38,1.0,4,FIX
1921500,1813.52,578.89,1.0,4,FIX
1935400,1798.46,556.76,1.0,4,SACCADE
1950100,1742.3,643.5,1.0,4,SACCADE
1972700,1712.77,581.64,1.0,4,FIX
1987900,1666.58,557.91,1.0,4,FIX
2003000,1623.49,570.97,1.0,4,FIX
2018600,1515.15,624.91,1.0,4,FIX
2047900,1402.63,551.19,1.0,4,FIX
2062100,1392.05,521.07,1.0,1,FIX
2084600,1409.4,582.13,1.0,1,FIX
2099600,1314.08,541.54,1.0,1,FIX
2114900,1365.21,577.31,1.0,1,FIX
2129300,1334.9,534.44,1.0,1,SACCADE
2144400,1329.26,571.69,1.0,1,SACCADE
2174500,1300.71,589.89,1.0,2,SACCADE
2197300,1275.82,575.66,1.0,2,SP
2226500,1254.61,637.83,1.0,3,FIX
2240600,1119.36,770.09,1.0,3,FIX
2255500,882.75,852.24,1.0,1,FIX
2270500,859.45,1002.2,1.0,1,FIX
2293000,786.45,999.74,1.0,1,FIX
2307700,862.12,1049.9,1.0,1,FIX
2322000,816.47,1061.22,1.0,1,FIX
2337200,803.63,1035.81,1.0,1,SACCADE
2352200,714.11,938.38,1.0,1,SACCADE
2367100,794.65,1017.69,1.0,1,SP
2382100,702.15,924.38,1.0,1,FIX
2404800,794.25,953.88,1.0,1,UNKNOWN
2419700,799.35,994.49,1.0,1,UNKNOWN
