%@metadata width_px 1920.0
%@metadata height_px 1080.0
%@metadata width_mm 540.0
%@metadata height_mm 254.0
%@metadata distance_mm 620.0
% The number after speed, direction denotes the step size that was used for the calculation.
% Acceleration was calculated between two adjacent samples of the already low pass filtered velocity
@RELATION gaze_labels

@ATTRIBUTE time INTEGER
@ATTRIBUTE x NUMERIC
@ATTRIBUTE y NUMERIC
@ATTRIBUTE confidence NUMERIC
@ATTRIBUTE handlabeller_final INTEGER
@ATTRIBUTE EYE_MOVEMENT_TYPE {UNKNOWN, FIX, SACCADE, SP, NOISE, BLINK, NOISE_CLUSTER, PSO}

@DATA
0,189.35,678.67,1.0,0,NOISE
14600,167.42,644.95,1.0,0,NOISE
29100,227.25,696.03,1.0,0,NOISE
51000,197.52,687.68,1.0,0,NOISE
66300,191.07,707.43,1.0,0,NOISE
80500,162.69,645.91,1.0,0,NOISE
95300,186.4,678.11,1.0,0,NOISE
109900,177.24,660.86,1.0,0,NOISE
124500,177.24,660.86,1.0,0,NOISE
147400,167.87,630.88,1.0,0,NOISE
161600,165.8,658.84,1.0,0,NOISE
176000,173.29,668.06,1.0,0,NOISE
205800,169.93,690.59,1.0,0,NOISE
227000,172.41,623.71,1.0,0,NOISE
241100,309.92,685.61,1.0,0,NOISE
271700,787.67,872.08,1.0,0,NOISE
286900,872.51,893.3,1.0,0,NOISE
316800,758.46,805.72,1.0,0,FIX
339600,836.3,883.25,1.0,0,UNKNOWN
354000,762.89,815.32,1.0,0,UNKNOWN
369100,769.56,803.6,1.0,0,UNKNOWN
384600,851.52,824.01,1.0,0,UNKNOWN
400100,1108.16,731.46,1.0,0,UNKNOWN
414000,1241.96,603.34,1.0,0,UNKNOWN
429100,1321.5,648.31,1.0,0,UNKNOWN
444500,1340.98,660.64,1.0,0,UNKNOWN
466900,1315.9,600.93,1.0,0,UNKNOWN
481100,1371.57,642.96,1.0,0,UNKNOWN
495000,1321.0,619.64,1.0,0,UNKNOWN
509900,1328.49,616.23,1.0,0,UNKNOWN
524500,1333.22,580.51,1.0,0,UNKNOWN
546900,1363.42,571.99,1.0,0,UNKNOWN
561300,1350.96,639.0,1.0,0,UNKNOWN
576100,1311.23,580.33,1.0,0,UNKNOWN
590100,1324.25,572.68,1.0,0,UNKNOWN
612700,1341.11,634.31,1.0,0,UNKNOWN
642900,1241.94,688.11,1.0,0,UNKNOWN
657600,1109.41,769.55,1.0,0,UNKNOWN
671900,1115.92,768.1,1.0,0,UNKNOWN
701300,1038.2,795.41,1.0,0,UNKNOWN
723400,1089.29,803.23,1.0,0,UNKNOWN
738100,1057.37,778.53,1.0,0,UNKNOWN
753300,1086.29,763.13,1.0,0,UNKNOWN
767500,1087.35,761.05,1.0,0,UNKNOWN
781500,1088.39,794.36,1.0,0,UNKNOWN
796600,1108.19,789.06,1.0,0,UNKNOWN
818300,1158.96,739.87,1.0,0,UNKNOWN
834100,1291.1,601.25,1.0,0,UNKNOWN
849000,1380.01,538.66,1.0,0,UNKNOWN
863600,1432.89,542.94,1.0,0,UNKNOWN
878700,1475.71,601.02,1.0,0,UNKNOWN
892900,1458.15,559.98,1.0,0,UNKNOWN
915600,1421.28,576.6,1.0,0,UNKNOWN
929700,1409.48,544.4,1.0,0,UNKNOWN
944400,1420.25,548.25,1.0,0,UNKNOWN
959000,1413.98,538.46,1.0,0,UNKNOWN
973600,1453.03,564.39,1.0,0,UNKNOWN
988400,1441.25,563.9,1.0,0,UNKNOWN
1025600,1430.27,542.36,1.0,0,UNKNOWN
1039700,1471.07,555.61,1.0,0,UNKNOWN
1068500,1399.83,584.14,1.0,0,UNKNOWN
1090400,1336.23,586.13,1.0,0,UNKNOWN
1105700,1367.67,598.03,1.0,0,UNKNOWN
1119700,1356.0,589.95,1.0,0,UNKNOWN
1134300,1376.85,599.11,1.0,0,UNKNOWN
1149200,1347.36,586.38,1.0,0,UNKNOWN
1164500,1384.02,620.9,1.0,0,UNKNOWN
1187000,1412.48,587.47,1.0,0,UNKNOWN
1201000,1384.05,548.37,1.0,0,UNKNOWN
1215900,1368.16,603.11,1.0,0,UNKNOWN
1229900,1406.76,594.71,1.0,0,UNKNOWN
1244500,1368.77,586.04,1.0,0,UNKNOWN
1267600,1402.63,669.29,1.0,0,UNKNOWN
1282700,1302.92,637.95,1.0,4,UNKNOWN
1297600,1732.66,568.92,1.0,4,UNKNOWN
1312100,1738.72,557.76,1.0,4,UNKNOWN
1327100,1947.39,586.8,1.0,4,UNKNOWN
1341100,1945.97,562.16,1.0,4,UNKNOWN
1363100,1870.17,652.8,1.0,0,UNKNOWN
1392700,1647.83,708.27,1.0,0,UNKNOWN
1407800,1287.72,813.77,1.0,0,UNKNOWN
1422800,1324.52,717.97,1.0,0,UNKNOWN
1453300,1304.88,760.47,1.0,0,UNKNOWN
1475500,1328.21,766.07,1.0,0,UNKNOWN
1489600,1328.04,741.27,1.0,0,UNKNOWN
1504800,1303.95,719.81,1.0,0,UNKNOWN
1519900,1292.18,694.17,1.0,0,UNKNOWN
1534000,1264.24,696.57,1.0,0,UNKNOWN
1549000,1211.31,647.44,1.0,0,UNKNOWN
1564600,1244.87,649.38,1.0,0,UNKNOWN
1586400,1304.66,732.12,1.0,0,UNKNOWN
1602000,1260.98,660.2,1.0,0,UNKNOWN
1616600,1204.48,640.05,1.0,0,UNKNOWN
1630600,1263.96,667.63,1.0,0,UNKNOWN
1645600,1277.5,709.73,1.0,0,UNKNOWN
1667700,1247.85,661.77,1.0,0,UNKNOWN
1682700,1250.42,732.85,1.0,0,UNKNOWN
1697900,1238.12,663.75,1.0,0,UNKNOWN
1711800,1291.67,679.92,1.0,0,UNKNOWN
1727000,1248.78,704.15,1.0,0,UNKNOWN
1741000,1248.78,704.15,1.0,0,UNKNOWN
1778400,1343.04,733.3,1.0,0,UNKNOWN
1793600,1316.22,726.85,1.0,0,UNKNOWN
1824000,1213.06,728.93,1.0,0,UNKNOWN
1838700,1088.93,863.0,1.0,0,UNKNOWN
1854200,916.21,836.91,1.0,0,UNKNOWN
1868700,918.4,875.37,1.0,0,UNKNOWN
1889900,933.77,854.24,1.0,0,UNKNOWN
1904600,994.42,884.94,1.0,0,UNKNOWN
1919800,942.32,894.4,1.0,0,UNKNOWN
1934500,939.1,904.42,1.0,0,UNKNOWN
1949600,983.23,862.13,1.0,0,UNKNOWN
1964400,981.6,877.67,1.0,0,UNKNOWN
1987000,942.27,877.13,1.0,0,UNKNOWN
2001000,937.84,878.94,1.0,0,UNKNOWN
2016500,948.01,897.11,1.0,0,UNKNOWN
2033000,909.15,865.44,1.0,0,UNKNOWN
2047600,956.93,854.43,1.0,0,UNKNOWN
2062600,919.15,855.46,1.0,0,UNKNOWN
2077600,916.2,856.26,1.0,0,UNKNOWN
2099200,911.17,834.04,1.0,0,UNKNOWN
2113700,958.4,815.28,1.0,0,UNKNOWN
2142800,973.77,900.89,1.0,0,UNKNOWN
2156900,952.01,838.57,1.0,0,UNKNOWN
2194600,971.52,862.34,1.0,0,UNKNOWN
2209600,945.47,846.8,1.0,0,UNKNOWN
2224600,1044.17,903.54,1.0,0,UNKNOWN
2239600,1046.04,733.32,1.0,0,UNKNOWN
2254100,1149.22,668.74,1.0,0,UNKNOWN
2269200,1237.66,610.21,1.0,0,UNKNOWN
2291800,1286.68,605.69,1.0,0,UNKNOWN
2307100,1336.17,631.55,1.0,0,UNKNOWN
2322800,1245.92,647.49,1.0,0,UNKNOWN
2337900,1342.96,653.16,1.0,0,UNKNOWN
2353100,1334.1,663.5,1.0,0,UNKNOWN
2368100,1314.31,638.68,1.0,0,UNKNOWN
2383300,1316.15,636.85,1.0,0,UNKNOWN
2398300,1299.0,652.87,1.0,0,UNKNOWN
2412900,1256.35,644.81,1.0,0,UNKNOWN
2435400,1355.79,654.33,1.0,0,UNKNOWN
2450300,1275.53,624.8,1.0,0,UNKNOWN
2464900,1324.68,703.42,1.0,0,UNKNOWN
2480000,1407.52,617.06,1.0,0,UNKNOWN
2510400,1464.67,536.58,1.0,0,UNKNOWN
2525200,1507.43,602.94,1.0,4,UNKNOWN
2540500,1704.51,581.04,1.0,4,UNKNOWN
2576900,1876.93,561.41,1.0,4,UNKNOWN
2592600,1881.23,585.45,1.0,4,UNKNOWN
2607500,1858.31,549.42,1.0,0,UNKNOWN
2622600,1815.59,594.04,1.0,0,UNKNOWN
2638100,1740.55,630.25,1.0,0,UNKNOWN
2653500,1676.09,615.9,1.0,0,UNKNOWN
2668900,1669.44,607.48,1.0,0,UNKNOWN
2690800,1566.33,611.7,1.0,0,UNKNOWN
2705800,1567.0,602.61,1.0,0,UNKNOWN
2719900,1508.33,587.99,1.0,0,UNKNOWN
2735000,1475.47,591.3,1.0,0,UNKNOWN
2749900,1520.25,589.23,1.0,0,UNKNOWN
2765000,1516.49,595.06,1.0,0,UNKNOWN
2787900,1418.95,569.53,1.0,0,UNKNOWN
2802700,1517.35,577.2,1.0,0,UNKNOWN
2817700,1510.04,560.69,1.0,0,UNKNOWN
2846900,1504.18,561.45,1.0,0,UNKNOWN
2861800,1496.53,565.9,1.0,0,UNKNOWN
2892700,1484.98,634.91,1.0,0,UNKNOWN
2915000,1334.53,816.57,1.0,0,UNKNOWN
2944500,1300.75,984.66,1.0,0,UNKNOWN
2959600,1264.95,1056.46,1.0,0,UNKNOWN
2974300,1286.74,1022.31,1.0,0,UNKNOWN
2989200,1260.24,1043.73,1.0,0,UNKNOWN
3004400,1300.33,1024.53,1.0,0,UNKNOWN
3027000,1317.27,1066.69,1.0,0,UNKNOWN
3041000,1304.43,1047.95,1.0,0,UNKNOWN
3055800,1278.97,1045.41,1.0,0,UNKNOWN
3070100,1283.1,1071.22,1.0,0,UNKNOWN
3084700,1286.99,1070.31,1.0,0,UNKNOWN
3107000,1289.45,1085.05,1.0,0,UNKNOWN
3122000,1288.31,1040.11,1.0,0,UNKNOWN
3137000,1260.08,1002.42,1.0,0,UNKNOWN
3152100,1221.89,1031.74,1.0,0,UNKNOWN
3166700,1137.77,1040.14,1.0,0,UNKNOWN
3181600,1072.87,1003.27,1.0,0,UNKNOWN
3196600,1047.26,952.04,1.0,0,UNKNOWN
3218200,1034.13,895.2,1.0,0,UNKNOWN
3233600,1055.65,937.38,1.0,0,UNKNOWN
3262700,1043.18,932.71,1.0,0,UNKNOWN
3277500,1035.67,906.07,1.0,0,UNKNOWN
3293000,1024.31,859.51,1.0,0,UNKNOWN
3330000,1032.4,920.94,1.0,4,UNKNOWN
3344800,1078.06,949.65,1.0,4,UNKNOWN
3360100,1238.4,754.86,1.0,4,UNKNOWN
3375200,1853.79,665.04,1.0,4,UNKNOWN
3390500,1904.08,593.18,1.0,4,UNKNOWN
3405500,1906.67,602.42,1.0,4,UNKNOWN
3420400,1816.99,694.67,1.0,0,UNKNOWN
3442700,1728.11,695.69,1.0,0,UNKNOWN
3458000,1695.1,718.07,1.0,0,UNKNOWN
3472900,1476.63,661.53,1.0,0,UNKNOWN
3488000,1378.37,688.46,1.0,0,UNKNOWN
3502900,1195.19,682.9,1.0,0,UNKNOWN
3518400,1305.14,691.01,1.0,0,UNKNOWN
3533000,1242.36,691.88,1.0,0,UNKNOWN
3555700,1183.41,671.79,1.0,0,UNKNOWN
3570100,1249.63,763.04,1.0,0,UNKNOWN
3584900,1252.39,727.59,1.0,0,UNKNOWN
3600100,1238.67,710.38,1.0,0,UNKNOWN
3614900,1232.16,675.69,1.0,0,UNKNOWN
3644400,1279.98,646.46,1.0,0,UNKNOWN
3666500,1416.46,583.66,1.0,0,UNKNOWN
3695000,1445.9,584.62,1.0,0,UNKNOWN
3710700,1466.51,599.2,1.0,0,UNKNOWN
3725000,1420.13,629.13,1.0,0,UNKNOWN
3747200,1469.12,571.79,1.0,0,UNKNOWN
3762000,1473.68,589.88,1.0,0,UNKNOWN
3776900,1496.83,606.26,1.0,0,UNKNOWN
3791000,1508.51,594.12,1.0,0,UNKNOWN
3806000,1517.47,594.81,1.0,0,UNKNOWN
3821600,1490.23,570.34,1.0,0,UNKNOWN
3843100,1479.94,548.93,1.0,0,UNKNOWN
3858000,1475.99,578.05,1.0,0,UNKNOWN
3872000,1509.16,574.33,1.0,0,UNKNOWN
3887000,1425.34,637.26,1.0,0,UNKNOWN
3901000,1370.3,594.77,1.0,0,UNKNOWN
3923400,1207.76,743.58,1.0,0,UNKNOWN
3939000,1150.46,824.13,1.0,0,UNKNOWN
3953000,1114.97,807.25,1.0,0,UNKNOWN
3967500,1156.71,794.3,1.0,0,UNKNOWN
3981500,1153.4,758.31,1.0,0,UNKNOWN
4017600,1115.61,819.77,1.0,0,UNKNOWN
4031700,1108.58,799.39,1.0,0,UNKNOWN
4061300,1143.13,785.94,1.0,0,UNKNOWN
4083300,1142.98,790.3,1.0,0,UNKNOWN
4098300,1031.24,859.1,1.0,0,UNKNOWN
4112700,856.42,842.41,1.0,0,UNKNOWN
4127900,776.16,852.49,1.0,0,UNKNOWN
4142000,804.6,841.76,1.0,0,UNKNOWN
4156400,819.54,879.46,1.0,0,UNKNOWN
4178000,772.56,838.05,1.0,0,UNKNOWN
4193600,784.48,841.28,1.0,0,UNKNOWN
4208900,772.63,852.94,1.0,0,UNKNOWN
4223100,843.29,872.32,1.0,0,UNKNOWN
4237800,806.15,816.02,1.0,0,UNKNOWN
4259500,791.59,841.43,1.0,0,UNKNOWN
4274900,827.44,876.91,1.0,0,UNKNOWN
4289900,838.3,913.86,1.0,0,UNKNOWN
4305100,785.53,845.22,1.0,0,UNKNOWN
4319900,954.4,908.47,1.0,0,UNKNOWN
4334500,1293.5,559.2,1.0,0,UNKNOWN
4349400,1294.16,584.7,1.0,0,UNKNOWN
4387000,1692.38,603.91,1.0,4,UNKNOWN
4403000,1838.7,588.15,1.0,4,UNKNOWN
4418000,1888.07,596.18,1.0,4,UNKNOWN
4448200,1863.35,564.91,1.0,0,UNKNOWN
4463200,1871.72,573.42,1.0,0,UNKNOWN
4478200,1765.3,586.07,1.0,0,UNKNOWN
4492900,1701.34,610.15,1.0,0,UNKNOWN
4514800,1706.77,627.28,1.0,0,UNKNOWN
4529800,1635.72,670.62,1.0,0,UNKNOWN
4544400,1565.24,643.07,1.0,0,UNKNOWN
4558900,1590.75,640.22,1.0,0,UNKNOWN
4573000,1503.37,644.66,1.0,0,UNKNOWN
4595200,1432.26,662.39,1.0,0,UNKNOWN
4610100,1444.62,595.49,1.0,0,UNKNOWN
4624600,1486.88,650.69,1.0,0,UNKNOWN
4639700,1503.21,644.41,1.0,0,UNKNOWN
4654200,1471.84,598.62,1.0,0,UNKNOWN
4669600,1508.87,616.95,1.0,0,UNKNOWN
4691200,1490.43,646.49,1.0,0,UNKNOWN
4706100,1484.63,623.11,1.0,0,UNKNOWN
4720100,1479.43,628.09,1.0,0,UNKNOWN
4735000,1449.0,589.34,1.0,0,UNKNOWN
4764800,1451.53,588.6,1.0,0,UNKNOWN
4787800,1514.35,561.79,1.0,0,UNKNOWN
4817300,1547.59,577.2,1.0,0,UNKNOWN
4831200,1525.29,546.21,1.0,0,UNKNOWN
4845800,1549.81,548.63,1.0,0,UNKNOWN
4867700,1582.36,587.02,1.0,0,UNKNOWN
4882900,1538.57,580.37,1.0,0,UNKNOWN
4897300,1550.73,574.16,1.0,0,UNKNOWN
4911300,1564.56,554.96,1.0,0,UNKNOWN
4926100,1583.88,605.58,1.0,0,UNKNOWN
4940800,1544.5,572.72,1.0,0,UNKNOWN
4963000,1584.9,606.43,1.0,0,UNKNOWN
4978000,1584.47,575.02,1.0,0,UNKNOWN
4992500,1546.03,614.46,1.0,0,UNKNOWN
5007500,1526.54,580.2,1.0,0,UNKNOWN
5022700,1547.69,588.35,1.0,0,UNKNOWN
5037700,1607.58,588.78,1.0,0,UNKNOWN
5058600,1524.23,584.42,1.0,0,UNKNOWN
5073300,1580.53,610.1,1.0,0,UNKNOWN
5087700,1602.07,592.25,1.0,0,UNKNOWN
5101800,1602.69,595.05,1.0,0,UNKNOWN
5138400,1287.25,765.99,1.0,0,UNKNOWN
5154200,1112.61,891.89,1.0,0,UNKNOWN
5169000,880.85,869.41,1.0,0,UNKNOWN
5198000,918.34,869.15,1.0,0,UNKNOWN
5212600,979.58,895.07,1.0,0,UNKNOWN
5235100,932.43,872.89,1.0,0,UNKNOWN
5249700,933.71,858.27,1.0,0,UNKNOWN
5264900,979.94,894.17,1.0,0,UNKNOWN
5280600,902.09,875.02,1.0,0,UNKNOWN
5294900,946.96,886.78,1.0,0,UNKNOWN
5309800,930.12,851.32,1.0,0,UNKNOWN
5324500,956.9,867.14,1.0,0,UNKNOWN
5347100,922.46,885.55,1.0,0,UNKNOWN
5361800,990.49,916.84,1.0,0,UNKNOWN
5377000,992.97,891.42,1.0,0,UNKNOWN
5407700,904.31,831.91,1.0,0,UNKNOWN
