%@metadata width_px 1920.0
%@metadata height_px 1080.0
%@metadata width_mm 540.0
%@metadata height_mm 254.0
%@metadata distance_mm 620.0
% The number after speed, direction denotes the step size that was used for the calculation.
% Acceleration was calculated between two adjacent samples of the already low pass filtered velocity
@RELATION gaze_labels

@ATTRIBUTE time INTEGER
@ATTRIBUTE x NUMERIC
@ATTRIBUTE y NUMERIC
@ATTRIBUTE confidence NUMERIC
@ATTRIBUTE handlabeller_final INTEGER
@ATTRIBUTE EYE_MOVEMENT_TYPE {UNKNOWN, FIX, SACCADE, SP, NOISE, BLINK, NOISE_CLUSTER, PSO}

@DATA
0,285.13,963.85,1.0,1,FIX
15900,260.5,968.34,1.0,1,FIX
32600,257.06,968.64,1.0,1,FIX
48300,274.5,963.07,1.0,1,FIX
63900,284.93,954.62,1.0,1,FIX
79900,240.81,969.88,1.0,1,FIX
96100,275.33,959.05,1.0,1,FIX
111900,309.02,962.78,1.0,1,FIX
144000,257.84,956.34,1.0,1,FIX
159900,269.26,966.1,1.0,1,FIX
175900,246.41,948.94,1.0,1,FIX
192000,310.49,959.16,1.0,1,FIX
207900,313.8,969.77,1.0,1,FIX
224000,304.59,964.81,1.0,1,FIX
241300,312.98,970.06,1.0,1,FIX
255900,276.18,957.03,1.0,1,FIX
271800,329.34,975.6,1.0,1,FIX
287900,328.72,965.85,1.0,1,FIX
319900,304.44,956.47,1.0,1,FIX
336100,287.35,974.55,1.0,1,FIX
368200,343.56,962.23,1.0,1,FIX
383900,291.95,958.46,1.0,1,FIX
399900,257.52,963.01,1.0,1,FIX
416000,348.09,971.03,1.0,1,FIX
431900,269.25,967.69,1.0,2,SACCADE
448800,312.37,966.09,1.0,2,SACCADE
464300,304.08,958.31,1.0,3,SP
479900,215.11,959.76,1.0,1,FIX
495900,140.53,955.04,1.0,1,FIX
512000,192.22,966.79,1.0,1,FIX
527800,168.55,955.34,1.0,1,FIX
560100,197.68,968.25,1.0,1,FIX
575900,148.82,958.98,1.0,1,FIX
591900,162.25,975.03,1.0,1,FIX
608000,149.42,959.66,1.0,1,FIX
623900,123.13,971.32,1.0,1,FIX
657800,128.86,959.91,1.0,1,FIX
687900,154.28,964.28,1.0,1,FIX
704000,138.15,952.78,1.0,1,SACCADE
719900,134.58,962.07,1.0,2,SACCADE
751900,144.72,962.93,1.0,3,SACCADE
767900,27.94,953.49,1.0,1,FIX
783900,-46.21,949.08,1.0,1,FIX
800000,-79.56,950.34,1.0,1,FIX
816000,-77.3,946.95,1.0,1,FIX
831900,-96.76,944.67,1.0,1,FIX
848000,-63.05,951.28,1.0,1,FIX
863900,-68.72,953.85,1.0,1,FIX
880000,-78.66,957.41,1.0,1,FIX
912800,-22.2,950.38,1.0,2,SACCADE
927900,-59.07,963.02,1.0,2,SACCADE
943900,-54.99,966.54,1.0,2,SACCADE
959900,186.49,969.46,1.0,3,SACCADE
975900,628.17,966.45,1.0,3,SACCADE
993400,854.76,970.87,1.0,1,SP
1009200,789.03,957.04,1.0,1,FIX
1039900,824.3,969.9,1.0,2,FIX
1071900,1119.14,983.84,1.0,2,FIX
1088900,1082.45,975.14,1.0,3,FIX
1120100,1212.44,972.48,1.0,1,FIX
1135900,1227.71,982.36,1.0,1,FIX
1151900,1242.62,985.03,1.0,1,FIX
1167900,1199.21,970.19,1.0,1,FIX
1183900,1224.58,974.34,1.0,1,FIX
1199900,1229.17,972.28,1.0,1,FIX
1215900,1257.49,974.92,1.0,1,FIX
1231900,1206.22,968.53,1.0,2,SACCADE
1263900,1214.13,973.71,1.0,2,SACCADE
1280100,1266.38,970.41,1.0,1,SP
1295900,1387.11,980.63,1.0,1,FIX
1312000,1437.94,978.04,1.0,1,FIX
1327900,1423.9,974.38,1.0,1,FIX
1344000,1418.22,972.98,1.0,1,FIX
1359900,1430.54,973.41,1.0,1,FIX
1376000,1397.67,974.74,1.0,1,FIX
1392100,1418.35,976.06,1.0,1,FIX
1408000,1417.62,972.98,1.0,1,FIX
1439800,1403.88,973.53,1.0,1,FIX
1455900,1420.18,970.39,1.0,1,FIX
