%@metadata width_px 1920.0
%@metadata height_px 1080.0
%@metadata width_mm 540.0
%@metadata height_mm 254.0
%@metadata distance_mm 620.0
% The number after speed, direction denotes the step size that was used for the calculation.
% Acceleration was calculated between two adjacent samples of the already low pass filtered velocity
@RELATION gaze_labels

@ATTRIBUTE time INTEGER
@ATTRIBUTE x NUMERIC
@ATTRIBUTE y NUMERIC
@ATTRIBUTE confidence NUMERIC
@ATTRIBUTE handlabeller_final INTEGER
@ATTRIBUTE EYE_MOVEMENT_TYPE {UNKNOWN, FIX, SACCADE, SP, NOISE, BLINK, NOISE_CLUSTER, PSO}

@DATA
0,586.83,943.93,1.0,1,FIX
31900,586.14,941.34,1.0,1,FIX
47900,516.11,940.99,1.0,1,FIX
63900,558.88,950.79,1.0,1,FIX
95900,510.47,952.74,1.0,1,FIX
111800,487.65,949.81,1.0,1,FIX
127800,445.79,960.71,1.0,1,FIX
144700,415.71,956.03,1.0,2,SACCADE
175800,433.64,948.91,1.0,3,SACCADE
191800,211.5,937.34,1.0,1,SP
208100,66.54,931.62,1.0,1,FIX
224000,-26.72,937.87,1.0,1,FIX
245100,-19.91,950.01,1.0,1,FIX
257300,-56.7,936.28,1.0,1,FIX
272500,-62.48,936.23,1.0,1,FIX
287900,-37.01,938.87,1.0,1,SACCADE
319800,-32.5,942.89,1.0,2,SACCADE
335800,4.62,938.44,1.0,2,SP
351900,72.05,938.87,1.0,2,FIX
368300,173.9,940.96,1.0,1,FIX
383800,203.94,952.63,1.0,1,FIX
415800,209.8,945.21,1.0,1,FIX
431800,216.7,960.1,1.0,1,FIX
465300,239.98,955.06,1.0,1,FIX
479900,247.36,961.63,1.0,1,FIX
495800,131.69,949.02,1.0,1,FIX
511900,180.93,953.5,1.0,1,FIX
527800,147.81,948.45,1.0,1,FIX
543800,142.21,957.59,1.0,1,FIX
560000,120.49,966.67,1.0,1,FIX
576300,98.35,945.29,1.0,1,FIX
592200,150.62,972.18,1.0,1,FIX
608000,157.1,969.9,1.0,1,FIX
623900,104.18,944.35,1.0,2,FIX
639900,133.26,971.14,1.0,3,FIX
655900,176.34,955.52,1.0,3,FIX
688000,210.97,971.1,1.0,1,FIX
703900,244.32,969.45,1.0,1,FIX
719900,214.07,956.02,1.0,1,FIX
735800,172.26,961.28,1.0,1,FIX
751800,156.68,961.9,1.0,1,FIX
800100,160.65,968.01,1.0,1,FIX
815800,201.06,968.65,1.0,1,FIX
847800,205.56,962.33,1.0,1,FIX
863800,176.71,969.0,1.0,1,FIX
881100,199.2,965.34,1.0,1,FIX
896000,179.6,961.04,1.0,1,FIX
911900,209.54,967.65,1.0,1,FIX
927900,178.48,964.24,1.0,1,FIX
943900,162.56,964.54,1.0,1,FIX
977000,186.92,964.72,1.0,1,FIX
1023900,249.94,974.06,1.0,1,FIX
1039900,176.24,961.43,1.0,1,FIX
1055900,132.37,969.08,1.0,1,FIX
1071800,129.03,962.79,1.0,1,FIX
1087900,187.0,968.36,1.0,1,FIX
1103900,111.63,955.3,1.0,1,FIX
1119700,106.35,960.84,1.0,1,FIX
1135800,160.31,980.14,1.0,1,FIX
1167900,128.5,971.66,1.0,1,FIX
1183900,152.69,980.44,1.0,1,FIX
1216000,112.43,955.07,1.0,1,FIX
1231800,140.95,974.33,1.0,1,FIX
1249400,161.54,975.61,1.0,1,FIX
1264400,145.91,975.51,1.0,1,FIX
1280000,141.97,968.62,1.0,1,FIX
1295800,178.53,974.1,1.0,2,SACCADE
1311800,167.32,966.62,1.0,2,SACCADE
1327800,169.93,976.42,1.0,3,SP
1343900,-11.66,960.89,1.0,1,FIX
1360100,-171.65,938.8,1.0,1,FIX
1376000,-208.18,951.61,1.0,1,FIX
1407800,-184.73,960.8,1.0,2,FIX
1423800,-217.82,966.73,1.0,2,SACCADE
1439800,-179.12,957.32,1.0,2,SACCADE
1455900,-16.93,965.4,1.0,2,SP
1472000,433.57,972.13,1.0,3,FIX
1487900,808.38,976.62,1.0,1,FIX
1504500,897.92,980.06,1.0,1,FIX
1535800,810.92,963.61,1.0,1,FIX
1552000,826.93,960.85,1.0,1,FIX
1583900,846.5,967.6,1.0,1,FIX
1600800,856.2,973.31,1.0,1,FIX
1616600,871.17,967.38,1.0,2,FIX
1631900,849.97,978.91,1.0,2,SACCADE
1647900,855.7,976.09,1.0,3,SACCADE
1663800,912.74,988.26,1.0,3,SP
1696000,1260.29,988.85,1.0,1,FIX
1712200,1227.03,985.69,1.0,1,FIX
1727900,1224.57,976.19,1.0,1,FIX
1743800,1185.54,988.32,1.0,1,FIX
1759800,1208.0,977.43,1.0,1,FIX
1776000,1230.05,987.18,1.0,1,FIX
1793300,1218.9,982.82,1.0,1,FIX
1808100,1218.9,982.82,1.0,2,SACCADE
1824000,1203.39,976.16,1.0,2,SACCADE
1839900,1185.77,972.95,1.0,2,SP
1855800,986.64,960.4,1.0,3,FIX
1871800,725.84,949.61,1.0,1,FIX
1904000,635.57,962.61,1.0,1,FIX
1919900,669.74,960.49,1.0,1,FIX
1935900,681.8,970.37,1.0,1,FIX
1967800,658.45,957.75,1.0,1,FIX
1983900,697.56,967.41,1.0,2,FIX
1999800,613.25,960.07,1.0,2,NOISE
2015900,665.17,964.2,1.0,2,NOISE
2031700,595.6,959.35,1.0,1,NOISE
2047800,404.93,966.29,1.0,1,NOISE
2063900,256.03,959.22,1.0,1,NOISE
