@RELATION gaze_labels

%@METADATA width_px 1920
%@METADATA height_px 1080
%@METADATA width_mm 540.00
%@METADATA height_mm 254.00
%@METADATA distance_mm 620.00


@ATTRIBUTE time INTEGER
@ATTRIBUTE x NUMERIC
@ATTRIBUTE y NUMERIC
@ATTRIBUTE confidence NUMERIC
@ATTRIBUTE handlabeller1 INTEGER
@ATTRIBUTE handlabeller2 INTEGER
@ATTRIBUTE handlabeller_final INTEGER
@ATTRIBUTE speed_1 numeric
@ATTRIBUTE direction_1 numeric
@ATTRIBUTE acceleration_1 numeric
@ATTRIBUTE speed_2 numeric
@ATTRIBUTE direction_2 numeric
@ATTRIBUTE acceleration_2 numeric
@ATTRIBUTE speed_4 numeric
@ATTRIBUTE direction_4 numeric
@ATTRIBUTE acceleration_4 numeric
@ATTRIBUTE speed_8 numeric
@ATTRIBUTE direction_8 numeric
@ATTRIBUTE acceleration_8 numeric
@ATTRIBUTE speed_16 numeric
@ATTRIBUTE direction_16 numeric
@ATTRIBUTE acceleration_16 numeric

%The number after speed, direction denotes the step size that was used for the calculation.
%Acceleration was calculated between two adjacent samples of the already low pass filtered velocity

@DATA
0,137.55,880.13,1.00,1,1,1,0.00,0.00,0.00,1454.89,-0.20,0.00,1010.16,-0.09,0.00,544.11,0.15,0.00,251.46,-0.16,0.00
14400,158.07,875.94,1.00,1,1,1,1454.89,-0.20,101033.89,1010.16,-0.09,32274.37,389.67,0.56,51263.12,128.09,1.82,39658.11,47.64,-0.03,14188.12
28900,166.62,877.51,1.00,1,1,1,599.37,0.18,63882.53,389.67,0.56,50909.58,544.11,0.15,16631.45,260.53,2.93,16094.58,238.37,0.10,13186.88
42900,167.49,881.83,1.00,1,1,1,314.75,1.37,40311.09,274.03,0.96,12499.78,128.09,1.82,40791.20,153.42,-0.30,29540.30,553.23,0.07,22503.54
64400,172.17,885.50,1.00,1,1,1,276.71,0.66,9680.16,324.14,2.96,23415.31,260.53,2.93,10854.48,251.46,-0.16,4748.72,946.74,0.04,18330.28
78900,156.01,883.94,1.00,1,1,1,1119.60,-3.05,93859.15,782.87,-2.94,34314.03,153.42,-0.30,28521.67,47.64,-0.03,14090.27,1269.31,0.03,22254.70
92900,150.32,881.01,1.00,1,1,1,457.73,-2.67,51075.91,757.46,-0.24,107383.52,167.63,-1.83,15900.84,238.37,0.10,13657.84,1176.27,0.02,6704.70
107300,176.93,878.90,1.00,1,1,1,1853.59,-0.08,156636.09,564.41,-0.30,13691.67,154.55,-0.75,11574.29,553.23,0.07,21878.44,758.22,-0.00,29088.17
128300,169.42,875.14,1.00,1,1,1,399.81,-2.68,105027.95,251.97,-2.89,37624.65,640.70,-0.00,25592.28,946.74,0.04,18766.72,502.62,-0.03,12191.05
156800,164.85,875.77,1.00,2,2,2,161.67,3.01,9882.37,737.48,0.19,34702.39,864.03,0.12,8451.35,1269.31,0.03,11322.57,460.54,0.01,1581.54
170900,200.29,880.96,1.00,3,3,3,2540.18,0.15,191195.14,2404.44,0.14,118305.66,1759.71,0.12,63524.38,1176.27,0.02,6657.15,387.48,0.01,5181.73
192600,250.10,887.75,1.00,1,1,1,2316.29,0.14,10375.05,2965.43,0.10,26423.05,2668.50,0.08,42009.27,758.22,-0.00,19302.75,308.73,-0.01,3637.27
207100,307.16,891.17,1.00,1,1,1,3942.19,0.06,113238.80,3005.18,0.03,14418.74,1818.29,0.03,59102.89,728.00,0.01,2230.26,425.57,-0.00,8058.71
221500,336.91,890.05,1.00,1,1,1,2068.08,-0.04,131565.42,450.13,-0.50,182273.69,633.02,-0.25,85060.19,867.17,0.01,9666.69,871.08,0.01,30945.65
236000,318.60,884.98,1.00,1,1,1,1310.97,-2.87,230422.39,1782.62,-2.92,147713.84,544.42,-2.71,76544.74,535.08,-0.03,22980.07,1429.25,0.02,38496.20
250900,285.81,878.45,1.00,1,1,1,2243.82,-2.94,63180.16,1218.16,-2.95,37993.80,607.53,-2.86,7143.93,72.93,-0.67,32117.46,1796.73,0.01,24665.88
272800,274.61,876.33,1.00,1,1,1,520.36,-2.96,78698.78,94.36,-0.37,59302.35,517.96,-2.98,5105.56,57.13,-2.41,4563.42,2223.35,0.02,19484.00
301400,290.24,876.71,1.00,1,1,1,546.83,0.02,37191.10,88.48,0.58,2946.99,319.78,3.04,7841.29,513.09,-0.03,19436.25,2417.99,0.01,6819.98
315800,277.79,878.43,1.00,1,1,1,873.36,3.00,98321.42,899.72,3.00,67213.18,293.31,0.33,41605.07,1657.25,0.01,79508.91,2341.69,0.01,5352.78
337200,258.35,881.19,1.00,2,2,2,917.46,3.00,2067.35,472.66,0.29,62811.63,1636.59,0.08,63264.50,2697.96,0.02,48633.78,2109.85,-0.01,11032.14
365700,300.40,885.13,1.00,2,2,2,1481.96,0.09,83643.84,3752.93,0.04,115679.41,3849.73,0.03,77781.44,3591.81,0.02,31363.51,1826.36,-0.01,9946.98
379800,418.10,887.52,1.00,3,3,3,8349.11,0.02,487374.97,9668.90,0.01,419729.39,5983.93,0.01,151541.22,3972.06,0.01,27008.41,1744.67,0.02,7023.54
394800,581.74,888.71,1.00,1,1,1,10909.89,0.01,170916.83,8583.14,-0.00,72922.79,8326.93,0.00,156239.03,4161.37,0.01,12621.07,2050.66,0.08,21602.93
416400,732.24,886.94,1.00,1,1,1,6968.01,-0.01,182657.27,7239.67,-0.00,62202.20,6756.64,-0.01,72787.34,4170.92,-0.00,2857.82,2505.44,0.11,21296.50
430700,841.64,887.71,1.00,1,1,1,7650.80,0.01,48702.90,4475.31,-0.01,193357.91,4542.57,-0.01,154830.11,3878.86,-0.00,20423.45,3026.09,0.11,36409.49
445700,863.35,885.04,1.00,1,1,1,1458.19,-0.12,413843.36,1203.98,-0.02,218094.94,1957.82,-0.05,172516.71,3089.14,0.03,53091.50,3347.96,0.08,22069.07
459700,876.55,886.84,1.00,1,1,1,951.24,0.14,42180.67,171.36,-2.38,95021.61,240.44,-0.15,122781.26,2488.45,0.12,46645.33,3318.60,0.05,7106.30
481200,858.96,880.83,1.00,1,1,1,864.46,-2.81,84056.85,320.93,-3.01,9738.82,198.74,1.39,14340.16,2313.16,0.22,14007.82,3265.58,0.03,4547.54
510100,860.51,884.76,1.00,2,2,2,146.34,1.20,33411.64,479.80,1.22,23844.91,970.01,0.63,28992.68,2449.39,0.24,5002.93,3203.84,0.02,2470.62
524900,866.14,900.53,1.00,2,2,2,1131.06,1.23,66540.76,3126.83,0.54,187111.99,2692.53,0.38,119437.31,2747.60,0.18,23110.73,2695.10,0.01,34390.05
539500,939.17,932.34,1.00,2,2,2,5455.66,0.41,325557.69,5556.66,0.30,179810.68,5130.73,0.27,169602.99,2565.46,0.11,17580.81,2116.00,0.01,39664.74
561300,1059.07,961.25,1.00,2,2,2,5657.98,0.24,45308.25,6871.65,0.17,72132.57,5990.00,0.14,50474.33,2451.26,0.07,6814.06,1589.91,0.01,24133.59
576100,1187.24,973.72,1.00,2,2,2,8700.85,0.10,215981.61,6719.96,-0.03,88787.91,4316.73,-0.00,123123.44,2533.20,0.05,7303.87,1274.54,0.02,21309.54
590400,1254.55,955.96,1.00,1,1,1,4868.24,-0.26,312505.98,2425.69,-0.41,318748.67,2478.35,-0.27,142239.11,2335.03,-0.01,16560.80,1193.15,0.03,5784.87
619200,1283.21,932.24,1.00,1,1,1,1291.48,-0.69,129708.16,936.69,-1.70,81590.41,1048.52,-1.06,65961.58,1818.83,-0.12,19647.61,1030.07,0.02,5663.60
640500,1248.40,909.43,1.00,1,1,1,1954.14,-2.56,124000.57,1776.44,-2.63,67226.13,660.58,-1.88,35896.15,1099.41,-0.37,37455.69,844.69,0.04,8717.01
655100,1227.45,901.30,1.00,1,1,1,1539.14,-2.77,37758.76,402.67,-2.37,95298.10,681.88,-2.47,27010.76,575.71,-0.94,47406.59,430.66,0.00,28396.30
683300,1236.00,897.46,1.00,1,1,1,332.39,-0.42,63413.94,226.98,-0.48,18496.82,221.61,-2.28,16535.69,340.79,-1.68,14004.90,235.39,-2.85,23389.47
704700,1237.45,896.12,1.00,1,1,1,92.00,-0.74,11536.44,73.72,-1.83,10405.95,208.53,-0.39,16290.88,505.17,-2.67,20108.55,1818.83,-0.12,95169.17
732700,1235.08,893.94,1.00,1,1,1,115.18,-2.40,5465.85,189.44,-0.27,7221.06,145.40,-0.15,2710.43,795.43,-2.99,12542.44,1099.41,-0.37,28493.08
747400,1245.24,893.96,1.00,2,2,2,691.24,0.00,53054.01,371.58,0.13,14307.76,359.37,-3.10,34213.92,1527.42,-3.07,50195.06,575.71,-0.94,47084.09
768400,1248.24,895.62,1.00,2,2,2,163.30,0.51,26384.92,1010.99,3.11,65676.62,1708.39,-3.11,64239.30,2942.43,-3.10,67444.83,340.79,-1.68,18806.58
782900,1209.37,895.02,1.00,3,3,3,2681.05,-3.13,194896.26,4311.94,-3.10,227890.13,4021.34,-3.11,159514.98,359.37,-3.10,178142.06,505.17,-2.67,29677.45
796900,1125.46,890.38,1.00,3,3,3,6002.58,-3.09,237525.67,7841.23,-3.10,252097.46,7025.78,-3.11,214603.36,1708.39,-3.11,96358.95,795.43,-2.99,25084.87
810900,990.05,884.80,1.00,1,1,1,9680.25,-3.10,262803.00,9186.37,-3.11,96453.42,7841.23,-3.10,58549.27,4021.34,-3.11,165211.94,1527.42,-3.07,52704.82
832700,796.76,879.66,1.00,1,1,1,8869.59,-3.11,37698.89,8869.59,-3.11,14742.58,9186.37,-3.11,61942.56,7025.78,-3.11,137818.67,2942.43,-3.10,64969.79
