@RELATION gaze_labels

%@METADATA width_px 1920
%@METADATA height_px 1080
%@METADATA width_mm 540.00
%@METADATA height_mm 254.00
%@METADATA distance_mm 620.00


@ATTRIBUTE time INTEGER
@ATTRIBUTE x NUMERIC
@ATTRIBUTE y NUMERIC
@ATTRIBUTE confidence NUMERIC
@ATTRIBUTE handlabeller1 INTEGER
@ATTRIBUTE handlabeller2 INTEGER
@ATTRIBUTE handlabeller_final INTEGER
@ATTRIBUTE speed_1 numeric
@ATTRIBUTE direction_1 numeric
@ATTRIBUTE acceleration_1 numeric
@ATTRIBUTE speed_2 numeric
@ATTRIBUTE direction_2 numeric
@ATTRIBUTE acceleration_2 numeric
@ATTRIBUTE speed_4 numeric
@ATTRIBUTE direction_4 numeric
@ATTRIBUTE acceleration_4 numeric
@ATTRIBUTE speed_8 numeric
@ATTRIBUTE direction_8 numeric
@ATTRIBUTE acceleration_8 numeric
@ATTRIBUTE speed_16 numeric
@ATTRIBUTE direction_16 numeric
@ATTRIBUTE acceleration_16 numeric

%The number after speed, direction denotes the step size that was used for the calculation.
%Acceleration was calculated between two adjacent samples of the already low pass filtered velocity

@DATA
0,-40.82,888.11,1.00,1,1,1,0.00,0.00,0.00,228.44,3.02,0.00,761.85,0.07,0.00,1208.44,0.03,0.00,372.44,-0.08,0.00
21500,-45.70,888.70,1.00,1,1,1,228.44,3.02,10625.11,761.85,0.07,45907.05,1868.08,0.04,51495.24,1388.19,0.02,8372.83,497.60,-0.07,5822.06
35800,-13.62,890.09,1.00,1,1,1,2245.31,0.04,172794.06,1868.08,0.04,77422.91,1208.44,0.03,46132.07,688.37,-0.04,49142.63,280.78,-0.19,15465.20
64000,33.65,891.48,1.00,1,1,1,1676.86,0.03,20180.43,1531.44,0.01,11998.34,1388.19,0.02,6383.54,73.70,-1.71,24792.61,46.71,-2.13,10665.75
85400,62.33,891.23,1.00,1,1,1,1340.43,-0.01,15948.57,984.62,0.00,25561.67,688.37,-0.04,32838.30,372.44,-0.08,17941.85,125.00,-3.01,4758.17
114500,83.37,891.63,1.00,1,1,1,723.13,0.02,21234.15,301.32,-2.84,43833.10,73.70,-1.71,24025.83,497.60,-0.07,4301.52,178.46,3.09,2075.01
128300,50.00,887.36,1.00,1,1,1,2438.11,-3.01,228839.05,1460.83,-3.02,84457.00,543.28,-2.96,38024.53,280.78,-0.19,16025.53,96.27,0.44,19359.36
149400,32.79,885.25,1.00,1,1,1,821.67,-3.02,76609.23,835.30,-3.01,29647.80,810.72,-2.97,12684.71,46.71,-2.13,14254.70,558.00,0.11,22178.31
164300,20.19,883.40,1.00,1,1,1,854.75,-3.00,2584.57,81.21,-1.82,54288.08,331.45,-2.88,32346.45,125.00,-3.01,6833.89,697.57,0.03,9976.50
178500,32.22,882.96,1.00,1,1,1,847.52,-0.04,119379.11,338.60,-0.17,24930.50,44.16,3.05,20458.20,178.46,3.09,4252.30,870.12,0.03,12151.49
192300,29.53,881.78,1.00,1,1,1,212.24,-2.73,75568.59,94.98,2.30,30242.00,384.14,0.22,30896.36,96.27,0.44,19359.36,919.17,0.02,3564.08
214700,29.92,885.51,1.00,1,1,1,167.41,1.47,14676.08,449.04,0.44,21645.73,351.24,0.37,2908.98,558.00,0.11,20891.18,812.51,0.03,4778.97
229200,44.51,888.86,1.00,1,1,1,1032.72,0.23,68373.45,682.94,0.26,17506.17,411.64,0.34,4286.50,1074.27,0.07,35673.21,558.54,0.04,17516.74
257200,57.95,893.06,1.00,2,2,2,502.59,0.30,19037.86,387.24,0.24,10566.51,1061.40,0.10,23856.90,1283.03,0.07,7457.02,620.85,0.04,2225.51
278700,63.11,893.50,1.00,2,2,2,241.19,0.08,12658.89,1530.95,0.01,53828.34,1652.30,0.04,27765.46,1621.16,0.06,15733.93,1042.51,0.03,19612.36
292700,112.29,893.83,1.00,3,3,3,3512.68,0.01,233733.74,3858.74,0.00,166287.09,2446.67,0.02,56810.37,1698.60,0.06,5564.50,1589.06,0.02,39053.72
307300,173.47,893.57,1.00,1,1,1,4190.69,-0.00,46527.25,3575.44,0.02,19923.01,3462.30,0.01,69564.80,1246.84,0.05,30958.79,2152.17,0.02,38572.70
321500,215.24,895.72,1.00,1,1,1,2945.56,0.05,88759.49,3072.15,0.03,35582.73,2468.57,0.04,70109.72,1411.72,0.03,11783.38,2238.36,0.02,6076.74
336300,262.52,896.41,1.00,1,1,1,3194.63,0.01,18478.53,1581.76,0.07,100829.01,757.08,0.08,115702.55,1946.90,0.02,36177.93,2275.55,0.02,2527.55
357400,271.91,899.46,1.00,1,1,1,467.69,0.31,130386.53,1131.75,3.12,128482.82,578.13,0.06,8503.27,2520.47,0.01,27204.03,2342.16,0.01,3233.11
371900,222.24,897.28,1.00,1,1,1,3428.63,-3.10,267682.31,242.86,-3.03,61479.49,1083.54,0.02,34916.32,3124.86,0.00,41683.32,2239.38,0.00,7125.62
401300,261.31,898.32,1.00,2,2,2,1329.29,0.03,161829.11,2287.21,0.01,86019.61,2557.29,-0.01,50160.65,2993.33,-0.00,4504.74,2240.65,-0.00,571.89
437400,372.05,898.44,1.00,3,3,3,3067.60,0.00,48173.52,4994.83,-0.01,75018.80,4751.83,-0.00,60798.14,2799.17,-0.01,5399.13,2165.99,-0.00,2068.26
451700,513.04,896.19,1.00,1,1,1,9860.73,-0.02,475089.31,10396.86,-0.01,377764.26,4891.12,-0.01,9777.18,2869.69,-0.01,5179.49,1903.34,-0.01,18368.61
466000,669.38,895.65,1.00,1,1,1,10933.40,-0.00,75558.88,4789.05,-0.00,392164.30,4978.76,-0.01,6663.13,3050.90,-0.01,12707.66,1714.79,-0.00,13191.45
502900,758.23,895.24,1.00,1,1,1,2407.90,-0.00,231043.27,1940.59,-0.03,77217.21,3235.19,-0.02,47251.62,2988.44,-0.02,1751.51,1609.44,-0.01,2869.09
517000,768.32,892.99,1.00,1,1,1,732.84,-0.22,120514.56,539.16,-0.20,100206.43,1068.27,-0.04,153727.41,2406.37,-0.02,41293.15,1533.77,-0.00,5384.49
532300,773.76,892.05,1.00,1,1,1,360.96,-0.17,24363.23,432.96,-3.05,62873.41,336.85,-2.91,91225.58,1227.68,-0.03,77047.25,1569.35,-0.01,2405.47
546700,755.51,891.85,1.00,1,1,1,1267.53,-3.13,112769.08,1200.12,-3.11,53340.87,720.90,-3.10,27431.59,311.65,-0.07,63633.04,1731.47,-0.00,11283.13
561200,739.10,890.83,1.00,1,1,1,1133.96,-3.08,10153.06,960.38,-3.12,16569.74,1281.94,-3.12,38720.19,222.33,-3.01,36648.37,1716.22,-0.01,1062.61
582500,721.14,891.15,1.00,1,1,1,843.51,3.12,14125.73,1348.65,-3.14,18250.83,464.63,3.13,38385.26,42.64,2.97,8544.80,1540.25,-0.01,8261.53
596800,691.09,890.65,1.00,1,1,1,2101.54,-3.12,88033.29,57.27,2.67,90767.49,140.85,3.10,22646.35,17.53,2.25,2223.71,894.42,-0.01,45167.33
625400,718.95,892.26,1.00,1,1,1,975.70,0.06,107576.16,852.45,0.02,31589.35,517.36,0.07,22992.20,129.51,0.17,4856.45,390.50,-0.04,17629.82
640100,727.99,891.25,1.00,1,1,1,619.37,-0.11,25845.58,1180.03,0.04,22345.37,1022.28,0.04,34376.21,298.70,0.11,11535.52,226.06,-0.07,11202.90
662100,762.22,894.01,1.00,2,2,2,1560.70,0.08,43641.52,1226.58,0.06,2440.17,844.81,0.05,8071.56,666.48,0.05,16754.63,472.75,-0.00,11258.49
676200,772.19,894.02,1.00,2,2,2,707.01,0.00,60838.41,411.85,0.08,57787.09,835.77,0.08,1857.58,587.37,0.02,5761.66,789.00,0.01,22436.49
690500,773.88,894.91,1.00,1,1,1,133.92,0.49,41391.96,338.22,0.15,5454.62,852.11,0.04,2533.47,478.66,-0.02,7789.98,1053.02,0.01,18463.86
704500,781.66,895.41,1.00,1,1,1,556.63,0.06,31281.30,1203.64,0.03,62046.14,145.03,-0.11,50649.99,633.06,-0.01,11046.75,1159.54,-0.00,7643.37
726100,816.71,896.15,1.00,1,1,1,1623.27,0.02,49418.03,64.33,-0.99,54227.03,181.24,-0.31,2210.30,949.48,-0.01,14649.67,1204.66,-0.01,2094.70
754000,783.40,892.75,1.00,1,1,1,1200.23,-3.04,101120.14,708.24,-2.96,26357.41,485.86,-0.12,11101.08,1522.61,0.00,20548.06,1278.06,-0.00,2644.07
768300,787.33,890.68,1.00,2,2,2,310.63,-0.48,102732.10,1095.98,-0.05,125314.25,1017.85,-0.04,37393.24,1800.91,-0.00,19467.75,1272.90,0.00,374.62
790200,823.01,890.59,1.00,2,2,2,1629.46,-0.00,62185.71,2449.04,0.01,61996.70,2878.51,0.01,85036.96,1853.44,-0.02,2680.83,1246.02,0.00,1248.17
818800,910.99,892.44,1.00,1,1,1,3076.87,0.02,50642.14,4384.72,0.02,67683.59,3066.42,0.01,6583.47,1658.41,-0.03,6838.23,1140.01,-0.00,3715.62
833100,1011.08,894.22,1.00,1,1,1,7000.45,0.02,274378.31,3695.03,0.01,48336.41,3122.99,-0.00,4961.18,1938.29,-0.01,19716.69,1217.71,-0.01,5461.50
868400,1094.26,893.89,1.00,1,1,1,2356.31,-0.00,131585.51,2034.48,-0.05,47224.12,2418.88,-0.02,19984.01,1960.91,0.01,957.22,1328.15,-0.00,3131.24
882700,1111.89,889.62,1.00,1,1,1,1268.45,-0.24,81136.34,264.98,-0.73,128489.05,1068.26,-0.04,94478.15,1830.98,0.01,9092.99,1375.26,-0.01,3304.88
896900,1099.87,888.84,1.00,1,1,1,847.98,-3.08,147408.99,270.84,3.04,35850.26,256.70,-0.08,57167.20,1349.47,0.01,33910.94,1391.14,-0.01,1142.90
918500,1102.24,890.57,1.00,1,1,1,135.82,0.63,44689.73,319.71,0.33,26712.25,55.66,1.82,12927.81,884.53,-0.02,21580.84,1561.08,-0.01,7873.70
933300,1110.87,892.63,1.00,1,1,1,599.77,0.23,32258.36,315.12,0.28,1116.50,91.47,0.92,4805.35,679.69,-0.01,13864.54,1447.90,-0.01,7661.27
947500,1111.02,893.12,1.00,2,2,2,35.40,1.28,41046.95,267.07,3.02,40169.47,615.10,0.01,39698.85,785.20,0.02,7609.84,1396.32,-0.01,3633.71
961400,1103.42,893.55,1.00,2,2,2,547.08,3.08,40021.66,929.11,-0.08,86040.43,1104.04,0.01,35177.73,1075.95,0.02,20918.03,1219.31,-0.00,12747.64
976600,1137.97,891.05,1.00,3,3,3,2278.97,-0.07,185920.92,2152.33,-0.01,80741.43,1435.88,-0.01,21863.95,1110.00,-0.03,4206.82,854.68,-0.01,23988.72
998100,1182.41,893.07,1.00,1,1,1,2069.06,0.05,15364.60,1730.12,0.01,19711.73,1898.79,-0.01,21531.38,861.90,-0.05,11579.06,623.34,0.01,10780.53
1027000,1225.16,892.18,1.00,1,1,1,1479.62,-0.02,20785.11,1683.93,-0.02,2342.69,1472.68,-0.04,14861.58,924.35,-0.05,2161.67,499.36,0.04,4308.13
1041400,1255.32,891.90,1.00,1,1,1,2094.04,-0.01,42691.09,1043.64,-0.21,47739.92,667.72,-0.13,56203.28,1091.28,-0.02,11855.78,469.71,0.06,2219.24
1056000,1254.80,886.02,1.00,1,1,1,404.50,-1.66,148213.08,583.76,-2.87,108610.45,310.46,-0.31,25101.59,825.31,0.02,18345.76,378.06,0.02,6391.56
1077500,1235.00,886.31,1.00,1,1,1,920.97,3.13,45504.85,288.83,3.14,14672.97,95.55,-0.17,10054.72,573.09,0.04,11756.28,250.82,-0.05,5992.69
1092000,1244.40,886.07,1.00,1,1,1,648.54,-0.03,108240.76,933.97,0.17,84098.94,112.43,1.28,9558.59,182.23,0.10,26983.38,215.88,0.23,5005.98
1106200,1261.42,890.84,1.00,1,1,1,1244.69,0.27,46015.69,497.31,0.51,34685.38,488.36,0.32,30521.51,141.12,2.89,22438.77,274.57,0.59,7503.61
1120700,1256.89,892.98,1.00,1,1,1,345.77,2.70,105016.95,183.47,0.98,23797.80,145.00,1.09,27396.19,322.65,3.00,12623.88,352.51,1.10,11961.12
1142500,1265.10,896.39,1.00,1,1,1,407.88,0.39,31623.73,228.81,2.97,15859.62,332.64,2.91,18072.24,359.84,3.09,2154.99,428.37,1.63,10086.43
1156900,1248.73,894.43,1.00,1,1,1,1144.97,-3.02,107056.85,677.05,3.12,31418.23,605.85,-3.13,20410.42,460.32,2.84,9861.60,531.93,1.89,10987.14
1186200,1235.52,896.95,1.00,1,1,1,459.06,2.95,24610.71,925.02,-3.09,8655.89,1037.37,-3.05,14875.89,639.95,2.63,7202.37,578.90,2.35,8764.55
1200200,1208.72,892.49,1.00,4,4,4,1940.24,-2.98,108424.61,1487.03,-2.99,40988.64,803.18,2.96,24090.61,708.63,2.20,21441.03,623.98,2.63,12485.55
1221800,1183.15,889.19,1.00,4,4,4,1193.69,-3.01,34657.49,740.86,2.72,44070.71,968.59,2.54,18768.73,981.45,2.20,12630.69,724.73,2.91,9980.12
1250500,1174.75,907.82,1.00,4,4,4,711.90,1.99,41773.56,1203.76,1.78,33932.57,1132.10,1.79,27482.28,1011.38,2.03,5809.45,930.04,3.05,8134.15
1265100,1172.52,940.22,1.00,4,4,4,2224.55,1.64,107982.36,2242.90,1.41,82142.55,1687.76,1.64,40505.03,1045.34,2.27,17244.47,1147.61,3.13,16009.04
1286900,1187.85,988.40,1.00,4,4,4,2319.30,1.26,39251.16,2293.90,1.55,14941.20,2009.07,1.55,16569.30,955.76,2.50,11245.99,1139.54,3.13,370.15
1301000,1174.10,1022.56,1.00,4,4,4,2611.10,1.95,119949.70,1782.38,1.77,48313.09,1222.07,2.02,75859.08,1098.44,2.85,27339.96,1243.64,-3.13,7684.96
1315300,1177.60,1037.97,1.00,4,4,4,1105.69,1.35,126928.72,1312.69,-2.83,162787.66,1584.26,-2.99,118970.51,1522.46,3.12,38320.65,1131.63,-3.12,7845.27
1329300,1138.78,1011.05,1.00,4,4,4,3374.80,-2.54,304033.06,3527.14,-2.47,167483.77,2599.32,-2.58,92840.65,1826.11,-2.97,31450.82,1120.79,-3.11,1051.90
1344100,1098.30,974.49,1.00,4,4,4,3685.32,-2.41,37052.41,3643.37,-2.52,14560.16,3665.31,-2.58,72046.17,2081.71,-2.83,25068.86,982.06,-3.13,9447.96
1365500,1031.78,933.94,1.00,4,4,4,3640.60,-2.59,32059.90,3806.85,-2.66,25793.83,3185.35,-2.66,26442.06,2184.70,-2.71,12943.68,847.74,3.14,6317.88
1379800,977.93,911.40,1.00,1,1,1,4082.23,-2.75,51062.67,2869.09,-2.82,75564.50,2432.41,-2.76,55981.57,2154.58,-2.64,11397.51,859.48,-3.06,5440.41
1408600,914.41,895.02,1.00,1,1,1,2277.88,-2.89,64481.26,1492.08,-2.95,48708.73,1880.66,-2.85,20261.99,1783.05,-2.64,12904.42,840.67,-2.90,4819.91
1429800,904.68,897.26,1.00,1,1,1,470.78,2.92,88328.72,696.39,-3.00,37601.18,943.08,-2.82,44257.19,1333.52,-2.68,21437.43,867.52,-2.70,7873.20
1444300,889.80,891.47,1.00,1,1,1,1101.21,-2.77,52391.97,325.45,-1.31,55415.15,106.26,-1.55,63270.08,709.01,-2.70,43092.44,885.19,-2.56,8639.14
1458800,907.15,888.15,1.00,1,1,1,1218.05,-0.19,153731.67,878.29,-0.13,55903.10,384.71,-0.35,24839.81,304.52,-2.58,28164.64,874.67,-2.53,2222.98
1472700,914.53,888.21,1.00,1,1,1,531.13,0.01,50712.85,634.20,0.07,20671.80,761.14,-0.01,30069.36,288.56,-0.29,38912.46,696.78,-2.53,12799.87
1488300,925.81,889.51,1.00,1,1,1,727.65,0.11,13289.72,679.69,0.10,3168.87,518.01,0.00,15597.11,407.03,-0.26,7624.02,554.54,-2.62,9749.26
1509400,939.35,890.75,1.00,1,1,1,644.31,0.09,4018.51,424.24,-0.09,13038.64,550.32,-0.11,3084.70,496.10,-0.12,5111.24,624.99,-2.90,8443.39
1523700,940.77,888.18,1.00,1,1,1,205.51,-1.07,41430.34,440.60,-0.53,13207.94,424.02,-0.20,9382.63,344.40,-0.05,10808.88,952.68,-3.06,24487.22
1537800,950.16,884.46,1.00,1,1,1,716.56,-0.38,40632.49,426.87,-0.27,7811.63,290.37,-0.35,10222.83,285.63,-0.02,4209.33,1290.92,-3.12,24498.16
1574800,961.76,882.27,1.00,1,1,1,319.16,-0.19,11019.56,214.84,-0.15,5815.41,225.46,-0.13,2330.90,145.92,-0.04,3777.14,1548.72,-3.12,6967.56
1588900,961.01,882.78,1.00,1,1,1,64.64,2.55,26904.53,74.13,1.58,16901.43,120.23,0.22,8497.50,573.65,-3.11,51011.78,1564.05,-3.13,1580.81
1617500,961.74,885.43,1.00,2,2,2,96.25,1.30,3398.07,88.71,1.34,857.83,170.91,2.66,9574.23,1573.29,-3.14,34962.94,1512.98,3.14,1945.24
1639100,962.05,887.11,1.00,2,2,2,78.90,1.39,872.10,341.36,2.89,16247.95,1422.77,3.10,58807.59,2554.65,3.14,45445.38,1422.05,3.14,4210.35
1653400,949.88,888.53,1.00,2,2,2,856.65,3.03,60525.83,3909.04,3.14,250294.27,4146.45,3.14,190591.87,3598.04,3.13,72976.57,1544.74,3.14,8587.49
1668200,848.30,887.85,1.00,3,3,3,6863.90,-3.13,406395.03,8775.01,-3.13,328828.59,7150.05,-3.14,202956.95,3611.94,3.13,1413.56,1467.27,3.14,5254.78
1683000,690.15,886.60,1.00,1,1,1,10686.14,-3.13,258260.39,10315.09,-3.14,104078.24,8205.05,-3.14,71283.67,3759.27,3.13,9960.87,1225.64,3.12,16423.41
1698000,540.91,886.52,1.00,1,1,1,9949.13,-3.14,49393.28,7627.62,3.14,179260.78,6247.83,-3.14,130485.03,3461.90,3.14,19832.25,907.01,3.08,21398.21
1712200,467.42,887.84,1.00,1,1,1,5175.91,3.12,336273.28,2890.37,-3.14,333615.78,3373.35,3.13,202501.37,3546.96,3.14,6051.34,489.17,2.99,29746.08
1734100,436.57,886.42,1.00,1,1,1,1410.47,-3.10,172120.16,56.02,0.99,133393.44,761.17,3.08,119321.96,2439.11,3.13,50612.99,64.52,1.29,22908.38
1748700,468.54,889.56,1.00,1,1,1,2200.29,0.10,247233.35,979.68,0.08,64819.55,150.80,2.98,41880.44,848.07,3.05,109215.72,246.71,0.12,15673.13
1778400,479.81,890.06,1.00,1,1,1,380.06,0.04,61309.25,297.18,3.12,42949.05,695.96,0.12,28341.10,921.50,0.11,59282.23,426.18,0.02,6155.44
1792800,455.43,889.84,1.00,1,1,1,1693.06,-3.13,143952.85,349.37,0.25,44502.47,1235.57,0.08,37559.93,2464.18,0.04,107370.04,395.68,-0.01,2220.50
1814300,491.98,893.10,1.00,2,2,2,1706.58,0.09,157995.99,3116.74,0.07,128999.62,3003.09,0.06,82232.19,3662.09,0.03,55766.68,755.90,0.00,16757.03
1828700,567.06,897.49,1.00,2,2,2,5222.98,0.06,244276.44,6319.05,0.05,222487.22,5717.82,0.04,188629.07,3875.35,0.01,15654.31,1296.67,0.01,37557.93
1843100,673.77,901.52,1.00,2,2,2,7415.77,0.04,152538.41,8962.87,0.02,183985.72,7354.38,0.02,114042.98,4601.86,-0.00,50528.16,1853.51,0.01,38669.46
1857500,825.12,903.55,1.00,3,3,3,10511.26,0.01,215483.40,8193.39,-0.00,55666.07,7144.29,-0.01,18940.71,4209.72,-0.00,27236.82,2054.10,0.01,13954.02
1878800,966.28,900.72,1.00,1,1,1,6628.29,-0.02,182768.36,5693.39,-0.05,118248.07,6201.47,-0.03,44855.56,3988.36,-0.01,10421.94,2194.03,0.00,6576.10
1893400,1029.28,893.83,1.00,1,1,1,4341.32,-0.11,160014.34,3789.13,-0.11,131751.14,2990.64,-0.07,220169.65,3267.69,-0.01,49371.13,2040.44,-0.00,10582.17
1908100,1076.67,888.96,1.00,1,1,1,3240.74,-0.10,74888.53,766.22,-0.18,205838.77,1280.48,-0.12,116532.41,2712.79,-0.02,37774.79,2119.22,-0.01,5360.05
1936900,1062.05,887.72,1.00,1,1,1,509.55,-3.06,129952.36,173.77,-3.12,32531.74,588.33,-0.04,24140.10,1697.74,-0.04,35285.62,2197.26,-0.00,2709.96
1958700,1067.88,888.74,1.00,1,1,1,271.61,0.17,35800.74,450.58,0.17,28580.19,290.43,0.17,14245.04,860.83,-0.09,38476.85,2128.19,-0.01,3243.05
1987000,1084.30,891.52,1.00,1,1,1,588.45,0.17,11196.05,837.57,0.13,13694.74,512.52,0.10,7913.97,370.10,-0.12,17351.79,1813.97,-0.02,11118.29
2001500,1103.41,893.57,1.00,1,1,1,1324.94,0.11,50926.95,601.90,0.02,17208.61,438.10,-0.00,6014.14,86.01,-0.15,19595.92,1261.00,-0.04,38178.79
2023100,1106.03,891.94,1.00,1,1,1,142.84,-0.55,56269.16,136.54,-1.77,29857.94,88.26,-0.96,18247.08,176.43,-0.03,4240.87,594.63,-0.08,30901.70
2037600,1102.45,888.73,1.00,1,1,1,331.54,-2.41,27319.89,659.63,-2.87,42104.20,228.38,-2.68,17705.80,262.05,-0.07,5938.92,94.73,-2.86,47178.46
2052100,1087.60,886.81,1.00,1,1,1,1032.69,-3.01,53964.11,431.84,-3.00,16401.11,337.07,-2.88,8442.64,58.34,-0.62,14799.42,370.10,-0.12,31647.02
2066400,1090.14,886.95,1.00,1,1,1,177.97,0.06,84633.65,10.66,2.50,29678.46,62.43,-0.72,26253.53,330.22,-3.01,26211.09,86.01,-0.15,19869.99
2080400,1087.36,886.99,1.00,1,1,1,198.73,3.13,26890.68,424.95,-0.06,30990.41,44.26,0.09,3240.92,738.79,-3.11,29403.18,176.43,-0.03,6543.06
2102600,1105.50,886.05,1.00,2,2,2,818.15,-0.05,45800.52,84.43,0.03,15355.97,427.13,3.13,21224.28,1130.99,3.12,17810.72,262.05,-0.07,3879.03
2117300,1090.47,887.08,1.00,2,2,2,1024.43,3.07,125342.00,1131.06,3.12,82679.47,1034.28,3.12,41307.12,44.26,0.09,79929.41,58.34,-0.62,14598.07
2146400,1055.97,887.28,1.00,1,1,1,1185.62,3.14,6020.39,1991.97,3.12,29585.13,2090.29,3.10,36299.76,427.13,3.13,16191.72,330.22,-3.01,12880.36
2160400,1004.64,888.89,1.00,1,1,1,3668.50,3.11,177388.61,3254.35,3.09,90292.36,1991.97,3.12,7564.12,1034.28,3.12,43372.48,738.79,-3.11,29403.18
2182500,938.62,892.80,1.00,1,1,1,2992.50,3.08,30870.21,2992.50,3.08,11971.83,3254.35,3.09,57198.78,2090.29,3.10,47797.41,1130.99,3.12,17891.31
