@RELATION gaze_labels

%@METADATA width_px 1920
%@METADATA height_px 1080
%@METADATA width_mm 540.00
%@METADATA height_mm 254.00
%@METADATA distance_mm 620.00


@ATTRIBUTE time INTEGER
@ATTRIBUTE x NUMERIC
@ATTRIBUTE y NUMERIC
@ATTRIBUTE confidence NUMERIC
@ATTRIBUTE handlabeller1 INTEGER
@ATTRIBUTE handlabeller2 INTEGER
@ATTRIBUTE handlabeller_final INTEGER
@ATTRIBUTE speed_1 numeric
@ATTRIBUTE direction_1 numeric
@ATTRIBUTE acceleration_1 numeric
@ATTRIBUTE speed_2 numeric
@ATTRIBUTE direction_2 numeric
@ATTRIBUTE acceleration_2 numeric
@ATTRIBUTE speed_4 numeric
@ATTRIBUTE direction_4 numeric
@ATTRIBUTE acceleration_4 numeric
@ATTRIBUTE speed_8 numeric
@ATTRIBUTE direction_8 numeric
@ATTRIBUTE acceleration_8 numeric
@ATTRIBUTE speed_16 numeric
@ATTRIBUTE direction_16 numeric
@ATTRIBUTE acceleration_16 numeric

%The number after speed, direction denotes the step size that was used for the calculation.
%Acceleration was calculated between two adjacent samples of the already low pass filtered velocity

@DATA
0,101.87,900.96,1.00,1,1,1,0.00,0.00,0.00,2352.81,-2.89,0.00,1225.68,-2.92,0.00,695.30,-3.00,0.00,375.53,-2.98,0.00
14500,68.81,892.53,1.00,1,1,1,2352.81,-2.89,162262.49,1225.68,-2.92,77797.29,492.92,-3.04,50974.23,226.19,2.78,35137.05,119.06,-3.01,17693.45
42900,50.58,889.36,1.00,1,1,1,651.47,-2.97,60000.26,492.92,-3.04,26025.57,695.30,-3.00,7187.40,276.84,0.70,15295.67,535.04,0.10,23030.08
64400,44.33,890.13,1.00,1,1,1,292.99,3.02,17713.47,133.89,2.25,20216.64,226.19,2.78,23697.08,423.71,0.31,9197.66,1091.01,0.06,25895.63
78900,47.57,893.12,1.00,1,1,1,304.24,0.75,37368.19,405.71,0.84,27975.19,276.84,0.70,29958.42,375.53,-2.98,54964.92,1692.43,0.04,41519.78
93300,52.15,898.87,1.00,1,1,1,510.10,0.90,14891.17,639.62,0.44,21592.17,423.71,0.31,13732.61,119.06,-3.01,17816.32,1938.53,0.01,17417.21
107800,64.33,900.93,1.00,1,1,1,851.85,0.17,40123.94,535.59,-0.08,21645.06,16.78,-0.85,28777.15,535.04,0.10,45107.19,1962.31,-0.01,3498.29
122700,67.85,897.68,1.00,1,1,1,321.63,-0.75,47166.99,496.03,-2.65,66452.52,130.32,-1.62,7974.98,1091.01,0.06,37366.17,1833.45,-0.02,8671.98
144500,48.30,892.30,1.00,1,1,1,930.19,-2.87,52001.16,488.72,-2.71,1514.99,796.17,-0.07,36888.67,1692.43,0.04,27616.37,917.36,-0.02,42022.97
158900,51.76,890.33,1.00,1,1,1,276.41,-0.52,79329.87,1853.10,0.06,160777.53,1489.62,0.02,48548.52,1938.53,0.01,17417.21,931.07,0.01,2072.20
187300,127.48,896.76,1.00,2,2,2,2676.09,0.08,86385.38,2592.94,0.06,26051.62,2887.75,0.04,49263.02,1962.31,-0.01,1786.10,1060.50,0.02,4578.94
222600,216.64,900.00,1.00,3,3,3,2527.42,0.04,5521.34,3782.65,0.03,33775.75,3064.11,0.03,5016.33,1833.45,-0.02,3660.41,1204.26,0.02,4075.50
236800,314.62,903.05,1.00,1,1,1,6903.08,0.03,308148.69,3668.54,0.01,9583.65,2893.28,-0.00,14182.68,2001.70,0.01,12314.47,1344.82,0.00,9964.14
272400,399.32,902.50,1.00,1,1,1,2379.26,-0.01,127145.28,2022.60,-0.06,46617.25,2270.14,-0.05,17791.45,1780.88,0.01,6212.79,1599.08,-0.00,7148.27
287000,415.94,896.53,1.00,1,1,1,1209.92,-0.34,89143.19,381.73,-1.89,147359.85,978.53,-0.11,88686.93,1525.21,-0.00,17619.20,1796.07,-0.00,13492.92
301600,395.80,891.92,1.00,1,1,1,1415.18,-2.92,172602.63,832.50,-3.07,52881.03,478.97,-2.89,98426.46,1331.03,-0.02,13430.97,2072.08,0.00,18926.35
316100,391.78,894.81,1.00,1,1,1,341.72,2.52,83893.93,749.99,3.03,11242.64,599.43,-3.13,12051.34,964.79,-0.06,25466.46,2471.15,0.01,27543.89
337200,369.26,894.78,1.00,1,1,1,1067.43,-3.14,38630.85,409.15,3.06,16168.65,193.87,0.31,37295.78,1127.72,-0.04,7807.83,2541.82,0.01,3349.34
351200,377.46,895.97,1.00,1,1,1,592.42,0.14,118284.30,1327.11,0.02,123894.87,950.21,-0.01,54896.79,1588.42,0.01,33250.79,2414.68,0.00,9224.65
366200,407.73,895.74,1.00,1,1,1,2017.81,-0.01,95665.46,2605.92,-0.02,85461.89,2740.08,0.01,119344.37,2369.48,0.02,52099.14,2272.22,-0.00,9503.80
380000,452.49,894.22,1.00,2,2,2,3245.61,-0.03,89101.73,3914.32,0.01,95060.85,3364.14,0.01,45221.62,3031.37,0.01,48007.59,1751.24,-0.01,37773.55
401100,544.34,896.61,1.00,2,2,2,4354.23,0.03,53612.09,3799.42,0.02,6250.74,4146.24,0.01,37067.99,3484.03,0.01,21466.26,1558.30,-0.02,9152.10
430300,643.55,898.64,1.00,1,1,1,3398.54,0.02,32737.02,4328.21,0.02,18137.99,4695.99,0.02,18835.18,3424.99,0.00,2092.76,1675.76,0.00,4122.10
445600,736.92,899.64,1.00,1,1,1,6102.63,0.01,176762.01,6219.92,0.01,123671.70,4077.54,0.01,40524.42,3213.17,0.01,13876.76,2054.48,0.01,24793.24
459900,827.66,900.06,1.00,1,1,1,6345.47,0.00,17192.54,3764.91,-0.01,171775.73,3499.05,-0.01,40567.48,2463.02,0.01,52459.01,2256.76,0.01,14160.92
481200,870.94,898.39,1.00,1,1,1,2033.71,-0.04,202560.88,1239.27,-0.06,118700.57,2061.19,-0.01,67505.49,1908.37,-0.00,26068.02,2584.47,0.01,15388.97
495500,871.69,897.27,1.00,1,1,1,93.82,-0.98,138473.08,55.81,2.77,90388.89,198.83,-0.16,130411.19,1754.62,-0.01,10756.69,2658.96,0.00,5287.37
509900,869.45,898.97,1.00,1,1,1,195.00,2.49,19813.06,663.01,3.13,42436.28,309.78,-3.03,35014.77,1767.82,0.00,1194.87,2588.66,-0.00,4926.98
538600,843.11,897.61,1.00,1,1,1,918.88,-3.09,27178.48,460.40,-3.00,7683.51,540.78,-0.01,29588.66,1636.94,0.00,4561.92,2394.17,0.00,6791.23
559600,846.81,895.65,1.00,2,2,2,199.45,-0.49,52130.60,1566.14,-0.01,96303.22,1566.75,0.01,48857.79,1833.99,0.00,9382.93,2085.50,-0.01,14722.24
589200,922.36,897.02,1.00,3,3,3,2552.68,0.02,80415.18,3846.91,0.02,77098.06,2759.61,0.01,40301.54,2017.43,-0.00,6206.77,1817.62,0.03,9282.29
603700,1016.41,899.76,1.00,1,1,1,6489.10,0.03,271495.68,3958.21,0.02,7797.66,3616.73,0.01,59112.03,2069.05,-0.02,4056.72,1456.10,0.10,26371.14
639600,1121.82,900.84,1.00,1,1,1,2936.24,0.01,98992.58,3414.75,-0.00,15309.50,3777.75,-0.00,4672.22,2328.46,-0.01,7259.36,1095.86,0.23,10927.75
653800,1187.49,899.23,1.00,1,1,1,4626.23,-0.02,119354.54,3460.14,-0.05,10831.32,2667.71,-0.03,78448.93,2261.87,-0.01,4719.80,1130.59,0.31,7254.59
667800,1219.29,896.37,1.00,1,1,1,2280.67,-0.09,168223.61,1376.63,-0.16,149800.08,1659.60,-0.05,72049.55,1888.96,0.06,28348.72,1304.88,0.29,12564.57
682500,1226.52,893.11,1.00,1,1,1,539.51,-0.42,121061.45,276.14,-0.07,74952.78,315.14,-0.33,92476.82,1140.55,0.28,55362.82,1424.21,0.20,11618.99
704500,1229.40,895.68,1.00,1,1,1,175.35,0.73,22487.22,540.99,-3.12,37107.75,454.68,2.56,34727.01,650.90,1.00,35450.94,1670.21,0.14,11985.73
718800,1206.89,892.65,1.00,4,4,4,1588.40,-3.01,121429.14,1349.12,2.69,63081.51,1126.94,2.37,48045.09,777.40,1.36,20173.90,1704.57,0.10,5815.08
733400,1194.30,912.65,1.00,4,4,4,1618.37,2.13,118755.30,2132.28,2.13,83458.11,1290.40,2.17,19641.25,896.88,1.20,12314.45,1373.05,0.06,23005.75
747500,1174.23,944.41,1.00,4,4,4,2664.42,2.13,74188.47,1416.80,1.89,59029.47,1479.39,1.54,62242.51,903.43,0.81,24702.20,898.10,0.03,33777.26
782700,1172.48,979.00,1.00,4,4,4,984.05,1.62,53138.72,1484.87,1.05,33516.02,1621.99,0.97,25195.91,1014.73,0.54,8006.03,499.28,0.01,11338.23
796800,1210.51,1007.99,1.00,4,4,4,3391.26,0.65,209142.44,3566.16,0.38,182909.74,1794.79,0.31,78570.15,1128.41,0.33,17701.88,206.35,-0.02,20787.32
810800,1265.63,1015.96,1.00,4,4,4,3977.88,0.14,138276.93,3067.16,-0.15,127768.34,2804.58,-0.05,92324.08,851.41,0.07,26980.21,76.11,0.11,9377.10
832900,1320.03,991.70,1.00,1,1,1,2695.34,-0.42,100730.20,2711.16,-0.48,45838.56,2490.42,-0.40,44144.88,747.43,-0.34,15286.03,149.39,0.09,3316.74
847400,1353.73,970.31,1.00,1,1,1,2752.86,-0.57,27696.30,2116.72,-0.87,76298.24,1642.86,-1.09,110788.12,892.52,-0.74,24586.68,178.95,0.00,2258.52
861600,1359.20,945.26,1.00,1,1,1,1805.31,-1.36,138062.06,2180.08,-2.23,190592.89,1452.75,-2.02,98427.99,889.36,-1.28,33536.33,98.65,0.04,5666.66
876000,1315.41,921.12,1.00,1,1,1,3472.16,-2.64,237969.18,2476.02,-2.70,77234.65,1845.64,-2.52,63118.16,827.75,-1.78,29734.64,220.90,-2.88,22080.49
897100,1279.80,907.55,1.00,1,1,1,1806.23,-2.78,80680.71,1724.29,-2.82,37543.05,1936.04,-2.75,20975.85,744.77,-2.05,11014.87,636.48,-2.89,19695.67
911400,1257.52,901.78,1.00,1,1,1,1609.51,-2.89,19031.44,1289.97,-2.88,31026.77,976.73,-2.85,67725.87,730.05,-2.35,15070.95,1146.61,-2.89,35673.79
926100,1243.66,897.88,1.00,1,1,1,979.25,-2.87,42912.24,379.52,-2.96,62047.13,178.82,-2.31,56376.35,844.63,-2.75,22500.12,1525.77,-2.88,25805.39
955500,1241.06,898.73,1.00,1,1,1,93.09,2.82,30729.46,528.15,-0.03,30699.77,301.25,-0.25,14140.24,1146.91,-3.00,13443.10,1686.16,-2.90,5555.90
976500,1270.27,897.03,1.00,1,1,1,1393.13,-0.06,70633.90,1134.90,-0.07,28932.48,88.26,-2.63,17631.74,1872.13,-3.10,35164.27,1831.15,-2.96,8591.98
990400,1280.56,895.84,1.00,2,2,2,745.67,-0.12,46766.57,796.36,-3.05,138477.46,1325.10,-3.11,89739.30,2558.29,-3.13,49588.55,1903.10,-3.00,7784.60
1019100,1236.49,893.89,1.00,2,2,2,1537.24,-3.10,79321.71,3042.52,-3.14,78413.90,3647.86,-3.14,80951.98,2901.55,-3.14,11973.83,1879.05,-3.04,2759.87
1040300,1128.74,895.37,1.00,1,1,1,5082.81,3.13,167418.45,7064.05,3.14,189703.29,5429.74,3.14,84072.82,3063.54,-3.14,7649.92,1686.17,-3.08,9687.15
1054700,985.01,895.15,1.00,1,1,1,9981.39,-3.14,340263.34,9609.61,3.14,176775.45,7025.00,3.14,110781.79,3275.25,3.14,14735.34,1599.79,-3.11,6578.96
1068800,854.87,896.91,1.00,1,1,1,9230.48,3.13,54236.19,6975.58,-3.14,186842.50,5367.77,3.14,117538.92,3264.15,-3.14,865.89,1519.93,-3.12,5885.92
1082800,788.99,895.09,1.00,1,1,1,4707.23,-3.11,323671.56,1962.36,3.14,358089.01,2816.72,3.13,182231.20,3210.27,-3.14,3887.82,1447.04,-3.14,5429.11
1104300,785.21,897.15,1.00,1,1,1,200.60,2.64,210926.82,489.70,0.14,113863.46,611.66,-3.11,102601.23,2314.77,-3.13,41673.14,1528.35,-3.13,3794.31
1118200,806.16,897.50,1.00,1,1,1,1507.73,0.02,121235.83,1072.97,-0.05,43119.34,558.40,-0.07,84070.53,1298.74,-3.12,73105.23,1700.37,-3.13,12378.32
1132800,815.75,895.59,1.00,1,1,1,669.42,-0.20,59255.78,665.86,-0.25,30180.98,194.92,-0.42,26145.26,373.81,-3.06,63414.54,1779.79,-3.14,5472.10
1147300,824.93,892.68,1.00,1,1,1,664.28,-0.31,5040.82,345.69,-2.87,67601.99,114.77,-2.32,17655.29,71.44,0.02,30699.35,1565.35,3.13,14848.03
1182700,799.15,890.89,1.00,1,1,1,730.09,-3.07,38698.33,501.20,-3.07,4995.06,182.12,-2.93,3089.99,75.52,-0.28,629.23,1114.28,3.13,12742.33
1197200,799.99,890.86,1.00,1,1,1,57.97,-0.04,54326.38,108.29,0.55,41335.15,296.16,3.04,9375.58,140.88,-2.92,14506.95,484.55,3.11,43440.71
1211300,801.78,892.52,1.00,1,1,1,173.49,0.75,9844.45,124.89,1.63,8555.12,75.66,2.40,17005.25,297.63,-3.11,11448.30,70.89,3.12,29337.26
1232900,799.72,895.31,1.00,1,1,1,160.75,2.21,10342.49,180.28,2.88,8511.19,214.01,2.97,7228.37,156.26,2.93,6971.33,117.78,0.04,8731.38
1247000,795.57,894.19,1.00,1,1,1,304.76,-2.88,20423.97,475.82,-2.98,22723.55,444.86,3.08,16531.51,227.14,0.27,26445.76,161.18,0.00,3100.95
1261000,786.52,893.13,1.00,1,1,1,650.37,-3.03,25128.84,783.24,3.14,23155.23,51.71,0.75,34410.43,336.12,0.18,7985.77,129.15,-0.03,2316.95
1275400,773.32,894.30,1.00,1,1,1,920.26,3.05,21717.64,455.36,0.28,85220.45,500.31,0.14,31880.36,218.47,0.15,8188.10,177.78,0.01,3408.63
1296600,802.12,897.56,1.00,1,1,1,1366.86,0.11,107358.96,1523.37,0.08,50970.91,775.26,0.10,13014.56,162.16,0.05,2800.75,195.79,0.05,933.60
1310900,827.23,898.58,1.00,1,1,1,1757.85,0.04,28439.62,1048.64,0.04,33398.34,710.67,0.05,5237.02,242.34,0.08,5623.84,199.36,0.07,314.80
1339500,847.07,899.27,1.00,1,1,1,694.04,0.03,37196.97,140.03,-0.18,31899.97,247.27,-0.05,16263.01,371.13,0.05,4512.05,159.11,0.10,1424.57
1361100,834.15,897.34,1.00,2,2,2,604.71,-2.99,60030.83,440.81,-3.02,26666.91,69.27,-0.22,8305.72,590.37,0.02,10175.64,175.52,0.10,759.89
1389700,825.11,896.52,1.00,1,1,1,317.33,-3.05,10086.78,14.50,-2.90,14909.19,47.79,-2.17,3418.92,524.75,-0.02,2414.67,319.80,0.08,5050.53
1404200,833.55,897.20,1.00,1,1,1,583.31,0.08,62112.43,685.98,-0.02,48277.18,460.23,-0.03,33622.56,184.18,-0.13,23611.23,242.34,0.08,5342.35
1418600,844.94,896.15,1.00,1,1,1,794.31,-0.09,16730.81,1035.96,-0.03,24312.88,922.95,-0.01,32151.55,28.46,-2.00,13498.83,371.13,0.05,8961.42
1439700,870.31,896.10,1.00,1,1,1,1202.36,-0.00,19774.15,1113.21,-0.01,3851.19,350.08,-0.11,27279.49,131.52,0.03,6935.94,590.37,0.02,10416.77
1454600,885.01,895.89,1.00,1,1,1,987.00,-0.01,14477.98,487.21,-3.05,107291.19,11.53,-0.96,22995.74,510.49,0.09,25453.08,524.75,-0.02,4634.87
1469000,856.10,894.73,1.00,1,1,1,2009.58,-3.10,208028.56,1353.16,-3.13,60334.85,263.00,3.04,18796.27,350.08,-0.11,12525.72,184.18,-0.13,23775.20
1483900,845.36,895.53,1.00,1,1,1,722.27,3.07,86898.36,119.71,2.32,85591.27,135.43,0.81,24298.08,11.53,-0.96,22995.74,28.46,-2.00,13045.85
1505400,853.12,897.91,1.00,1,1,1,377.38,0.30,50350.10,1301.45,0.15,63866.34,119.71,2.32,8168.98,263.00,3.04,12589.13,131.52,0.03,6806.90
1519400,891.08,902.24,1.00,1,1,1,2728.62,0.11,168472.47,2728.62,0.11,102032.62,1301.45,0.15,98080.45,135.43,0.81,25860.10,510.49,0.09,27089.35
