@RELATION gaze_labels

%@METADATA width_px 1920
%@METADATA height_px 1080
%@METADATA width_mm 540.00
%@METADATA height_mm 254.00
%@METADATA distance_mm 620.00


@ATTRIBUTE time INTEGER
@ATTRIBUTE x NUMERIC
@ATTRIBUTE y NUMERIC
@ATTRIBUTE confidence NUMERIC
@ATTRIBUTE handlabeller1 INTEGER
@ATTRIBUTE handlabeller2 INTEGER
@ATTRIBUTE handlabeller_final INTEGER
@ATTRIBUTE speed_1 numeric
@ATTRIBUTE direction_1 numeric
@ATTRIBUTE acceleration_1 numeric
@ATTRIBUTE speed_2 numeric
@ATTRIBUTE direction_2 numeric
@ATTRIBUTE acceleration_2 numeric
@ATTRIBUTE speed_4 numeric
@ATTRIBUTE direction_4 numeric
@ATTRIBUTE acceleration_4 numeric
@ATTRIBUTE speed_8 numeric
@ATTRIBUTE direction_8 numeric
@ATTRIBUTE acceleration_8 numeric
@ATTRIBUTE speed_16 numeric
@ATTRIBUTE direction_16 numeric
@ATTRIBUTE acceleration_16 numeric

%The number after speed, direction denotes the step size that was used for the calculation.
%Acceleration was calculated between two adjacent samples of the already low pass filtered velocity

@DATA
0,147.64,885.96,1.00,2,2,2,0.00,0.00,0.00,2387.89,3.12,0.00,1184.03,-3.13,0.00,1011.92,-3.08,0.00,550.40,-3.09,0.00
14600,112.78,886.65,1.00,1,1,1,2387.89,3.12,163554.04,1184.03,-3.13,82550.73,801.86,-3.04,26843.98,667.10,-2.97,24464.52,549.45,-3.05,1217.78
50200,88.21,885.10,1.00,1,1,1,691.69,-3.08,47739.46,801.86,-3.04,11009.05,1011.92,-3.08,6014.02,233.14,-2.76,12418.56,106.94,-2.86,12502.38
64800,72.75,882.48,1.00,1,1,1,1074.08,-2.97,26909.16,717.42,-2.96,7109.79,667.10,-2.97,24464.52,127.08,-0.19,23753.95,770.38,0.02,59866.91
78800,68.03,881.36,1.00,1,1,1,346.06,-2.91,52081.41,442.55,-2.75,21298.68,233.14,-2.76,31578.62,550.40,-3.09,48174.43,1762.97,0.04,70912.92
93200,61.12,877.72,1.00,1,1,1,542.86,-2.66,15597.75,260.96,-0.18,47040.76,127.08,-0.19,24083.86,549.45,-3.05,1234.69,2632.30,0.04,60371.45
108400,75.64,879.99,1.00,1,1,1,966.96,0.16,98095.67,551.35,0.16,20889.71,3.42,1.19,8319.62,106.94,-2.86,29281.89,2935.73,0.02,20223.39
129400,80.81,880.95,1.00,1,1,1,250.59,0.18,34118.40,211.60,2.94,35837.67,416.88,3.07,19901.76,770.38,0.02,41621.76,2836.02,0.01,5050.71
144700,68.12,881.57,1.00,1,1,1,830.61,3.09,70331.44,1594.13,-3.12,90788.64,23.10,2.59,25918.62,1762.97,0.04,64887.64,1168.21,-0.02,109046.28
158900,33.80,879.72,1.00,2,2,2,2420.21,-3.09,112408.39,138.62,-0.10,121951.98,1290.29,0.04,92219.33,2632.30,0.04,61221.75,1273.63,-0.01,7439.89
187900,74.08,880.96,1.00,2,2,2,1389.46,0.03,131359.84,2965.26,0.03,97515.75,3226.87,0.04,66778.54,2935.73,0.02,10599.85,1608.72,-0.00,11571.24
209700,184.35,884.81,1.00,1,1,1,5061.51,0.03,168443.46,6924.11,0.04,181603.51,5166.23,0.03,88976.54,2836.02,0.01,4865.36,1824.05,0.01,9896.67
224000,323.84,890.97,1.00,1,1,1,9763.78,0.04,328861.64,9131.25,0.02,154579.97,6600.86,0.02,100459.38,2907.22,-0.01,5384.62,2080.44,0.01,17929.60
237900,441.77,891.19,1.00,1,1,1,8484.64,0.00,96114.26,6190.78,-0.02,212950.27,4785.70,-0.01,130866.12,2943.91,0.00,3209.60,2327.59,0.02,17842.95
252000,497.14,887.44,1.00,1,1,1,3935.91,-0.07,323855.85,1355.38,-0.17,344310.16,2517.83,-0.07,161665.30,3186.14,0.01,17200.38,2303.18,0.01,2008.26
273400,489.19,883.04,1.00,1,1,1,424.44,-2.64,200876.19,442.69,-2.61,80256.24,714.79,-0.18,84505.95,2802.22,0.00,17951.43,2402.62,0.01,4657.71
287600,483.56,879.45,1.00,1,1,1,470.70,-2.57,3789.19,183.60,-0.21,41621.23,621.45,-0.05,8693.95,2377.43,-0.01,30075.96,2454.08,0.01,3624.62
316200,496.88,881.38,1.00,2,2,2,470.62,0.14,32180.71,1342.28,0.08,40819.89,1435.24,0.02,28570.23,2059.77,-0.00,11129.98,2524.99,0.01,2482.24
337300,550.07,884.53,1.00,2,2,2,2525.60,0.06,97490.84,2519.93,0.04,55913.41,2285.80,0.03,40314.79,1793.03,0.00,12651.06,2377.04,0.00,7028.74
365800,621.78,886.11,1.00,1,1,1,2516.48,0.02,3307.34,3389.04,0.01,30645.34,3298.60,0.03,35536.98,2038.52,0.01,8636.71,1975.54,-0.00,14091.92
379900,694.44,885.73,1.00,1,1,1,5153.69,-0.01,187165.11,4365.75,0.02,69366.38,2872.14,0.01,30482.51,2092.33,0.02,4213.48,1473.11,-0.02,35682.50
402000,779.78,889.54,1.00,1,1,1,3865.24,0.04,59161.41,2432.64,0.02,87476.21,2744.36,0.00,5910.42,2123.70,0.01,1818.93,1399.66,-0.00,3441.31
430000,816.30,887.58,1.00,1,1,1,1306.32,-0.05,91728.65,1375.69,-0.05,37999.88,1886.05,0.01,30665.41,1610.64,-0.01,18361.24,1629.91,0.01,8269.55
444800,838.58,886.50,1.00,1,1,1,1506.95,-0.05,13564.62,1133.80,0.00,16988.24,841.23,-0.07,70941.28,1078.32,-0.02,35978.31,2027.81,0.02,26889.95
466400,857.57,887.71,1.00,1,1,1,881.12,0.06,29587.75,201.24,-0.22,43456.87,203.41,-2.75,47574.81,500.93,-0.04,26739.17,2255.57,0.01,10546.76
480400,845.57,884.92,1.00,1,1,1,880.22,-2.91,125386.35,1879.53,-3.05,147979.00,954.35,-3.09,54675.52,646.89,-0.00,10525.06,2272.49,0.00,2095.59
495000,804.06,882.58,1.00,1,1,1,2847.36,-3.09,136012.24,2355.19,-3.12,34276.48,1549.84,-3.09,40787.76,1407.70,0.03,52156.55,2030.52,-0.01,16638.87
509600,776.81,883.43,1.00,2,2,2,1867.37,3.11,68538.16,1238.82,3.13,76571.58,422.32,0.16,134939.26,2015.22,0.02,41623.68,1905.96,0.00,8649.92
524900,767.03,883.06,1.00,2,2,2,640.16,-3.10,80362.86,2651.18,0.06,254092.92,2997.12,0.06,168470.43,2468.03,0.00,29726.43,1630.06,0.05,18972.86
545900,872.87,889.41,1.00,1,1,1,5049.04,0.06,270907.56,6562.78,0.04,186297.70,4429.41,0.03,68373.29,2441.68,-0.00,1586.60,1416.37,0.14,11763.97
560400,999.77,893.52,1.00,1,1,1,8756.60,0.03,256004.55,5918.48,0.02,46207.73,5442.30,0.01,70010.48,2490.65,-0.01,3403.80,1098.24,0.25,23987.30
589300,1129.70,893.37,1.00,1,1,1,4495.77,-0.00,147613.57,4533.34,-0.02,48389.35,4121.21,-0.02,46017.32,2736.83,0.01,8677.43,649.92,0.43,16417.38
603900,1196.92,889.23,1.00,1,1,1,4613.23,-0.06,20440.08,1949.06,-0.14,178678.29,2079.33,-0.08,140426.08,2723.22,0.07,11103.33,170.85,1.44,39523.13
624900,1198.39,883.58,1.00,1,1,1,278.32,-1.32,215940.73,1017.08,-2.89,138773.71,622.98,-0.13,69405.61,2195.41,0.18,27994.44,445.73,3.02,22795.95
638900,1162.46,880.31,1.00,4,4,4,2576.83,-3.05,188308.53,1063.17,2.99,30213.95,448.32,2.34,72397.00,890.53,0.56,100800.68,490.66,3.13,4931.34
652900,1168.97,888.14,1.00,4,4,4,727.10,0.88,223790.98,944.75,1.20,111818.71,978.79,1.81,45197.07,1141.11,2.66,126129.83,401.68,3.14,6356.44
675000,1174.75,912.13,1.00,4,4,4,1116.56,1.33,25552.03,1600.22,1.33,30439.71,1512.36,2.16,30800.34,2242.06,3.00,55470.80,452.13,3.12,2313.57
689500,1183.20,944.95,1.00,4,4,4,2337.49,1.32,84219.99,2896.54,2.50,187714.87,2841.06,2.74,122133.12,3358.88,3.11,79571.56,851.90,3.13,27576.21
703800,1107.70,961.77,1.00,4,4,4,5408.55,2.92,416914.58,6512.19,3.05,301902.10,3951.23,3.06,109052.23,3212.81,3.13,12063.93,1336.43,-3.14,33903.06
717800,999.60,961.02,1.00,4,4,4,7721.75,-3.13,195331.82,4891.74,-3.04,138931.91,5956.04,-3.05,155271.33,3128.98,-3.13,6859.43,1921.00,-3.13,41762.57
753900,863.94,936.42,1.00,4,4,4,3819.15,-2.96,111164.38,5742.15,-2.93,28431.10,4943.07,-2.97,30249.69,3484.80,-3.10,10481.21,1943.68,-3.14,655.76
767900,718.37,900.45,1.00,4,4,4,10710.88,-2.90,493103.12,5031.13,-2.89,52552.03,3549.88,-2.92,100518.97,3633.54,-3.05,15710.59,1900.99,3.14,3224.11
796500,656.14,883.96,1.00,1,1,1,2251.05,-2.88,295812.37,1349.35,-2.90,128733.88,3084.63,-2.93,16308.86,3283.19,-3.01,13324.18,1760.11,3.14,4933.74
817800,653.02,884.23,1.00,1,1,1,146.92,3.06,99221.20,789.91,3.04,30970.06,1299.32,-3.06,84720.69,2668.74,-2.97,29185.76,1783.59,-3.13,1528.22
832000,628.23,886.67,1.00,1,1,1,1754.40,3.04,113203.95,1305.70,2.91,37600.57,904.44,2.99,32659.45,1710.11,-2.95,67601.65,1982.66,-3.10,14840.59
845900,617.32,892.69,1.00,1,1,1,896.44,2.64,71665.88,1051.70,2.94,18522.78,1335.06,3.10,32064.07,583.95,-2.97,81026.54,2051.27,-3.05,8600.91
860100,599.24,892.45,1.00,1,1,1,1272.93,-3.13,46772.56,1389.09,-3.05,34261.97,347.04,-3.10,69691.30,228.75,-3.13,25360.41,1842.56,-3.01,15702.95
882100,567.26,887.97,1.00,1,1,1,1468.25,-3.00,11827.99,140.25,-1.32,64448.46,171.69,-0.65,22346.11,224.54,3.14,271.24,1499.34,-2.98,15760.25
910500,601.00,885.60,1.00,1,1,1,1191.22,-0.07,93137.35,1423.81,-0.06,48858.33,283.96,-0.38,4500.90,334.83,-3.13,3886.31,1023.87,-2.97,16744.81
924900,628.09,884.46,1.00,2,2,2,1882.92,-0.04,48119.07,592.70,-0.10,57777.28,691.40,-0.07,29837.74,326.75,-3.05,1987.53,289.67,-2.96,50988.18
946000,621.94,883.51,1.00,1,1,1,294.98,-2.99,102990.63,199.61,-3.14,37510.96,320.42,3.11,47946.50,278.01,-3.05,2310.17,228.75,-3.13,3537.58
960100,621.07,884.41,1.00,1,1,1,88.73,2.34,17999.49,1433.49,3.08,87550.71,892.97,3.07,40632.53,157.58,-3.08,8556.90,224.54,3.14,423.21
975100,580.31,886.22,1.00,1,1,1,2719.56,3.10,177036.54,1726.70,3.06,19597.68,1081.71,3.06,12619.13,275.37,-3.12,7872.51,334.83,-3.13,7358.08
989400,570.63,888.36,1.00,1,1,1,693.66,2.92,142649.85,728.17,3.02,69896.47,1172.86,3.11,7642.98,33.37,0.08,21586.30,326.75,-3.05,2001.43
1004000,559.42,888.69,1.00,1,1,1,768.40,3.11,10732.63,724.62,-3.07,9182.98,238.86,-3.07,64079.83,1081.71,3.06,76346.41,278.01,-3.05,3338.66
1025200,544.75,886.63,1.00,1,1,1,698.77,-3.00,6692.10,90.04,-1.04,36274.20,792.93,-0.06,48596.57,1172.86,3.11,5155.40,157.58,-3.08,5691.14
1053400,561.66,884.85,1.00,1,1,1,603.12,-0.10,45824.10,2059.02,-0.02,71399.16,90.04,-1.04,26486.63,238.86,-3.07,33176.08,275.37,-3.12,4187.51
1068000,632.85,884.83,1.00,1,1,1,4876.22,-0.00,292934.17,4876.22,-0.00,193008.03,2059.02,-0.02,137907.97,792.93,-0.06,70564.89,33.37,0.08,21142.74
