@RELATION gaze_labels

%@METADATA width_px 1920
%@METADATA height_px 1080
%@METADATA width_mm 540.00
%@METADATA height_mm 254.00
%@METADATA distance_mm 620.00


@ATTRIBUTE time INTEGER
@ATTRIBUTE x NUMERIC
@ATTRIBUTE y NUMERIC
@ATTRIBUTE confidence NUMERIC
@ATTRIBUTE handlabeller1 INTEGER
@ATTRIBUTE handlabeller2 INTEGER
@ATTRIBUTE handlabeller_final INTEGER
@ATTRIBUTE speed_1 numeric
@ATTRIBUTE direction_1 numeric
@ATTRIBUTE acceleration_1 numeric
@ATTRIBUTE speed_2 numeric
@ATTRIBUTE direction_2 numeric
@ATTRIBUTE acceleration_2 numeric
@ATTRIBUTE speed_4 numeric
@ATTRIBUTE direction_4 numeric
@ATTRIBUTE acceleration_4 numeric
@ATTRIBUTE speed_8 numeric
@ATTRIBUTE direction_8 numeric
@ATTRIBUTE acceleration_8 numeric
@ATTRIBUTE speed_16 numeric
@ATTRIBUTE direction_16 numeric
@ATTRIBUTE acceleration_16 numeric

%The number after speed, direction denotes the step size that was used for the calculation.
%Acceleration was calculated between two adjacent samples of the already low pass filtered velocity

@DATA
0,267.17,583.94,1.00,1,1,1,0.00,0.00,0.00,1408.09,-1.68,0.00,908.39,-1.64,0.00,545.48,-1.71,0.00,68.03,-1.15,0.00
21400,264.01,553.97,1.00,1,1,1,1408.09,-1.68,65798.78,908.39,-1.64,23419.26,457.88,-1.51,21408.60,105.96,-1.36,20901.20,89.33,0.95,6407.06
49900,263.94,538.72,1.00,1,1,1,534.97,-1.58,30789.16,457.88,-1.51,16075.23,545.48,-1.71,4588.18,327.92,1.14,14663.05,47.64,2.33,3262.76
64700,265.15,534.18,1.00,1,1,1,317.99,-1.31,16413.93,194.44,-2.02,20440.05,105.96,-1.36,30222.01,407.42,1.42,8619.58,84.71,2.76,3087.91
99900,259.75,529.95,1.00,1,1,1,194.94,-2.48,8550.38,208.28,1.48,11258.31,327.92,1.14,11872.07,68.03,-1.15,13242.88,115.08,2.16,1868.16
113900,266.05,544.38,1.00,1,1,1,1125.03,1.16,92844.97,1241.09,1.14,74811.54,407.42,1.42,9112.12,89.33,0.95,9793.65,131.18,-2.47,12997.07
128500,274.60,562.19,1.00,1,1,1,1352.77,1.12,15885.05,749.90,1.39,37413.63,709.21,1.30,21089.86,47.64,2.33,6369.10,366.73,-2.63,16316.98
142600,269.98,565.55,1.00,1,1,1,405.05,2.51,95080.20,336.52,1.82,33027.08,339.89,1.29,26198.64,84.71,2.76,3241.21,130.38,-1.12,27033.65
163900,271.69,573.74,1.00,1,1,1,393.10,1.37,20362.95,60.77,-0.08,16927.52,378.08,-2.26,33008.63,115.08,2.16,3087.29,367.42,-0.34,13615.23
178200,272.13,565.38,1.00,1,1,1,585.83,-1.52,67906.00,1151.30,-1.96,81919.68,488.24,-2.11,8988.43,131.18,-2.47,12724.41,775.80,-0.00,31162.90
192200,259.26,543.63,1.00,1,1,1,1805.52,-2.11,96959.37,1135.99,-2.17,16752.61,584.11,-2.14,6950.74,366.73,-2.63,17016.28,1188.87,0.03,29580.28
206600,254.01,538.69,1.00,1,1,1,500.37,-2.39,92500.26,218.22,-2.96,69100.56,578.81,-2.12,887.99,130.38,-1.12,26470.44,1404.08,-0.00,15158.17
227900,251.59,542.22,1.00,1,1,1,200.98,2.17,26636.87,139.05,-1.79,9764.25,404.18,-2.97,20517.63,781.60,-0.26,33051.36,1415.93,-0.01,763.68
241900,252.94,533.89,1.00,2,2,2,602.29,-1.41,56344.72,640.47,-2.98,43026.74,405.92,0.47,57208.75,1666.88,-0.06,65308.97,1251.25,-0.05,12438.35
256000,233.84,539.28,1.00,2,2,2,1407.60,2.87,124041.82,1020.50,0.60,115160.95,1832.42,0.05,104330.36,2544.32,0.01,63042.25,1204.24,-0.13,7786.85
270700,277.20,550.49,1.00,3,3,3,3046.72,0.25,293971.83,3781.53,0.07,200616.19,3629.27,0.08,122354.85,3042.84,-0.01,34224.25,1115.36,-0.12,6137.43
291600,368.17,548.18,1.00,1,1,1,4353.88,-0.03,79055.88,5881.33,0.01,101213.35,5460.68,0.02,88544.81,2890.02,-0.04,8403.04,1200.93,-0.11,4153.08
306000,484.80,552.95,1.00,1,1,1,8106.04,0.04,261995.68,7543.57,-0.00,115692.18,5721.21,-0.05,32272.72,2585.26,-0.02,21631.44,1186.14,-0.07,3573.39
320400,585.42,547.12,1.00,1,1,1,6999.40,-0.06,92580.28,5554.27,-0.12,147808.31,3937.98,-0.09,124501.14,2687.09,-0.05,9329.51,1212.45,-0.02,4338.02
335000,644.68,533.37,1.00,1,1,1,4166.55,-0.23,203966.55,1191.59,-0.50,306201.47,1621.97,-0.24,160932.27,2007.26,-0.07,46682.56,1119.80,-0.04,6542.13
356600,623.20,526.30,1.00,1,1,1,1046.65,-2.82,235658.18,1563.10,-3.04,121802.63,405.77,-1.73,75800.68,1585.27,-0.04,19716.27,1154.44,-0.06,2020.80
371500,587.93,527.45,1.00,1,1,1,2368.33,3.11,96040.27,1459.99,-3.02,7259.14,770.17,-3.07,52617.32,759.91,-0.08,55472.21,974.92,0.01,13165.78
385500,581.34,521.02,1.00,1,1,1,657.68,-2.37,140751.34,190.99,3.05,91014.31,385.21,2.72,33592.93,147.93,-0.44,44560.30,1192.44,0.02,15545.09
421200,578.48,528.33,1.00,1,1,1,219.78,1.94,21577.25,458.77,0.89,16419.09,224.63,1.22,12059.33,380.63,-3.02,14337.29,1484.67,-0.02,8330.39
435200,595.62,538.80,1.00,1,1,1,1434.55,0.55,100921.19,762.98,0.79,22136.84,320.67,0.57,14151.95,268.18,-3.03,8034.92,1892.02,-0.03,29103.52
450100,593.94,544.05,1.00,1,1,1,370.37,1.88,93572.95,254.72,-0.16,43573.17,57.47,-0.56,20168.30,359.68,2.97,8542.11,2127.79,-0.07,16757.25
478700,606.56,537.05,1.00,1,1,1,504.70,-0.51,28495.45,431.62,-2.14,20365.46,283.67,-2.27,10387.18,160.09,1.78,11666.34,2218.94,-0.07,3200.58
500000,582.31,525.92,1.00,1,1,1,1252.63,-2.71,75306.65,839.12,-2.60,22989.56,790.42,-3.03,28990.91,943.09,0.09,45802.91,1914.58,-0.03,14771.33
514000,581.24,521.68,1.00,1,1,1,312.37,-1.82,77449.40,1798.93,2.92,95123.43,493.65,2.87,27171.27,2200.28,-0.02,90506.87,1982.15,-0.01,5128.77
528500,532.33,537.34,1.00,2,2,2,3541.71,2.83,246533.21,846.54,1.79,112419.79,2046.73,0.11,173162.19,3513.04,-0.07,90995.26,2087.67,-0.03,7434.07
543000,576.01,545.67,1.00,2,2,2,3066.48,0.19,441743.09,5067.02,0.02,365384.25,5126.93,0.03,213139.95,4791.65,-0.05,88286.95,2118.42,-0.01,2619.21
564100,712.69,540.55,1.00,3,3,3,6482.23,-0.04,168734.16,9501.08,-0.04,210956.52,8779.83,-0.05,175038.84,4859.38,-0.01,9513.82,2360.73,-0.04,11837.65
578200,910.20,532.82,1.00,1,1,1,14018.65,-0.04,534499.78,13470.30,-0.08,283311.92,10106.60,-0.06,94616.92,4725.56,-0.01,9738.71,2240.01,-0.06,8888.66
592400,1092.73,510.76,1.00,1,1,1,12947.89,-0.12,107743.83,10858.74,-0.09,184094.42,7683.07,-0.04,171007.03,5052.50,-0.04,25576.46,2296.49,-0.05,3990.61
606800,1219.56,505.57,1.00,1,1,1,8815.06,-0.04,292985.31,3159.21,0.07,538367.27,4336.54,-0.05,232415.05,4746.62,-0.05,21964.95,2383.90,-0.05,6209.84
628400,1206.21,518.34,1.00,1,1,1,855.40,2.38,438600.06,867.03,2.73,182795.68,1418.83,0.02,135319.58,4026.70,-0.08,33657.16,2459.56,-0.05,3521.95
643000,1190.83,518.20,1.00,1,1,1,1053.67,-3.13,50846.54,725.04,-2.86,38155.79,479.98,2.93,129400.34,2287.48,-0.10,119185.04,2341.45,-0.04,8180.32
657900,1185.65,512.45,1.00,1,1,1,519.25,-2.30,53688.54,215.10,-1.89,42212.09,277.68,-1.68,38873.44,961.19,-0.00,89477.68,2376.19,-0.07,5447.64
672300,1188.84,512.22,1.00,1,1,1,221.73,-0.07,47107.81,745.47,-0.50,51339.14,299.06,-0.79,17268.31,24.46,1.51,66672.83,2414.65,-0.07,2792.30
686600,1204.47,502.27,1.00,1,1,1,1295.85,-0.57,77320.22,494.36,-0.46,17624.82,494.28,-0.07,23338.41,194.93,-1.86,15303.16,2110.58,-0.06,21270.20
707400,1204.39,504.52,1.00,1,1,1,107.86,1.61,65390.56,425.19,0.56,21732.79,487.03,-0.11,1046.99,171.94,-1.75,1481.22,1639.27,-0.03,22876.59
721900,1217.21,510.22,1.00,1,1,1,967.77,0.42,64359.20,553.55,0.27,13119.29,132.34,-2.21,38958.19,164.75,-1.89,1677.13,1126.35,0.07,36624.14
736200,1219.76,508.73,1.00,1,1,1,206.81,-0.53,60379.24,790.84,-2.45,91947.15,295.46,-2.70,13244.85,310.64,-0.26,25150.32,682.64,0.19,31869.86
751200,1199.40,495.39,1.00,1,1,1,1622.66,-2.56,114994.71,958.01,-2.78,22090.58,553.00,-2.66,17196.52,684.13,-0.01,26053.87,707.78,0.12,3689.69
772900,1186.91,496.21,1.00,1,1,1,576.91,3.08,55866.40,435.41,-2.89,24320.12,181.56,-0.58,30455.67,1119.23,0.08,20376.71,829.41,0.06,5986.35
801100,1178.35,490.01,1.00,2,2,2,374.64,-2.51,13282.31,1065.73,0.10,53113.32,1179.25,0.05,36817.92,1266.10,0.12,5445.25,843.24,0.06,490.98
815200,1231.75,500.85,1.00,2,2,2,3864.33,0.20,298459.44,2786.57,0.08,122074.65,2111.92,0.12,66563.74,1212.70,0.18,6206.27,796.16,0.02,4056.38
851000,1316.94,501.30,1.00,1,1,1,2379.73,0.01,44629.78,2998.88,0.12,6732.18,3083.47,0.18,27551.07,1300.01,0.22,2946.64,691.64,0.08,3212.24
865100,1380.30,518.87,1.00,1,1,1,4663.42,0.27,173605.90,3671.26,0.32,67015.37,2206.04,0.23,62745.65,1551.90,0.15,19336.60,743.85,0.01,5381.39
879100,1414.83,533.86,1.00,1,1,1,2688.53,0.41,145371.37,1220.11,0.59,179802.40,1543.97,0.42,53978.45,1748.88,0.15,14073.12,723.23,0.07,3697.20
901400,1417.04,543.61,1.00,1,1,1,448.38,1.35,109881.42,296.65,2.22,57003.73,771.01,0.27,35450.47,1290.19,0.08,20984.87,678.90,0.14,3034.66
915900,1408.25,542.57,1.00,1,1,1,610.40,-3.02,59984.71,558.57,-0.75,58785.83,218.53,-0.52,43925.56,709.29,0.20,40736.27,760.85,0.27,8533.27
930600,1428.94,532.46,1.00,1,1,1,1566.67,-0.45,143257.77,852.70,-0.69,20199.10,461.41,-1.54,26843.61,311.24,-0.32,31632.45,743.14,0.23,2589.44
945000,1427.33,526.70,1.00,1,1,1,415.35,-1.84,107422.01,661.30,-2.19,72001.17,354.46,-1.60,7573.77,103.60,-0.69,15129.02,747.84,0.25,1049.70
959900,1417.77,516.63,1.00,1,1,1,931.80,-2.33,40052.13,576.89,-2.78,25114.88,433.39,-1.93,10296.14,61.67,-2.08,7407.32,575.59,0.11,13115.30
981400,1407.65,519.36,1.00,1,1,1,487.49,2.88,38187.00,296.52,-1.46,26963.83,38.28,-2.50,18678.67,98.71,1.43,7345.02,312.58,0.03,12338.90
995800,1418.91,506.05,1.00,1,1,1,1210.87,-0.87,113572.26,641.72,0.32,52881.06,322.68,1.78,23638.97,278.93,2.80,19210.10,184.13,-0.09,9109.41
1010400,1425.32,525.20,1.00,1,1,1,1383.70,1.25,154996.16,1098.56,1.75,81588.39,615.76,1.50,21798.74,407.60,2.88,9032.99,299.74,-0.35,8997.93
1024400,1413.37,536.97,1.00,1,1,1,1198.04,2.36,98288.70,1170.54,2.05,25064.67,705.66,2.13,29516.82,226.19,3.10,13805.70,496.28,-0.21,14560.01
1038700,1409.99,554.57,1.00,1,1,1,1252.94,1.76,51033.12,557.83,2.74,57509.99,801.07,2.84,37498.58,163.33,-2.21,13327.60,589.91,-0.23,6608.79
1060300,1394.90,544.72,1.00,1,1,1,834.17,-2.56,80954.69,1026.01,-2.74,34843.56,484.13,-2.48,30313.40,97.54,0.77,12040.33,477.83,-0.18,5357.40
1074300,1376.39,540.24,1.00,1,1,1,1360.41,-2.90,45614.67,957.25,-1.80,64046.50,821.59,-1.84,37301.15,506.58,-0.28,33305.74,465.94,-0.24,2166.43
1089200,1388.55,517.79,1.00,1,1,1,1713.33,-1.07,164127.51,1433.02,-1.09,63686.31,693.57,-0.74,53843.14,935.56,-0.16,29362.71,458.18,-0.10,4317.40
1103400,1395.81,503.34,1.00,1,1,1,1139.22,-1.11,40543.06,1117.83,-0.08,89115.57,1790.07,-0.29,84694.47,1103.08,-0.31,16108.98,503.54,-0.10,3194.39
1124500,1427.89,514.81,1.00,2,2,2,1614.89,0.34,88124.64,2565.16,0.04,69214.18,1988.22,-0.01,26386.22,1095.79,-0.21,5008.68,553.00,0.08,5026.92
1139400,1488.08,507.00,1.00,2,2,2,4073.42,-0.13,183628.80,2684.13,0.01,9709.11,2083.52,0.02,7462.70,1179.40,-0.25,6075.19,532.33,-0.09,6174.62
1168800,1546.80,515.80,1.00,1,1,1,2019.37,0.15,74907.13,1686.32,-0.01,33980.44,1452.75,-0.05,21821.55,1018.66,-0.09,7956.13,540.61,-0.19,1885.00
1182900,1561.43,505.92,1.00,1,1,1,1252.44,-0.59,98299.79,387.13,-0.43,95148.69,756.04,-0.17,50224.65,942.74,0.01,8805.65,540.95,-0.31,4520.00
1218500,1564.27,507.75,1.00,1,1,1,94.90,0.57,34220.50,235.79,-1.91,12215.92,161.52,-1.42,20276.26,941.83,0.02,372.94,537.43,-0.27,567.02
1232600,1557.50,494.88,1.00,1,1,1,1031.40,-2.06,79079.51,570.17,-2.86,33614.96,115.97,-3.04,14393.90,566.92,0.05,26635.37,537.93,-0.23,1660.47
1247000,1548.64,503.31,1.00,1,1,1,849.08,2.38,104446.40,323.87,2.11,40217.34,261.28,0.68,25269.22,144.72,-0.40,30675.25,470.20,0.00,9358.07
1268600,1551.54,504.90,1.00,1,1,1,153.48,0.50,42010.43,895.38,0.48,44810.63,405.15,0.71,6671.89,3.53,1.52,6757.81,458.70,0.17,3535.95
1283300,1577.41,518.42,1.00,1,1,1,1985.55,0.48,124632.89,938.02,0.26,14005.32,274.59,0.25,13578.00,168.47,-2.95,11521.53,346.74,0.00,8802.35
1297100,1577.35,511.86,1.00,1,1,1,475.07,-1.58,162946.48,560.45,-2.40,105653.74,157.01,0.15,8643.86,251.62,2.81,9832.64,149.56,0.33,15277.93
1311500,1565.79,507.70,1.00,1,1,1,853.17,-2.80,56945.40,474.46,-2.81,15961.89,591.37,-2.73,51692.93,228.68,2.60,3801.74,76.79,2.56,14290.15
1332500,1561.46,506.44,1.00,1,1,1,215.08,-2.86,30411.93,658.70,-2.96,9621.75,791.62,-3.02,13221.87,267.64,2.47,2435.91,139.07,2.52,2975.56
1346500,1543.11,503.58,1.00,1,1,1,1326.27,-2.99,79520.26,1197.66,-3.11,39673.06,679.86,2.89,21079.95,386.83,-3.08,18610.39,200.94,2.41,4599.66
1361400,1526.86,505.45,1.00,1,1,1,1098.02,3.03,26629.51,841.40,2.50,50578.99,686.96,2.65,11044.78,382.71,2.95,6441.46,242.06,2.13,5003.06
1375900,1523.35,518.46,1.00,1,1,1,929.22,1.83,79114.33,671.31,1.62,45614.49,295.34,2.49,27456.69,319.48,2.65,8488.72,141.33,2.15,6953.96
1391100,1525.93,525.37,1.00,1,1,1,484.88,1.21,39752.90,146.94,-0.63,50809.86,241.45,1.46,17768.02,306.19,2.53,2681.30,108.68,2.61,4299.79
1412200,1527.65,515.30,1.00,1,1,1,484.06,-1.40,44341.58,143.00,-1.00,2517.84,161.97,0.98,5834.99,326.56,1.99,7977.07,196.97,-3.03,6044.28
1426600,1528.66,521.09,1.00,1,1,1,408.21,1.40,61063.99,415.85,1.44,37008.97,85.92,0.52,6459.25,328.45,1.63,8269.92,192.45,2.99,3485.16
1441100,1529.27,527.21,1.00,1,1,1,423.99,1.47,2377.39,254.51,1.29,11625.09,419.76,1.65,26942.74,125.43,1.24,14986.75,319.48,2.65,10534.01
1455300,1530.72,528.10,1.00,1,1,1,119.73,0.55,25641.77,435.75,1.81,17557.20,421.30,1.73,2383.49,36.63,-1.56,11301.84,306.19,2.53,2870.13
1477200,1525.62,542.51,1.00,1,1,1,697.98,1.91,31185.29,578.77,1.87,6721.51,103.75,1.67,14508.47,31.71,-2.48,1388.20,326.56,1.99,7685.67
1491600,1524.43,548.14,1.00,1,1,1,400.06,1.78,21259.42,321.80,-1.24,62534.06,110.58,-2.09,14159.67,25.64,-2.71,628.77,328.45,1.63,8269.92
1505600,1528.58,533.86,1.00,1,1,1,1062.34,-1.29,104397.44,569.86,-1.52,19625.97,382.43,-1.62,20599.52,103.75,1.67,8183.71,125.43,1.24,15521.99
1541300,1525.96,519.86,1.00,1,1,1,398.96,-1.76,20417.20,435.21,-1.78,5246.23,362.54,-1.54,1021.01,110.58,-2.09,5711.46,36.63,-1.56,4495.41
1555800,1524.07,512.49,1.00,1,1,1,525.19,-1.82,8950.06,24.79,-2.70,29010.32,435.21,-1.78,8226.96,382.43,-1.62,19889.20,31.71,-2.48,2096.67
1570500,1525.31,519.55,1.00,1,1,1,488.03,1.40,68875.06,488.03,1.40,34201.66,24.79,-2.70,28615.63,362.54,-1.54,2479.59,25.64,-2.71,615.93
