@RELATION gaze_labels

%@METADATA width_px 1920
%@METADATA height_px 1080
%@METADATA width_mm 540.00
%@METADATA height_mm 254.00
%@METADATA distance_mm 620.00


@ATTRIBUTE time INTEGER
@ATTRIBUTE x NUMERIC
@ATTRIBUTE y NUMERIC
@ATTRIBUTE confidence NUMERIC
@ATTRIBUTE handlabeller1 INTEGER
@ATTRIBUTE handlabeller2 INTEGER
@ATTRIBUTE handlabeller_final INTEGER
@ATTRIBUTE speed_1 numeric
@ATTRIBUTE direction_1 numeric
@ATTRIBUTE acceleration_1 numeric
@ATTRIBUTE speed_2 numeric
@ATTRIBUTE direction_2 numeric
@ATTRIBUTE acceleration_2 numeric
@ATTRIBUTE speed_4 numeric
@ATTRIBUTE direction_4 numeric
@ATTRIBUTE acceleration_4 numeric
@ATTRIBUTE speed_8 numeric
@ATTRIBUTE direction_8 numeric
@ATTRIBUTE acceleration_8 numeric
@ATTRIBUTE speed_16 numeric
@ATTRIBUTE direction_16 numeric
@ATTRIBUTE acceleration_16 numeric

%The number after speed, direction denotes the step size that was used for the calculation.
%Acceleration was calculated between two adjacent samples of the already low pass filtered velocity

@DATA
0,234.36,578.07,1.00,1,1,1,0.00,0.00,0.00,2582.29,-1.84,0.00,1855.59,-1.75,0.00,725.77,-1.44,0.00,343.69,-1.64,0.00
15300,223.67,540.03,1.00,1,1,1,2582.29,-1.84,168777.42,1855.59,-1.75,49563.58,629.91,-1.09,92000.18,275.00,0.10,50224.38,123.57,-0.85,17729.15
29600,224.79,523.98,1.00,1,1,1,1125.28,-1.50,109767.50,629.91,-1.09,98433.76,725.77,-1.44,17775.23,243.04,0.72,11281.75,180.45,0.88,16375.32
44900,232.22,523.47,1.00,1,1,1,486.51,-0.07,75960.75,651.41,0.67,64558.83,275.00,0.10,50224.38,272.96,1.58,14255.15,146.64,1.15,3625.28
58800,239.75,535.73,1.00,1,1,1,1035.61,1.02,66045.97,687.83,1.19,24925.00,243.04,0.72,11606.40,343.69,-1.64,44326.45,32.67,-2.16,12874.45
73300,239.54,541.58,1.00,1,1,1,403.16,1.61,50651.79,90.86,-2.73,52089.22,272.96,1.58,15041.64,123.57,-0.85,18707.31,70.48,-2.12,2610.30
94900,236.74,534.43,1.00,1,1,1,355.41,-1.94,34389.55,211.64,-3.06,5980.27,128.34,-3.14,13900.51,180.45,0.88,10841.07,103.91,-2.08,1555.98
109100,231.99,540.99,1.00,1,1,1,570.52,2.20,57676.14,190.58,2.90,4708.82,220.04,-2.00,14327.91,146.64,1.15,3906.12,238.83,-1.74,10208.38
123500,231.45,535.72,1.00,1,1,1,367.64,-1.67,61071.48,433.43,-1.44,37045.93,126.60,1.19,24065.08,32.67,-2.16,12427.42,230.20,-1.67,1334.69
137800,233.66,528.66,1.00,1,1,1,517.39,-1.27,16146.82,289.42,0.65,43957.80,123.21,-0.04,10067.70,70.48,-2.12,2646.81,88.82,-1.59,9914.94
159600,239.77,542.04,1.00,1,1,1,674.67,1.14,51126.05,378.35,1.09,7785.92,88.22,-0.60,3095.11,103.91,-2.08,1541.70,67.18,-2.50,3271.73
173700,239.94,540.70,1.00,1,1,1,95.60,-1.44,53722.45,248.92,-1.82,44201.89,45.41,1.47,8294.93,238.83,-1.74,10280.78,155.88,-2.93,6990.85
201900,237.17,531.84,1.00,1,1,1,329.43,-1.87,8719.96,202.40,-2.20,3405.16,264.83,-2.03,10909.95,141.65,-1.72,3449.35,129.14,-2.53,2175.20
223500,234.04,532.53,1.00,1,1,1,148.57,2.92,16197.35,286.59,-2.19,3898.27,424.81,-1.94,7549.04,106.85,-2.21,3210.10,253.87,-0.33,16042.31
252000,228.82,520.15,1.00,1,1,1,471.36,-1.97,16429.80,691.98,-1.85,15155.91,255.88,-2.03,6013.31,268.75,-2.37,5761.82,695.15,-0.06,15978.81
266600,225.68,503.91,1.00,1,1,1,1133.58,-1.76,46530.28,224.47,-1.67,32425.09,265.39,-2.11,1663.60,366.60,-2.66,9132.03,1129.57,-0.02,29853.98
281300,228.20,513.61,1.00,1,1,1,681.89,1.32,123443.55,299.93,1.81,35199.92,319.64,-2.77,13207.10,227.61,-2.59,9566.96,1294.60,-0.02,11229.11
302900,223.14,514.49,1.00,1,1,1,237.44,2.97,34250.33,519.88,-3.08,25639.47,589.09,2.88,17735.15,538.49,-0.19,33426.83,1212.33,-0.02,3814.20
317800,209.26,512.43,1.00,2,2,2,942.30,-2.99,48386.06,1194.06,-3.12,45307.73,292.71,3.09,20742.85,1592.95,0.01,71919.86,1192.78,-0.08,4793.16
331900,188.52,513.87,1.00,2,2,2,1474.12,3.07,41848.10,76.09,1.55,85089.89,1340.96,0.03,115800.80,2555.21,0.09,69224.05,1347.57,-0.08,10980.00
345900,209.31,514.57,1.00,2,2,2,1485.76,0.03,211139.97,3377.31,0.03,240996.49,3530.69,0.05,156417.97,2902.40,0.04,27048.68,1515.42,-0.07,12024.38
368000,310.39,517.53,1.00,3,3,3,4575.59,0.03,139812.31,6267.46,0.04,130782.05,5685.53,0.06,97533.49,2930.16,0.02,3228.22,1625.85,-0.07,5002.75
382100,436.05,522.75,1.00,1,1,1,8919.55,0.04,308131.35,8581.18,0.07,165080.13,6096.41,0.03,30743.43,2887.19,0.00,3805.72,1435.07,-0.08,13574.60
396800,556.91,535.00,1.00,1,1,1,8264.06,0.10,56542.13,5878.43,0.03,184872.85,4729.79,0.01,93396.37,3395.86,-0.01,34714.18,1263.98,-0.05,12039.21
410500,602.91,527.89,1.00,1,1,1,3398.08,-0.15,368504.90,1027.42,-0.53,367775.00,2252.29,-0.06,181585.15,3410.43,-0.03,4644.04,1415.25,-0.06,11075.04
425500,582.34,520.08,1.00,1,1,1,1467.06,-2.78,315319.02,723.04,-2.58,100377.25,1141.11,-0.35,80233.38,2925.75,-0.05,32603.65,1636.99,-0.07,14823.46
446500,580.84,514.10,1.00,1,1,1,293.64,-1.82,62915.69,1257.44,-0.23,87664.85,829.88,-0.49,16120.14,1292.02,-0.20,79134.27,1848.82,-0.05,10245.15
460500,625.21,510.14,1.00,1,1,1,3182.45,-0.09,231536.36,2449.47,-0.16,85549.91,1331.34,-0.23,40632.83,372.66,-1.68,93570.75,1949.36,-0.04,7205.42
475300,650.46,502.77,1.00,1,1,1,1777.42,-0.28,99977.24,1420.83,-0.23,70070.05,478.54,-0.95,69086.06,289.24,-1.85,6824.82,1871.33,-0.06,5716.59
489400,665.18,500.70,1.00,1,1,1,1053.62,-0.14,53224.01,1518.58,-2.88,202262.00,1193.48,-2.84,100624.59,621.23,-0.40,46261.51,1561.62,-0.09,22265.49
510600,598.63,489.11,1.00,1,1,1,3186.41,-2.97,198192.88,3216.49,-3.03,81445.94,921.36,-2.96,14073.74,926.09,-0.20,16194.82,1183.77,-0.13,17988.34
524900,551.75,487.55,1.00,2,2,2,3279.80,-3.11,32088.39,236.98,2.68,211233.69,203.57,-1.42,65566.20,782.75,-0.17,10163.68,740.35,-0.35,34246.04
539200,592.56,492.13,1.00,2,2,2,2871.54,0.11,429834.15,2308.86,-0.04,176682.17,1422.69,-0.01,98248.49,622.93,-0.21,11400.34,354.89,-0.62,28658.37
575200,667.81,483.44,1.00,1,1,1,2104.36,-0.11,26325.04,2359.03,-0.03,1406.78,2082.03,0.01,18332.30,570.73,-0.26,1603.33,549.38,-0.22,7326.40
589200,710.45,488.31,1.00,1,1,1,3065.00,0.11,80141.65,1827.50,0.07,41149.73,1636.71,-0.07,33361.29,1101.88,-0.06,39555.94,1019.84,-0.05,34793.77
618900,747.45,489.40,1.00,1,1,1,1246.55,0.03,61478.59,831.73,-0.18,35108.00,1116.65,-0.07,17513.85,1299.86,-0.12,7189.09,1465.71,-0.02,15072.81
633700,746.88,481.80,1.00,1,1,1,514.90,-1.65,94424.20,431.07,-0.94,40595.78,791.98,-0.15,22411.47,605.82,-0.25,47498.02,1950.18,0.02,33033.15
654900,756.57,476.84,1.00,1,1,1,513.30,-0.47,26830.84,743.45,-0.10,26278.61,445.90,-1.27,33960.27,500.68,0.03,8695.84,2128.15,0.02,8415.01
669300,773.21,479.05,1.00,1,1,1,1165.72,0.13,55498.60,522.65,-1.60,61005.23,975.78,-2.92,76921.50,1130.79,0.07,43822.76,2353.13,0.04,15904.56
683300,756.06,462.00,1.00,1,1,1,1727.24,-2.36,196235.03,3082.42,-3.02,217510.65,291.86,2.67,55143.00,2321.36,0.05,85086.57,2600.41,0.03,17714.79
697900,685.70,468.31,1.00,2,2,2,4838.13,3.05,270875.31,792.47,2.18,191843.73,1592.65,0.21,125334.91,3613.56,0.07,88654.52,2409.57,0.04,13248.03
719100,739.84,485.28,1.00,2,2,2,2675.90,0.30,348179.67,5365.00,0.17,271154.85,4549.78,0.14,139722.82,4167.39,0.06,26171.03,2175.84,0.06,11265.88
733300,872.98,499.89,1.00,2,2,2,9432.62,0.11,480750.55,10727.83,0.06,382017.63,8194.00,0.09,257607.14,3901.65,0.07,18751.41,1934.50,0.07,17012.02
747700,1046.11,503.48,1.00,3,3,3,12025.65,0.02,191628.23,11701.87,0.05,68359.97,8587.61,0.05,37025.35,4222.94,0.09,22842.79,1859.55,0.06,5342.96
762100,1209.63,515.61,1.00,1,1,1,11386.41,0.07,62055.00,6869.67,0.03,335695.58,6197.16,0.03,166141.19,4673.70,0.09,31304.36,1870.39,0.07,1549.10
783300,1290.55,511.27,1.00,1,1,1,3822.55,-0.05,358989.95,1810.32,-0.03,238887.65,3912.53,0.02,107807.56,4044.91,0.07,29926.68,1971.03,0.04,5406.84
798200,1274.95,513.50,1.00,1,1,1,1057.84,3.00,327326.11,297.74,-0.30,102340.12,1159.19,0.07,184896.56,2831.59,0.07,81431.63,1927.81,0.02,4033.95
812300,1298.81,508.75,1.00,1,1,1,1725.52,-0.20,197331.80,405.28,0.66,23829.39,485.80,2.85,115084.07,1398.48,0.08,101651.14,2161.97,0.00,16747.61
826400,1284.01,520.46,1.00,1,1,1,1338.96,2.47,211383.73,1120.51,2.85,98949.14,602.01,2.87,8284.74,130.82,-0.05,89981.52,2167.06,0.03,3643.48
848100,1260.44,520.47,1.00,1,1,1,1085.80,3.14,38331.79,1288.70,3.07,14450.15,1142.62,3.02,25625.89,240.91,-2.67,16615.40,1430.67,0.45,48050.60
862400,1237.75,523.98,1.00,1,1,1,1606.18,2.99,39047.26,1218.97,-3.05,15297.46,899.60,-3.04,22788.57,228.69,-0.86,25891.66,1497.20,1.44,97223.33
876600,1225.84,517.35,1.00,1,1,1,959.39,-2.63,72798.32,513.55,-2.46,59281.56,365.79,-1.47,68590.12,440.12,-0.79,14965.07,2478.13,1.99,100707.79
890700,1226.43,514.85,1.00,1,1,1,182.06,-1.34,65711.63,1191.45,-0.50,104078.14,871.99,-0.54,50673.66,255.57,-1.79,26326.48,3366.62,2.21,78447.49
912000,1262.91,497.22,1.00,4,4,4,1901.92,-0.45,84162.20,1491.00,-0.36,16626.58,1645.09,-0.43,36860.33,1318.31,2.38,68836.15,3308.47,2.29,11774.60
940700,1296.32,488.90,1.00,4,4,4,1199.77,-0.24,26752.65,2024.11,-0.39,18692.80,729.02,-0.55,32264.25,3205.49,2.22,66716.02,2545.80,2.35,27371.08
954800,1343.03,464.27,1.00,4,4,4,3744.86,-0.49,184083.37,699.52,-2.93,186586.10,2409.12,2.32,221039.51,4990.32,2.20,126739.45,1892.54,2.42,47585.63
970400,1276.01,484.54,1.00,4,4,4,4488.58,2.85,525387.62,5999.38,2.43,359109.31,7158.05,2.27,304670.63,6159.08,2.23,75439.85,995.01,2.28,58929.85
1006000,1109.46,663.77,1.00,4,4,4,6872.45,2.32,105458.57,11221.54,2.24,153649.16,11288.63,2.27,116031.46,5946.90,2.26,7624.94,500.62,1.53,20022.59
1020400,929.69,925.98,1.00,4,4,4,22078.23,2.17,1063481.83,20869.46,2.19,671765.42,13044.87,2.25,123770.18,5289.01,2.35,58512.88,596.42,1.01,20760.17
1034900,759.34,1154.86,1.00,4,4,4,19676.84,2.21,174768.37,16169.78,2.26,336340.31,11095.08,2.24,134779.13,4198.38,2.41,78166.80,717.14,0.80,12508.39
1049600,629.03,1290.04,1.00,4,4,4,12772.74,2.34,489267.21,3315.68,2.47,880806.29,3087.91,2.58,561651.00,2111.46,2.18,149463.77,725.80,0.71,4558.95
1070700,666.13,1228.36,1.00,4,4,4,3411.35,-1.03,763777.72,8247.47,-1.10,537686.50,4955.59,-1.14,365992.88,1222.80,-0.00,141629.39,613.31,0.82,6333.36
1084800,761.15,1031.54,1.00,4,4,4,15500.62,-1.12,858696.17,15112.79,-1.02,491334.56,10236.91,-0.87,399669.19,3714.48,-0.57,196204.54,554.24,0.88,4873.50
1098900,890.94,866.30,1.00,4,4,4,14902.06,-0.90,236246.08,12605.99,-0.71,343327.52,13016.67,-0.76,216940.48,6133.94,-0.68,175177.78,439.21,1.09,10983.91
1119800,1094.61,742.62,1.00,4,4,4,11400.78,-0.55,278792.49,12147.07,-0.50,130802.94,10613.06,-0.57,155338.06,7734.21,-0.70,77003.27,576.08,0.54,14474.96
1134000,1265.98,663.49,1.00,4,4,4,13292.94,-0.43,165419.25,8620.34,-0.31,282789.11,8165.57,-0.40,205036.14,7308.80,-0.70,30018.32,1272.35,-0.35,71521.52
1148300,1328.74,668.19,1.00,4,4,4,4401.27,0.07,677287.50,3612.14,0.01,371292.54,5264.53,-0.31,207177.16,5936.76,-0.59,107464.54,2437.65,-0.64,88825.71
1162400,1368.56,664.46,1.00,1,1,1,2836.32,-0.09,118702.01,2000.34,-0.31,129363.68,1901.60,-0.31,238507.88,4559.50,-0.53,100695.79,3501.35,-0.74,78465.27
1177600,1384.56,650.33,1.00,1,1,1,1404.46,-0.72,124444.82,1143.04,-1.21,103136.12,1387.81,-0.78,59691.01,2965.33,-0.51,104945.82,3891.51,-0.76,26089.07
1198900,1383.39,625.46,1.00,1,1,1,1168.97,-1.62,53222.38,1295.05,-1.39,12561.33,1510.03,-1.26,32966.60,1452.23,-0.63,72036.58,3726.74,-0.77,7841.43
1213200,1392.92,604.99,1.00,1,1,1,1578.94,-1.14,53728.18,1976.97,-1.30,48742.28,1380.57,-1.28,9339.93,1208.06,-0.83,24755.94,2841.63,-0.67,65395.10
1227800,1398.76,570.44,1.00,1,1,1,2400.61,-1.40,66628.76,1506.18,-1.17,35683.34,1253.99,-1.14,15811.04,998.57,-1.13,26828.63,2119.74,-0.61,50799.36
1241700,1409.70,565.49,1.00,1,1,1,864.14,-0.42,147332.51,739.24,-0.78,62489.79,1032.28,-0.90,25163.20,731.14,-1.30,21980.00,1305.49,-0.63,58641.02
1263700,1417.62,551.77,1.00,1,1,1,719.98,-1.05,22916.56,771.69,-0.47,10568.41,528.57,-0.75,23437.18,692.09,-1.47,5613.98,672.10,-0.76,29300.97
1278000,1434.63,552.70,1.00,1,1,1,1190.76,0.05,75355.08,263.48,-0.63,35897.73,248.32,-1.39,25347.59,509.78,-1.55,13152.24,516.88,-1.06,16535.46
1292000,1423.63,547.35,1.00,1,1,1,873.68,-2.69,144615.82,456.98,-2.77,45578.65,442.81,-2.35,25776.79,319.09,-1.74,14678.90,502.55,-1.82,26994.71
1327700,1413.46,544.46,1.00,1,1,1,296.04,-2.87,16373.85,730.63,-2.55,8448.77,525.87,-2.53,3425.38,271.12,-1.80,1453.67,987.32,-2.46,18439.42
1341800,1393.41,527.07,1.00,1,1,1,1882.13,-2.43,114818.34,633.85,-2.33,12533.32,454.89,-2.47,5509.72,149.37,-2.03,9200.44,692.09,-1.47,59627.20
1370300,1394.81,524.93,1.00,1,1,1,89.87,-0.99,65689.98,158.53,-2.02,17037.73,334.82,-2.13,6272.90,226.11,-2.72,5142.95,509.78,-1.55,6599.19
1385400,1390.42,520.84,1.00,1,1,1,397.49,-2.39,25990.09,146.68,-0.64,12834.61,175.17,0.24,31538.81,587.56,-2.89,24261.99,319.09,-1.74,13609.57
1408100,1399.25,521.60,1.00,2,2,2,390.31,0.09,32812.06,518.91,0.52,21167.77,221.86,1.08,7365.66,1883.67,-2.86,57112.41,271.12,-1.80,2286.16
1422600,1407.15,530.47,1.00,2,2,2,819.30,0.84,41308.98,572.53,1.42,32748.84,869.57,3.09,67944.43,175.17,0.24,141979.32,149.37,-2.03,8946.64
1437100,1401.79,538.01,1.00,2,2,2,638.21,2.19,63433.01,2570.84,-3.05,190808.64,4152.68,-2.93,228908.58,221.86,1.08,11531.07,226.11,-2.72,10108.56
1451600,1332.92,523.56,1.00,2,2,2,4852.90,-2.93,319623.65,8495.87,-2.87,412712.31,2570.84,-3.05,112254.53,869.57,3.09,67944.43,587.56,-2.89,25265.93
1466300,1162.88,471.16,1.00,3,3,3,12103.84,-2.84,495595.27,12103.84,-2.84,246100.39,8495.87,-2.87,407097.18,4152.68,-2.93,225794.18,1883.67,-2.86,88194.00
