@RELATION gaze_labels

%@METADATA width_px 1920
%@METADATA height_px 1080
%@METADATA width_mm 540.00
%@METADATA height_mm 254.00
%@METADATA distance_mm 620.00


@ATTRIBUTE time INTEGER
@ATTRIBUTE x NUMERIC
@ATTRIBUTE y NUMERIC
@ATTRIBUTE confidence NUMERIC
@ATTRIBUTE handlabeller1 INTEGER
@ATTRIBUTE handlabeller2 INTEGER
@ATTRIBUTE handlabeller_final INTEGER
@ATTRIBUTE speed_1 numeric
@ATTRIBUTE direction_1 numeric
@ATTRIBUTE acceleration_1 numeric
@ATTRIBUTE speed_2 numeric
@ATTRIBUTE direction_2 numeric
@ATTRIBUTE acceleration_2 numeric
@ATTRIBUTE speed_4 numeric
@ATTRIBUTE direction_4 numeric
@ATTRIBUTE acceleration_4 numeric
@ATTRIBUTE speed_8 numeric
@ATTRIBUTE direction_8 numeric
@ATTRIBUTE acceleration_8 numeric
@ATTRIBUTE speed_16 numeric
@ATTRIBUTE direction_16 numeric
@ATTRIBUTE acceleration_16 numeric

%The number after speed, direction denotes the step size that was used for the calculation.
%Acceleration was calculated between two adjacent samples of the already low pass filtered velocity

@DATA
0,334.64,584.66,1.00,1,1,1,0.00,0.00,0.00,1201.36,1.36,0.00,438.05,0.85,0.00,544.06,-1.31,0.00,138.89,-2.05,0.00
14400,338.26,601.58,1.00,1,1,1,1201.36,1.36,83427.65,438.05,0.85,58691.74,1021.80,-1.31,91483.52,909.53,-1.65,30277.16,131.06,-1.58,4398.31
28500,342.84,594.08,1.00,1,1,1,623.22,-1.02,121156.33,1021.80,-1.31,93429.98,544.06,-1.31,33883.80,765.27,-1.94,19881.90,100.33,-1.00,5130.91
42900,345.81,573.45,1.00,1,1,1,1447.01,-1.43,63044.69,1371.13,-1.58,32813.61,909.53,-1.65,30277.16,482.62,-2.36,26162.78,115.97,0.99,12626.83
57400,342.54,554.45,1.00,1,1,1,1329.64,-1.74,30937.76,911.29,-1.96,43330.30,765.27,-1.94,19333.43,138.89,-2.05,24314.58,379.55,1.28,18639.00
78500,333.39,543.48,1.00,1,1,1,677.06,-2.27,38744.65,527.22,-2.76,31414.90,482.62,-2.36,17855.17,131.06,-1.58,3001.69,358.40,1.09,3331.33
94100,324.55,547.32,1.00,1,1,1,617.63,2.73,49840.44,423.73,2.47,31008.64,337.65,2.38,37409.91,100.33,-1.00,4637.55,302.84,0.95,4691.51
108000,323.59,551.24,1.00,1,1,1,290.25,1.81,35849.21,797.48,1.47,48295.38,639.96,1.46,36752.05,115.97,0.99,13081.03,194.30,0.77,8439.79
122200,326.78,569.62,1.00,1,1,1,1313.76,1.40,74252.02,1032.47,1.16,25717.15,690.33,0.96,23464.41,379.55,1.28,19032.78,110.08,-1.20,18158.81
143300,338.07,584.69,1.00,1,1,1,892.34,0.93,31208.25,754.55,0.53,29104.57,726.28,0.85,3935.40,358.40,1.09,3331.33,112.02,-1.46,1347.06
157600,349.80,583.16,1.00,1,1,1,827.49,-0.13,60777.16,566.08,0.08,24420.16,684.23,0.81,3586.11,302.84,0.95,5118.01,34.10,-1.13,5630.75
171500,353.99,585.92,1.00,1,1,1,360.79,0.58,43395.90,684.34,1.20,48556.53,257.57,-0.01,38990.95,194.30,0.77,8439.79,11.63,1.66,3250.08
185500,356.65,600.98,1.00,1,1,1,1092.01,1.40,63070.11,42.13,-1.17,51083.25,78.19,-2.13,21833.89,161.02,-0.55,15586.75,19.62,2.61,1143.12
207400,354.58,584.53,1.00,1,1,1,756.83,-1.70,84396.45,655.91,-1.98,28658.17,327.64,-2.19,11399.68,96.93,-1.31,5175.23,53.77,-1.76,2885.28
222200,347.13,578.87,1.00,1,1,1,632.18,-2.49,37151.87,704.89,-2.25,13055.53,665.37,-1.85,25195.57,26.84,2.45,8094.35,78.40,-1.33,2497.53
236600,341.60,568.56,1.00,1,1,1,812.53,-2.06,24563.02,691.88,-1.70,26575.42,232.16,-2.34,32867.76,78.49,-2.32,5665.31,74.53,-1.03,1617.45
251400,344.56,558.83,1.00,1,1,1,687.20,-1.28,39687.85,51.37,1.55,50199.64,84.67,1.62,20044.86,285.13,-1.98,14359.53,130.12,-1.19,3899.66
287500,341.64,571.17,1.00,2,2,2,351.36,1.80,28755.98,529.52,1.49,13248.79,97.34,1.13,1274.74,385.05,-1.97,2769.23,166.24,-1.55,1771.57
302200,346.82,585.64,1.00,1,1,1,1044.83,1.23,52661.42,159.72,0.96,27148.16,70.82,-2.94,10275.58,353.38,-1.88,3162.68,195.39,-1.93,5029.04
330200,345.53,576.78,1.00,1,1,1,319.58,-1.72,48556.19,592.12,-1.89,26664.62,562.39,-1.82,19106.53,228.97,-1.76,4605.20,218.87,-2.08,1387.19
352400,337.56,557.39,1.00,1,1,1,944.35,-1.96,28786.88,1406.43,-1.87,36687.32,793.78,-1.84,10440.58,152.68,-1.73,3450.90,300.94,-2.31,4599.25
366300,330.53,528.28,1.00,1,1,1,2154.84,-1.81,88492.35,1150.84,-1.81,19337.28,695.27,-1.81,7273.86,239.45,-1.64,6351.83,176.55,-1.83,11926.23
380900,329.93,525.49,1.00,1,1,1,195.04,-1.78,134238.78,214.86,0.84,92057.29,396.65,-1.43,24717.99,402.36,-1.86,12107.74,183.89,-1.49,4283.50
395200,334.65,532.92,1.00,1,1,1,615.28,1.00,56011.81,505.36,0.72,20526.55,187.94,0.78,37035.70,394.38,-2.02,4344.13,383.18,-0.37,24099.46
409500,340.83,534.98,1.00,1,1,1,455.74,0.32,27170.34,167.21,0.70,23648.71,76.19,1.50,9816.27,366.04,-2.66,17032.87,849.76,-0.18,33482.28
431300,339.25,536.83,1.00,1,1,1,111.46,2.28,23319.05,319.69,-2.73,22115.67,176.19,-2.95,9611.80,100.80,0.58,21395.90,1477.93,-0.16,28846.19
445500,330.28,530.40,1.00,1,1,1,777.34,-2.52,54616.40,594.89,-2.77,19416.07,664.60,3.10,34884.40,168.19,0.03,6867.21,1745.29,-0.17,18908.88
459700,323.51,530.70,1.00,1,1,1,477.20,3.10,35097.43,1155.17,2.94,51378.24,40.55,-0.58,49281.69,851.79,-0.04,48175.50,2109.28,-0.14,25893.83
474000,298.01,536.95,1.00,1,1,1,1835.64,2.90,95859.18,517.55,0.26,114381.21,337.92,-0.20,21028.19,1896.41,-0.08,73156.59,2021.71,-0.11,7450.38
495500,341.43,535.40,1.00,2,2,2,2020.65,-0.04,178425.33,1523.23,-0.20,50351.82,1878.61,-0.02,71970.32,3119.10,-0.07,56887.42,1897.75,-0.05,7966.40
509900,351.62,526.16,1.00,2,2,2,955.45,-0.74,99303.11,3616.48,-0.06,147005.56,4461.02,-0.08,179750.90,3763.98,-0.05,44966.97,1727.59,-0.04,11872.86
524000,444.29,528.77,1.00,3,3,3,6574.66,0.03,420032.83,8179.20,-0.05,323656.95,6193.28,-0.07,122917.56,4359.28,-0.06,42237.76,1746.26,-0.05,1383.28
538400,584.46,514.92,1.00,3,3,3,9781.52,-0.10,233613.36,8238.93,-0.07,11446.87,7183.08,-0.05,69395.06,4198.06,-0.07,11745.72,1636.45,-0.05,7641.10
559900,739.40,508.99,1.00,1,1,1,7211.99,-0.04,121812.18,6396.71,-0.04,86062.29,6822.78,-0.07,18248.32,3801.63,-0.07,18440.81,1623.47,-0.05,676.75
574500,815.16,504.97,1.00,1,1,1,5196.51,-0.05,138185.74,5063.62,-0.07,91894.01,3941.00,-0.06,197403.01,3122.10,-0.05,46832.19,1628.31,-0.05,346.74
588800,885.38,498.80,1.00,1,1,1,4929.49,-0.09,22337.33,965.85,-0.19,287197.91,1187.00,-0.09,192651.01,2544.14,-0.05,40419.76,1854.45,-0.07,16036.43
604200,843.31,499.44,1.00,1,1,1,2732.26,3.13,497218.37,2548.63,3.09,227737.21,170.07,-3.11,88041.80,1427.69,-0.02,72600.33,2345.72,-0.07,31903.66
618800,809.02,502.54,1.00,1,1,1,2358.55,3.05,28702.58,839.96,3.02,117249.06,942.94,2.99,53185.35,423.17,0.08,69007.91,2612.02,-0.06,18344.12
654200,801.62,504.48,1.00,1,1,1,216.07,2.89,60614.02,159.16,1.29,24836.40,354.87,2.80,16891.47,100.63,2.98,14731.53,2981.75,-0.04,10551.20
668400,811.19,510.13,1.00,1,1,1,782.79,0.53,66721.37,274.93,0.53,13710.95,119.88,1.76,21992.83,183.24,-2.94,6752.65,2700.78,-0.05,19849.53
697800,811.99,510.49,1.00,1,1,1,29.82,0.42,25617.93,120.25,2.37,11182.99,47.47,2.22,2730.96,826.29,-0.10,34110.15,2060.79,-0.04,21780.45
719600,806.76,514.41,1.00,2,2,2,299.74,2.50,14463.01,360.57,-2.91,14341.91,612.57,-0.36,29968.40,1724.89,-0.05,41298.81,1577.10,-0.03,22205.73
733900,799.32,507.49,1.00,2,2,2,710.92,-2.39,50439.06,1917.81,-0.41,155090.01,2512.60,-0.15,134171.57,2841.47,-0.04,78103.16,1325.42,-0.02,17644.16
748000,856.81,492.92,1.00,3,3,3,4205.88,-0.25,328366.61,6059.75,-0.12,301815.40,4468.36,-0.09,139310.14,2856.33,-0.05,2924.58,1125.75,0.03,14679.74
762900,973.83,486.80,1.00,1,1,1,7864.67,-0.05,256885.47,6565.64,-0.02,53723.75,6384.57,-0.05,129622.49,2836.61,-0.06,1573.39,1422.37,0.04,19931.03
784100,1093.78,488.27,1.00,1,1,1,5658.49,0.01,106033.83,6671.68,0.01,9955.74,5610.21,-0.01,37745.65,3083.06,-0.05,11646.50,1764.38,0.05,16155.56
798500,1211.34,488.68,1.00,1,1,1,8163.48,0.00,174007.51,4449.56,0.00,154330.24,3178.37,0.01,169045.29,3071.49,-0.02,5758.49,2138.70,0.06,26069.08
813800,1225.94,488.53,1.00,1,1,1,954.19,-0.01,471201.98,1038.20,3.11,358646.90,1563.87,0.07,105883.54,2723.07,0.04,25847.84,2403.23,0.06,17291.29
828000,1180.73,489.64,1.00,1,1,1,3184.78,3.12,291471.59,1469.47,2.99,32204.38,234.93,2.52,123320.34,2163.19,0.10,40695.76,2761.32,0.07,25226.04
842300,1184.55,494.98,1.00,1,1,1,459.24,0.95,242250.13,548.71,0.42,136649.33,369.26,2.25,10980.10,1842.89,0.17,24634.12,2737.88,0.05,4482.41
864000,1198.80,497.61,1.00,2,2,2,667.64,0.18,21345.80,812.09,0.43,12144.50,1187.84,0.33,62590.51,1410.49,0.29,21812.22,2501.66,0.04,10944.51
878200,1211.07,507.09,1.00,2,2,2,1092.20,0.66,41187.63,1987.37,0.30,83562.90,2105.30,0.24,65400.46,1950.60,0.26,38234.60,2288.33,0.05,15103.92
892900,1253.67,514.58,1.00,2,2,2,2942.44,0.17,138794.39,3740.52,0.19,121082.97,3000.04,0.23,60888.32,2731.00,0.20,53890.87,1802.38,0.05,33061.68
907000,1316.92,527.13,1.00,3,3,3,4573.01,0.20,115786.19,3832.60,0.20,7247.30,4061.42,0.18,76425.29,2468.42,0.15,20600.61,1328.76,0.05,33593.12
928300,1386.67,541.37,1.00,3,3,3,3342.49,0.20,57779.20,4320.64,0.17,23684.62,4311.29,0.16,11971.36,2041.62,0.11,20418.71,956.18,0.07,17524.72
942700,1469.01,552.83,1.00,1,1,1,5772.77,0.14,169860.90,4911.76,0.13,42849.11,2778.25,0.10,107622.73,1929.51,0.05,11377.64,989.15,0.04,3299.44
956800,1525.50,559.37,1.00,1,1,1,4033.06,0.12,123633.63,1521.32,-0.07,243460.81,1413.16,-0.05,99120.81,1509.59,-0.01,30710.96,1146.19,0.03,11144.45
985500,1533.97,548.40,1.00,1,1,1,482.97,-0.91,132623.83,404.76,-1.86,57759.44,583.88,-0.57,33063.95,995.21,-0.10,18314.06,1119.23,0.03,970.38
1021400,1518.05,534.31,1.00,1,1,1,592.30,-2.42,20579.25,620.78,-2.23,7879.40,613.79,-2.20,24289.63,678.05,-0.27,9696.62,1051.83,0.04,1932.32
1035900,1514.91,523.59,1.00,1,1,1,770.03,-1.86,28545.06,1165.35,-2.46,39880.49,552.91,-2.38,8374.47,439.40,-0.77,24797.12,981.90,0.02,5109.98
1050600,1491.73,512.74,1.00,1,1,1,1741.06,-2.70,92521.42,500.62,-2.57,45608.36,391.00,-2.24,11827.95,323.79,-1.43,18336.29,849.46,0.01,9033.42
1085700,1493.94,510.10,1.00,1,1,1,98.30,-0.87,50395.29,154.03,-0.34,17303.18,314.49,-1.22,9978.17,264.13,-1.66,2572.91,634.00,-0.10,6526.21
1100100,1498.92,510.20,1.00,1,1,1,345.47,0.02,20425.10,1068.48,-0.32,63504.87,508.04,-0.25,29188.52,160.19,-1.69,7227.71,387.95,-0.35,19167.80
1114700,1523.34,500.29,1.00,1,1,1,1805.17,-0.39,102345.84,993.07,-0.23,8065.41,558.56,-0.15,5225.51,93.96,-2.22,6344.15,174.22,-1.01,18673.40
1136300,1533.89,501.86,1.00,1,1,1,493.75,0.15,64941.32,223.81,0.59,39635.88,253.71,0.07,14613.09,128.24,0.23,9685.24,127.36,-1.70,5112.69
1151200,1530.15,504.80,1.00,1,1,1,319.43,2.47,50325.61,716.89,2.66,56955.17,321.41,2.49,36152.71,137.85,-0.11,3040.92,74.49,-2.17,4697.76
1165300,1515.42,511.40,1.00,1,1,1,1144.72,2.72,59463.98,876.87,2.81,13990.50,490.96,2.59,12308.18,71.38,-1.84,11697.81,138.10,-0.11,13131.18
1179400,1506.76,512.85,1.00,1,1,1,622.23,2.98,40091.00,273.03,2.38,45318.26,289.08,2.96,17439.27,214.70,2.85,16170.39,297.37,-0.00,11409.28
1194300,1509.69,516.87,1.00,1,1,1,333.85,0.94,55522.34,188.62,-0.75,30982.50,333.92,-2.65,14056.33,192.71,2.17,9212.59,535.66,0.01,15995.54
1215800,1511.77,508.15,1.00,1,1,1,416.88,-1.34,31754.96,578.67,-2.27,27892.93,170.04,-2.71,7654.41,209.70,1.90,2673.99,702.88,0.03,7800.88
1229600,1496.48,501.29,1.00,1,1,1,1214.86,-2.72,87599.81,533.58,3.13,34366.19,184.46,0.38,25682.19,342.76,0.44,27648.73,773.93,0.04,5203.50
1243900,1496.78,508.30,1.00,1,1,1,490.87,1.53,104932.46,1092.65,0.69,107644.62,379.48,1.16,19504.24,694.29,0.12,26843.57,597.77,0.10,12576.93
1258300,1520.64,521.28,1.00,2,2,2,1886.06,0.50,117112.58,926.19,0.73,11827.35,1015.95,0.45,53232.81,986.31,-0.02,21786.44,542.91,0.06,4051.06
1279700,1521.55,530.34,1.00,2,2,2,425.57,1.47,78657.98,1000.67,0.25,21714.03,1543.51,0.15,30302.17,1297.75,0.05,14978.67,613.81,-0.04,4355.52
1294200,1555.48,530.03,1.00,2,2,2,2339.91,-0.01,161362.49,2555.88,-0.09,113513.14,1767.79,-0.06,28555.60,1603.29,0.09,21496.25,610.21,-0.08,1662.29
1309000,1596.12,523.42,1.00,3,3,3,2781.99,-0.16,39726.46,2729.29,-0.19,20660.87,2526.02,-0.10,51510.94,1381.84,0.04,15752.64,604.68,-0.05,1351.64
1325300,1638.87,514.18,1.00,1,1,1,2683.20,-0.21,10593.63,2497.58,-0.10,19732.58,2341.46,-0.08,11669.54,1088.33,-0.06,19644.21,597.03,-0.04,578.38
1339700,1672.39,515.58,1.00,1,1,1,2330.27,0.04,50501.07,1966.68,0.09,46843.01,1244.23,-0.10,76221.49,1264.63,-0.19,15710.78,596.80,-0.00,1621.53
1354100,1695.30,519.02,1.00,1,1,1,1608.54,0.15,52140.28,170.21,-0.00,124805.65,510.67,-0.08,50950.62,872.80,-0.24,27474.03,644.74,0.06,4349.62
1375500,1678.49,515.57,1.00,1,1,1,802.06,-2.94,112608.48,362.99,-2.69,24355.04,354.33,-0.68,13902.05,547.68,-0.22,15201.97,642.83,-0.05,3339.37
1404100,1678.99,511.06,1.00,1,1,1,158.45,-1.46,28083.08,546.35,-0.85,25616.20,222.45,-1.77,11144.42,275.05,-0.10,9682.51,481.14,-0.14,5930.61
1418500,1694.07,497.99,1.00,1,1,1,1386.34,-0.71,88509.97,367.03,-0.86,12457.73,124.79,-1.33,8440.00,84.04,-0.57,14179.62,444.97,-0.09,2913.51
1453900,1690.95,497.25,1.00,1,1,1,90.61,-2.91,40708.74,287.23,2.68,18121.75,42.02,-0.32,3067.46,83.18,-2.71,4141.59,331.92,0.07,3644.79
1468300,1681.25,504.32,1.00,1,1,1,834.07,2.51,54044.56,525.96,2.17,21441.58,165.73,2.36,14173.65,104.88,-1.28,8650.20,216.12,0.24,8618.10
1483400,1682.15,510.03,1.00,1,1,1,382.57,1.41,49192.03,128.77,0.93,33056.57,275.83,2.04,8544.48,152.95,-2.72,11491.04,93.62,0.91,10246.80
1504400,1684.01,508.06,1.00,1,1,1,128.78,-0.81,22492.51,93.61,1.37,2827.76,77.60,-1.17,16823.38,359.14,2.73,13366.06,34.67,1.45,3159.79
1519200,1682.81,513.31,1.00,1,1,1,364.09,1.80,32401.79,283.74,-1.66,25469.03,378.95,-2.81,26492.17,429.10,2.36,10889.91,47.30,-2.82,4699.68
1534300,1683.25,499.61,1.00,1,1,1,907.98,-1.54,83925.25,906.98,-2.70,53074.94,669.02,2.86,27773.26,319.60,2.20,8263.93,91.92,-0.22,8918.85
1548400,1658.87,501.97,1.00,2,2,2,1737.27,3.04,146198.83,1470.78,2.66,83264.07,603.66,2.50,16889.36,286.08,2.38,4665.09,166.02,-0.20,5257.56
1562300,1646.76,518.69,1.00,1,1,1,1485.13,2.20,96691.18,997.07,1.78,81526.76,726.82,2.17,17988.23,165.28,2.11,9667.76,108.10,-0.05,4414.06
1584000,1651.44,536.68,1.00,1,1,1,856.75,1.32,52970.76,605.75,1.09,30327.73,523.93,1.68,16766.60,11.66,1.85,7098.44,5.98,-1.38,4923.81
1598400,1656.93,538.05,1.00,1,1,1,392.92,0.24,52278.02,141.22,-0.30,41440.89,424.55,0.25,43453.25,181.13,0.45,12466.78,319.60,2.20,22571.80
1612700,1655.31,535.47,1.00,1,1,1,212.81,-2.13,39579.46,718.25,-0.65,41066.49,659.55,-0.62,35140.92,498.59,0.00,24104.65,286.08,2.38,4599.84
1627400,1673.55,525.49,1.00,1,1,1,1414.54,-0.50,98185.80,1181.98,-0.65,31549.30,842.57,-0.54,13116.96,613.43,-0.28,13121.41,165.28,2.11,9141.63
1641600,1682.41,514.68,1.00,1,1,1,984.29,-0.88,43810.22,946.96,-0.47,21525.14,1160.71,-0.46,23101.76,462.99,-0.80,21988.15,11.66,1.85,10847.62
1663900,1704.37,509.85,1.00,1,1,1,1008.38,-0.22,29294.56,1176.92,-0.30,13121.53,885.19,-0.52,12735.72,842.57,-0.54,18539.49,181.13,0.45,8050.30
1678200,1723.59,502.04,1.00,1,1,1,1450.60,-0.39,34087.19,811.47,-0.60,32923.33,317.83,-1.13,45516.99,1160.71,-0.46,22940.21,498.59,0.00,24104.65
1692800,1723.69,496.56,1.00,1,1,1,375.57,-1.55,92303.42,1132.41,-2.95,123067.22,811.47,-0.60,38431.05,885.19,-0.52,19452.50,613.43,-0.28,13211.29
1707300,1691.24,495.76,1.00,1,1,1,2238.71,-3.12,156400.36,2238.71,-3.12,78468.91,1132.41,-2.95,123915.96,317.83,-1.13,44889.17,462.99,-0.80,21533.23
