@RELATION gaze_labels

%@METADATA width_px 1920
%@METADATA height_px 1080
%@METADATA width_mm 540.00
%@METADATA height_mm 254.00
%@METADATA distance_mm 620.00


@ATTRIBUTE time INTEGER
@ATTRIBUTE x NUMERIC
@ATTRIBUTE y NUMERIC
@ATTRIBUTE confidence NUMERIC
@ATTRIBUTE handlabeller1 INTEGER
@ATTRIBUTE handlabeller2 INTEGER
@ATTRIBUTE handlabeller_final INTEGER
@ATTRIBUTE speed_1 numeric
@ATTRIBUTE direction_1 numeric
@ATTRIBUTE acceleration_1 numeric
@ATTRIBUTE speed_2 numeric
@ATTRIBUTE direction_2 numeric
@ATTRIBUTE acceleration_2 numeric
@ATTRIBUTE speed_4 numeric
@ATTRIBUTE direction_4 numeric
@ATTRIBUTE acceleration_4 numeric
@ATTRIBUTE speed_8 numeric
@ATTRIBUTE direction_8 numeric
@ATTRIBUTE acceleration_8 numeric
@ATTRIBUTE speed_16 numeric
@ATTRIBUTE direction_16 numeric
@ATTRIBUTE acceleration_16 numeric

%The number after speed, direction denotes the step size that was used for the calculation.
%Acceleration was calculated between two adjacent samples of the already low pass filtered velocity

@DATA
0,933.75,1013.59,1.00,0,0,0,0.00,0.00,0.00,6287.16,-1.99,0.00,7695.75,-2.00,0.00,5990.91,-2.01,0.00,4702.26,-2.02,0.00
28400,860.70,850.66,1.00,0,0,0,6287.16,-1.99,221378.99,7695.75,-2.00,49679.74,9604.32,-2.02,67429.31,5793.59,-2.02,7198.75,3955.25,-2.03,26419.91
43200,794.22,711.83,1.00,1,1,1,10400.48,-2.02,278264.60,9604.32,-2.02,129391.38,5990.91,-2.01,244189.13,4537.25,-2.02,84887.77,2852.11,-2.06,74826.33
57700,737.95,597.44,1.00,1,1,1,8791.94,-2.03,111150.62,4530.36,-2.03,349936.50,5793.59,-2.02,14099.62,3066.82,-2.02,101412.65,1839.57,-2.13,70713.80
93600,693.52,506.91,1.00,1,1,1,2809.11,-2.03,166652.80,3547.02,-2.02,27395.14,4537.25,-2.02,34995.52,4702.26,-2.02,45556.66,1264.83,-2.36,18726.59
107400,660.87,438.90,1.00,1,1,1,5466.77,-2.02,192600.15,4549.85,-2.01,72717.57,3066.82,-2.02,106556.77,3955.25,-2.03,54371.41,1005.29,-2.80,40295.27
121700,638.66,391.43,1.00,1,1,1,3665.11,-2.01,126030.10,2394.65,-2.01,150715.17,2796.89,-2.02,18906.52,2852.11,-2.06,77442.63,1010.42,3.01,33230.26
142900,624.62,362.00,1.00,1,1,1,1537.72,-2.02,100352.15,1398.22,-2.05,47131.23,1673.67,-2.08,53233.63,1839.57,-2.13,48365.57,1125.31,2.81,11399.37
156900,615.89,347.79,1.00,1,1,1,1191.35,-2.12,26758.58,793.04,-2.32,47741.64,827.39,-2.32,63949.49,1264.83,-2.36,48020.33,2461.91,-2.22,169332.93
171000,609.41,345.72,1.00,1,1,1,482.62,-2.83,62652.39,496.89,2.80,53135.25,513.27,3.04,46740.83,1005.29,-2.80,39437.92,1864.06,-2.24,42509.09
186000,602.26,352.62,1.00,2,2,2,662.57,2.37,40516.71,735.18,2.29,25716.82,761.67,2.56,25891.86,1010.42,3.01,31679.51,1161.87,-2.20,46992.16
206700,592.05,365.40,1.00,2,2,2,790.25,2.25,7623.18,929.48,2.48,11944.17,1204.16,2.65,21777.64,1125.31,2.81,11674.72,556.96,-1.94,30909.20
235300,566.14,380.82,1.00,1,1,1,1054.14,2.60,14678.36,1641.33,2.77,27927.03,1501.34,2.66,10412.44,1043.86,2.60,8259.07,386.76,-0.68,20018.98
250000,525.75,391.00,1.00,1,1,1,2833.66,2.89,125731.08,2323.51,2.76,46443.71,1634.00,2.75,13066.93,820.11,2.30,24042.11,735.25,-0.00,33707.67
271000,489.18,411.77,1.00,1,1,1,2002.57,2.63,49956.00,1626.45,2.72,33411.31,1386.90,2.63,14408.16,564.45,1.66,23987.77,1140.95,0.15,20524.86
285600,472.96,414.80,1.00,1,1,1,1130.01,2.96,68779.06,445.15,1.69,99228.17,657.72,1.45,88404.47,714.03,0.71,40882.49,1374.57,0.20,16573.65
300100,487.67,424.64,1.00,1,1,1,1220.47,0.59,150130.79,2134.18,0.30,144727.96,1687.25,0.23,109331.17,1550.29,0.26,66072.74,1580.26,0.22,14281.30
314000,530.84,432.79,1.00,1,1,1,3160.58,0.19,150591.32,3054.11,0.11,74750.24,2635.55,0.12,70446.58,2221.44,0.13,51453.80,1740.49,0.21,11555.75
335500,595.11,436.71,1.00,2,2,2,2994.88,0.06,19564.25,2953.01,0.04,11255.72,3768.36,0.05,53661.23,3160.02,0.07,44317.45,1845.96,0.19,5237.80
363500,676.91,438.44,1.00,2,2,2,2921.88,0.02,4942.97,4379.23,0.01,51095.53,3569.01,0.01,8247.04,3286.58,0.06,4548.24,1894.52,0.16,2800.03
377500,779.04,438.05,1.00,1,1,1,7294.96,-0.00,312471.12,4180.32,-0.00,14542.82,4208.26,0.02,45707.81,3511.18,0.05,16158.91,2063.98,0.12,13260.51
413500,885.92,437.84,1.00,1,1,1,2969.08,-0.00,120163.44,4066.50,0.03,5331.23,3799.11,0.03,11454.87,3509.93,0.05,413.21,2096.46,0.09,1895.75
427900,983.87,445.14,1.00,1,1,1,6820.42,0.07,268516.71,3422.91,0.08,46245.40,3312.94,0.06,34474.38,3444.02,0.05,4596.46,2187.38,0.06,7640.19
463300,1055.83,451.54,1.00,1,1,1,2040.99,0.09,135020.26,2556.11,0.11,24595.99,3442.28,0.10,4996.98,3145.55,0.05,8438.95,2318.03,0.06,3703.85
477800,1110.67,458.92,1.00,1,1,1,3815.91,0.13,122716.63,3478.13,0.13,63734.02,2548.76,0.10,61625.68,2530.29,0.05,42431.80,2453.95,0.03,10459.84
492300,1155.86,464.54,1.00,1,1,1,3140.45,0.12,46647.55,2536.14,0.09,65429.48,2129.25,0.07,29267.72,1969.18,0.05,38699.04,2488.49,0.01,3936.35
506300,1182.65,465.51,1.00,1,1,1,1914.85,0.04,88870.33,1031.10,-0.08,109266.62,1299.89,-0.02,60373.70,1253.51,0.05,51121.54,2473.93,0.00,1896.49
527400,1191.94,461.71,1.00,1,1,1,475.72,-0.39,70817.51,389.10,-0.67,35160.55,506.08,-0.31,39194.92,1107.90,0.04,6935.32,2441.59,-0.00,1743.08
541400,1193.32,456.99,1.00,1,1,1,351.53,-1.29,26870.66,217.90,-1.44,19753.55,131.59,-1.03,29732.03,1136.71,-0.07,8851.68,2210.42,0.01,16663.19
569700,1193.16,452.58,1.00,2,2,2,156.03,-1.61,7398.00,100.74,-2.93,8216.83,277.17,-0.18,7592.09,1220.72,-0.13,3973.86,1959.64,0.02,8924.03
591300,1188.41,455.92,1.00,1,1,1,269.01,2.53,17476.57,580.60,0.26,31539.41,1006.22,-0.11,33788.63,1380.52,-0.13,7398.25,1435.84,0.03,24250.93
605500,1213.25,457.90,1.00,1,1,1,1754.92,0.08,138685.94,2942.39,-0.09,169430.10,2090.92,-0.08,76467.65,1645.65,-0.11,18749.27,991.50,0.05,31367.15
619700,1271.60,448.12,1.00,1,1,1,4167.05,-0.17,176159.57,4022.93,-0.14,76859.40,3100.32,-0.09,71098.12,1846.80,-0.05,16256.73,472.83,0.10,36593.07
634200,1327.60,441.99,1.00,1,1,1,3885.05,-0.11,25108.59,3225.37,-0.08,56821.64,3308.57,-0.11,15121.81,1949.63,-0.01,8974.46,57.23,1.54,32360.05
655600,1387.02,438.77,1.00,1,1,1,2780.41,-0.05,52296.69,2735.99,-0.07,22906.37,2880.40,-0.02,23531.66,1669.35,0.00,13110.48,393.30,2.93,18086.13
669800,1424.76,435.06,1.00,1,1,1,2670.62,-0.10,11416.27,2457.49,0.08,33545.31,1817.91,0.08,76481.92,875.52,0.07,56185.63,692.61,3.00,21205.61
683600,1455.62,444.12,1.00,1,1,1,2330.75,0.29,73217.45,856.40,0.72,133712.43,360.91,0.84,114267.76,183.45,2.17,71110.32,930.92,3.01,17296.12
697700,1442.70,450.83,1.00,1,1,1,1032.32,2.66,223935.41,1518.03,2.92,151645.83,1181.67,2.80,96448.53,1073.26,2.91,67121.69,1168.78,3.02,16870.85
719500,1402.42,455.94,1.00,1,1,1,1862.71,3.02,44165.24,2108.87,3.00,27769.44,2026.11,3.00,41254.89,1939.72,2.98,40013.65,1327.16,3.04,7375.26
748000,1337.74,466.14,1.00,2,2,2,2297.57,2.99,15418.11,2313.11,3.03,7529.05,2869.35,3.03,29728.44,2563.96,3.01,22033.80,1484.21,3.07,5679.81
783800,1254.67,473.00,1.00,2,2,2,2328.29,3.06,4858.61,3635.07,3.05,36993.81,3217.39,3.04,9731.07,3135.11,3.05,16233.98,1655.57,3.07,4796.15
798100,1156.31,482.04,1.00,3,3,3,6906.72,3.05,320180.59,4573.16,3.05,65634.51,3674.56,3.07,32665.55,3392.88,3.06,18307.90,1820.47,3.07,11536.70
826700,1059.36,491.57,1.00,1,1,1,3406.41,3.04,122393.49,3714.95,3.08,30333.96,4550.63,3.08,30692.38,3561.44,3.07,6011.00,1937.43,3.07,4092.51
847700,972.43,493.82,1.00,1,1,1,4140.87,3.12,37283.66,4530.14,3.12,39646.48,4065.03,3.09,23279.35,3606.23,3.10,4409.41,2000.02,3.07,2989.35
862600,896.77,495.27,1.00,1,1,1,5078.83,3.12,62983.30,4665.46,3.11,9262.55,4142.10,3.12,9302.93,3423.07,3.12,13542.49,2140.33,3.07,9419.09
876700,837.19,497.69,1.00,1,1,1,4229.18,3.10,60670.36,3653.34,3.12,71846.74,3497.69,-3.13,46477.19,2695.41,3.14,51794.48,2213.54,3.07,5264.72
891100,792.67,497.16,1.00,1,1,1,3091.94,-3.13,80070.17,2352.27,-3.05,92846.96,2067.25,-3.05,100449.16,1955.43,-3.10,51750.33,2273.90,3.08,4369.96
906000,768.53,491.71,1.00,1,1,1,1660.95,-2.92,101198.43,891.49,-2.69,104028.22,1072.05,-2.92,68125.09,1318.28,-3.07,42874.55,2233.92,3.10,3374.07
927300,763.56,483.21,1.00,1,1,1,461.85,-2.10,65142.47,267.86,-1.49,39097.62,261.01,-2.23,41597.20,903.72,-3.14,19719.45,2239.39,3.11,1166.48
941700,769.25,482.17,1.00,1,1,1,401.79,-0.18,49165.88,395.31,-0.14,29745.40,218.05,-0.60,24254.95,747.84,3.13,10872.75,2011.22,3.13,16299.15
969600,780.13,480.95,1.00,2,2,2,392.28,-0.11,1041.36,295.35,-0.07,3678.24,150.98,1.28,10779.88,735.13,3.13,456.34,1804.19,-3.14,7472.50
991100,783.81,481.18,1.00,2,2,2,171.55,0.06,10482.70,517.94,2.34,35480.23,546.52,2.74,25616.32,783.61,3.09,2623.80,1548.89,-3.12,11957.46
1006200,767.00,494.62,1.00,2,2,2,1425.33,2.47,103082.04,1935.66,2.82,99180.69,1455.54,2.95,61517.05,1048.12,3.06,17615.69,1177.68,-3.08,24794.83
1020600,729.58,499.07,1.00,1,1,1,2616.55,3.02,110711.75,2813.80,3.09,74835.21,2070.09,3.02,43347.82,1322.09,3.11,19551.01,981.94,-3.04,13987.59
1034600,687.18,498.62,1.00,1,1,1,3028.51,-3.13,39200.73,2236.60,-3.13,42917.38,2396.49,3.14,29989.11,1640.40,3.10,22783.57,825.34,-2.99,11666.43
1055500,651.53,497.78,1.00,1,1,1,1706.21,-3.12,63283.59,2063.45,-3.10,8697.95,2344.49,-3.06,9901.73,1807.75,3.13,8305.33,772.24,-3.02,2854.41
1069700,614.82,495.56,1.00,1,1,1,2590.11,-3.08,62485.79,2486.59,-3.00,34085.22,1854.32,-3.07,34526.37,1455.80,-3.05,27568.27,799.52,-3.08,3531.97
1084200,580.93,487.40,1.00,1,1,1,2404.30,-2.91,32842.60,1608.54,-3.02,60649.78,1575.35,-3.01,20316.57,1226.89,-2.97,17498.71,828.17,-3.07,1988.83
1099200,567.72,489.82,1.00,1,1,1,895.19,2.96,108452.03,849.84,-3.05,50642.11,732.85,-2.79,58308.91,929.10,-2.86,21275.25,837.01,-3.08,709.95
1120200,550.46,484.68,1.00,1,1,1,857.73,-2.85,19515.40,319.08,-2.05,34694.63,376.17,-2.47,18757.02,782.60,-2.86,6976.40,774.26,-3.12,3376.70
1148700,560.40,475.82,1.00,1,1,1,467.18,-0.73,41150.23,403.49,-1.14,11540.14,386.35,-2.02,6064.82,602.27,-2.84,6343.88,541.57,-3.09,8193.16
1162800,557.71,469.09,1.00,1,1,1,513.64,-1.95,40028.03,480.41,-1.98,26308.10,296.82,-2.27,8721.97,406.17,-2.78,14062.28,230.18,-2.93,22421.77
1184300,553.52,460.16,1.00,1,1,1,458.94,-2.01,2867.19,505.36,-2.92,20658.52,473.63,-2.91,13813.03,249.71,-2.51,8331.69,159.78,-0.34,17491.83
1213600,532.68,463.40,1.00,1,1,1,719.95,2.99,25165.68,702.34,2.90,11519.32,466.93,-3.02,1783.13,88.85,-0.64,9852.36,515.71,-0.11,12349.94
1227600,523.99,467.41,1.00,1,1,1,683.55,2.71,14101.69,415.37,3.03,21080.08,247.36,2.86,18332.35,287.58,0.23,17131.52,886.73,-0.06,26600.62
1242500,520.75,464.76,1.00,1,1,1,280.78,-2.46,41274.11,303.94,-0.18,48252.88,493.78,0.42,47100.47,626.63,0.15,22871.32,1206.99,-0.03,21648.78
1263400,534.70,465.51,1.00,1,1,1,668.42,0.05,43546.41,1199.50,0.28,44756.41,1048.78,0.23,27348.36,1145.00,0.12,24826.55,1459.21,-0.02,12068.07
1278000,561.73,476.34,1.00,1,1,1,1994.33,0.38,94406.76,1690.76,0.29,33668.51,1642.28,0.14,41411.54,1782.42,0.06,44102.30,1706.63,-0.01,17044.24
1306500,604.58,486.17,1.00,2,2,2,1542.68,0.23,18512.31,1965.72,0.08,16241.11,2514.55,0.08,30870.18,2345.31,0.03,19865.82,1866.04,0.01,5742.64
1328300,660.26,484.53,1.00,2,2,2,2555.39,-0.03,51910.20,3557.15,-0.03,74271.22,2695.49,0.01,11795.30,2730.95,0.03,17690.11,1865.11,0.03,1159.64
1342800,733.65,482.31,1.00,2,2,2,5063.24,-0.03,172955.13,3556.10,-0.03,125.85,3665.29,-0.03,67498.58,3185.96,0.03,31384.01,1885.02,0.04,1981.68
1371400,813.46,479.88,1.00,1,1,1,2791.99,-0.03,79414.13,3757.02,-0.03,7043.80,3928.16,-0.02,9219.62,3338.75,0.01,5698.70,1936.41,0.01,2422.36
1385600,894.39,478.08,1.00,1,1,1,5700.75,-0.02,204854.87,4373.85,-0.01,43562.97,3872.24,-0.01,4817.40,3608.60,-0.01,19295.25,1694.86,-0.04,18314.45
1407400,970.90,477.55,1.00,1,1,1,3509.75,-0.01,100553.12,4011.30,0.00,16990.72,4267.47,0.00,18369.67,3297.03,0.00,14320.65,2730.95,0.03,47994.07
1421300,1037.59,478.55,1.00,1,1,1,4798.51,0.02,92943.84,4136.17,0.03,11497.05,3541.72,0.02,52518.54,2706.66,-0.00,42473.82,3185.96,0.03,32738.72
1436100,1089.57,480.85,1.00,1,1,1,3514.93,0.04,87101.61,2962.43,0.06,79629.92,2529.12,0.04,68544.89,2127.82,-0.03,39424.80,3338.75,0.01,11012.36
1450100,1122.77,483.51,1.00,1,1,1,2379.29,0.08,81455.02,1249.57,0.09,122415.25,1309.00,0.04,87153.05,1007.12,-0.21,82255.77,3608.60,-0.01,19570.90
1472100,1134.38,484.79,1.00,1,1,1,530.83,0.11,84035.01,43.34,-1.34,56546.82,148.46,-1.55,60035.61,2529.12,0.04,71636.30,3297.03,0.00,14190.46
1486700,1123.14,481.96,1.00,1,1,1,793.89,-2.90,90532.38,1598.63,-2.85,109348.82,1155.22,-2.74,75906.38,1309.00,0.04,83571.42,2706.66,-0.00,40437.40
1501300,1089.73,471.17,1.00,1,1,1,2404.69,-2.83,110506.86,2112.63,-2.76,36888.93,1598.63,-2.85,31886.13,148.46,-1.55,90464.62,2127.82,-0.03,39964.87
1530600,1037.13,447.25,1.00,1,1,1,1971.97,-2.71,17033.56,1971.97,-2.71,5664.92,2112.63,-2.76,18381.52,1155.22,-2.74,37823.66,1007.12,-0.21,39303.10
