@RELATION gaze_labels

%@METADATA width_px 1920
%@METADATA height_px 1080
%@METADATA width_mm 540.00
%@METADATA height_mm 254.00
%@METADATA distance_mm 620.00


@ATTRIBUTE time INTEGER
@ATTRIBUTE x NUMERIC
@ATTRIBUTE y NUMERIC
@ATTRIBUTE confidence NUMERIC
@ATTRIBUTE handlabeller1 INTEGER
@ATTRIBUTE handlabeller2 INTEGER
@ATTRIBUTE handlabeller_final INTEGER
@ATTRIBUTE speed_1 numeric
@ATTRIBUTE direction_1 numeric
@ATTRIBUTE acceleration_1 numeric
@ATTRIBUTE speed_2 numeric
@ATTRIBUTE direction_2 numeric
@ATTRIBUTE acceleration_2 numeric
@ATTRIBUTE speed_4 numeric
@ATTRIBUTE direction_4 numeric
@ATTRIBUTE acceleration_4 numeric
@ATTRIBUTE speed_8 numeric
@ATTRIBUTE direction_8 numeric
@ATTRIBUTE acceleration_8 numeric
@ATTRIBUTE speed_16 numeric
@ATTRIBUTE direction_16 numeric
@ATTRIBUTE acceleration_16 numeric

%The number after speed, direction denotes the step size that was used for the calculation.
%Acceleration was calculated between two adjacent samples of the already low pass filtered velocity

@DATA
0,164.86,429.63,1.00,1,1,1,0.00,0.00,0.00,2977.85,-0.35,0.00,1915.89,-0.33,0.00,1306.75,-0.33,0.00,402.80,-0.43,0.00
13900,203.77,415.52,1.00,1,1,1,2977.85,-0.35,214233.92,1915.89,-0.33,76442.44,1100.87,-0.30,58709.57,579.77,-0.34,52303.52,65.84,-0.66,24396.53
35400,228.95,407.46,1.00,1,1,1,1229.85,-0.31,81372.13,1100.87,-0.30,37956.42,1306.75,-0.33,9676.88,52.14,-1.31,25670.72,75.81,2.78,6514.47
50000,241.68,403.60,1.00,1,1,1,911.01,-0.29,21869.18,555.48,-0.32,37359.55,579.77,-0.34,49795.82,342.60,3.02,25032.12,64.69,1.91,4116.61
64100,244.11,402.52,1.00,1,1,1,188.60,-0.42,51369.45,94.63,-2.95,45390.96,52.14,-1.31,39143.30,402.80,-0.43,52268.50,262.70,0.39,18972.01
78400,239.04,403.10,1.00,1,1,1,356.72,3.03,37731.60,500.62,3.00,28824.43,342.60,3.02,25557.27,65.84,-0.66,23714.11,639.07,0.15,27203.88
93100,229.73,404.55,1.00,1,1,1,640.78,2.99,19368.05,540.65,2.98,2859.32,491.37,2.97,10219.98,75.81,2.78,9527.96,1175.56,0.08,36704.85
114700,219.68,406.33,1.00,1,1,1,472.55,2.97,7805.75,484.43,2.94,2745.08,358.67,2.91,6250.26,64.69,1.91,2782.52,1697.05,0.04,24299.64
129600,212.41,408.10,1.00,1,1,1,502.26,2.90,2893.15,209.47,2.76,18848.86,155.76,2.58,14547.32,262.70,0.39,17953.38,1242.83,-0.04,31419.72
158000,211.26,409.71,1.00,1,1,1,69.52,2.19,15913.33,171.95,0.42,12380.07,250.07,0.31,13041.03,639.07,0.15,13697.73,1219.04,0.00,2022.26
172800,219.20,411.12,1.00,1,1,1,544.45,0.18,39032.95,761.99,0.10,40625.86,853.92,0.13,41180.97,1175.56,0.08,36456.84,1362.53,0.01,9702.93
194000,238.57,412.38,1.00,1,1,1,915.51,0.07,17887.58,1688.72,0.10,43713.55,1838.44,0.06,46634.18,1697.05,0.04,24758.12,1504.21,0.01,6683.27
208500,279.21,416.90,1.00,1,1,1,2820.14,0.11,131451.32,3180.26,0.05,103157.57,2792.49,0.04,65859.15,1962.99,0.03,18429.02,1516.12,0.01,867.53
222900,330.37,416.74,1.00,2,2,2,3553.10,-0.00,56708.57,4180.00,0.01,69985.76,3499.36,0.02,49373.64,2240.52,0.02,19289.12,1499.35,0.02,1650.68
237000,398.33,418.40,1.00,2,2,2,4821.02,0.02,90283.89,3763.50,-0.01,29975.50,3083.81,-0.00,29835.86,2552.55,-0.00,22396.07,1492.37,0.03,594.02
258100,462.85,416.01,1.00,3,3,3,3059.77,-0.04,84216.09,2459.62,-0.02,61829.09,2503.33,0.00,27519.61,2887.88,-0.01,15943.69,1434.25,0.02,2755.22
287000,521.29,415.99,1.00,1,1,1,2022.15,-0.00,36041.54,1816.78,0.01,22343.93,2403.05,-0.03,4397.39,2581.47,-0.02,10639.92,1404.63,0.02,1036.05
322700,580.20,417.11,1.00,1,1,1,1650.69,0.02,10452.48,2348.19,-0.04,15171.21,2475.60,-0.04,2061.22,2194.54,-0.01,10874.75,1504.85,0.01,2848.96
338300,641.64,411.01,1.00,1,1,1,3957.84,-0.10,149149.80,3897.34,-0.08,99589.20,2163.12,-0.04,20036.02,1747.33,-0.00,28668.56,1610.34,0.01,6762.31
352800,697.14,407.71,1.00,1,1,1,3833.82,-0.06,13645.50,1941.31,-0.03,135176.83,1811.01,-0.02,24418.42,1233.88,0.01,35435.99,1779.00,0.01,11634.40
381100,724.68,408.15,1.00,1,1,1,973.49,0.02,101201.89,581.71,0.23,49018.12,912.25,0.08,32111.38,916.41,0.01,11220.04,1805.41,-0.01,1481.00
403000,725.60,414.24,1.00,1,1,1,281.26,1.42,44194.50,394.14,2.46,40260.63,115.70,1.81,42800.06,741.86,-0.02,8090.24,1855.38,-0.02,2352.99
417400,713.54,417.12,1.00,1,1,1,860.91,2.91,61285.53,729.37,3.02,30891.81,463.55,2.88,29175.63,619.19,0.06,9279.61,1860.97,-0.03,1129.45
445900,694.56,418.17,1.00,1,1,1,667.17,3.09,8311.48,551.51,3.09,6474.12,353.22,3.13,5258.39,661.50,0.09,1659.59,1833.14,-0.02,1008.70
467000,686.22,418.45,1.00,1,1,1,395.36,3.11,12892.32,139.41,-0.83,31189.01,323.83,-0.03,32086.85,913.61,0.02,12206.83,1840.11,-0.04,1815.89
481400,697.91,414.53,1.00,1,1,1,856.20,-0.32,86124.95,1847.11,-0.04,121649.69,1656.15,-0.01,92524.95,1427.79,-0.04,36008.89,1944.46,-0.06,7639.81
495500,738.83,416.48,1.00,2,2,2,2905.29,0.05,151091.39,3595.49,0.02,124503.61,2737.05,-0.04,76799.87,2005.75,-0.05,41011.73,1895.80,-0.07,3532.53
510000,800.71,416.99,1.00,2,2,2,4268.00,0.01,94472.60,3447.52,-0.04,19351.87,3599.21,-0.03,59484.09,2619.14,-0.04,42322.79,1844.74,-0.07,3553.98
531200,861.79,411.09,1.00,3,3,3,2894.25,-0.10,67064.25,3610.88,-0.08,9801.76,4042.43,-0.05,21114.46,2997.26,-0.06,18100.52,1853.19,-0.08,1231.47
545700,929.20,406.66,1.00,3,3,3,4659.66,-0.07,121996.76,4780.05,-0.06,80921.48,3398.33,-0.05,44421.39,3272.41,-0.07,19025.47,1752.67,-0.10,7403.34
560000,999.23,403.34,1.00,1,1,1,4902.52,-0.05,18057.66,3226.66,-0.02,108973.14,3207.45,-0.08,14703.12,3291.59,-0.09,4979.53,1663.80,-0.10,6216.14
589300,1069.84,403.16,1.00,1,1,1,2409.96,-0.00,85233.30,2320.77,-0.10,31771.95,3011.73,-0.10,7229.74,3148.48,-0.11,5158.02,1532.19,-0.10,4499.73
611000,1116.96,391.14,1.00,1,1,1,2240.86,-0.25,27539.37,2780.37,-0.22,24948.54,2691.28,-0.14,15467.86,2840.84,-0.12,14273.53,1405.45,-0.09,5863.22
625200,1167.34,381.78,1.00,1,1,1,3608.64,-0.18,97223.84,3351.01,-0.18,40799.06,2856.93,-0.18,14700.24,2050.34,-0.15,55867.17,1192.52,-0.07,15110.44
639900,1212.19,373.51,1.00,1,1,1,3102.14,-0.18,34457.30,2956.32,-0.15,27848.56,2392.11,-0.18,31621.17,1361.39,-0.17,46986.63,822.89,-0.05,25168.97
653900,1251.25,369.22,1.00,1,1,1,2807.22,-0.11,26083.77,1602.59,-0.19,96863.07,1089.01,-0.26,93498.40,604.05,-0.32,54871.14,365.31,-0.03,32692.72
675000,1267.47,363.15,1.00,1,1,1,820.89,-0.36,95815.85,191.85,-1.69,75859.41,98.04,-1.72,51298.37,89.10,-2.27,30447.06,77.00,2.56,20512.23
703900,1250.15,359.69,1.00,1,1,1,611.29,-2.94,47701.01,1313.67,3.09,45504.01,868.36,3.11,29850.96,702.85,3.07,22650.13,500.00,2.98,14916.42
718000,1211.06,365.93,1.00,1,1,1,2807.84,2.98,159210.17,1730.00,3.00,31227.74,1719.55,3.03,60705.95,1438.48,3.01,52356.90,887.28,3.01,27492.04
754000,1164.38,372.17,1.00,2,2,2,1308.05,3.01,41683.23,2069.48,3.00,9433.75,2474.52,2.99,21131.63,2061.32,3.01,17301.36,1294.27,3.05,11366.57
768300,1107.97,380.39,1.00,2,2,2,3986.50,3.00,187313.94,3760.95,2.98,118352.14,2848.09,2.98,26221.26,2709.27,3.00,45361.96,1551.62,3.03,18057.04
783000,1056.70,389.53,1.00,2,2,2,3542.46,2.97,31266.03,4182.40,2.95,29599.52,3903.76,2.98,71818.72,3299.83,2.99,40202.63,1669.88,3.03,8059.61
797700,987.15,403.27,1.00,3,3,3,4822.71,2.95,87250.33,4018.50,2.98,13013.75,4127.86,2.98,15246.77,3336.86,2.99,2573.98,1820.26,3.03,10235.87
819100,913.56,413.08,1.00,1,1,1,3469.39,3.01,64357.80,4084.98,3.00,5070.09,4304.21,2.99,8788.20,3814.20,3.00,22383.12,1885.27,3.03,3038.43
833500,842.38,423.95,1.00,1,1,1,5000.28,2.99,106454.54,4662.43,3.01,40267.49,3934.00,3.00,25785.88,3364.92,3.01,31227.91,1942.03,3.02,4130.14
848000,779.95,430.52,1.00,1,1,1,4329.42,3.04,48631.75,3750.81,3.00,62910.82,3716.12,3.03,16308.48,2731.25,3.02,43750.05,1935.90,2.99,3275.59
863000,732.78,439.13,1.00,1,1,1,3196.66,2.96,77813.18,2783.88,3.05,65166.20,2605.92,3.05,74176.07,2239.81,3.04,32928.93,1867.39,2.99,4571.71
877300,698.74,438.11,1.00,1,1,1,2381.66,-3.11,69920.07,1668.95,3.13,79014.54,1438.26,3.07,81699.01,1683.13,3.05,38947.65,1872.12,3.00,487.29
898700,673.20,439.62,1.00,1,1,1,1195.37,3.08,55871.22,644.63,3.12,47868.25,838.36,-3.11,28521.52,1097.41,3.06,27395.02,1742.17,3.00,6072.90
926900,666.77,438.73,1.00,1,1,1,230.21,-3.00,34417.90,154.46,-2.76,17947.33,300.60,-3.07,19081.83,566.27,2.99,18933.68,1504.13,3.00,8448.52
941400,667.08,437.15,1.00,1,1,1,110.96,-1.37,18025.82,190.83,-0.36,22228.20,158.30,-0.27,31231.76,373.49,3.03,13349.54,1224.00,3.03,19470.02
962600,673.15,436.36,1.00,1,1,1,288.94,-0.13,12943.54,505.74,-0.05,15511.60,511.02,0.11,17416.24,280.32,2.95,4572.39,902.25,3.06,15267.97
977200,685.16,436.26,1.00,1,1,1,822.59,-0.01,36775.39,937.97,0.23,32319.82,232.93,0.55,21615.68,266.64,2.87,1704.84,539.64,3.09,24867.16
991500,699.57,442.45,1.00,1,1,1,1096.35,0.41,33335.13,358.92,2.12,77316.98,285.72,2.59,30938.26,273.32,2.86,569.79,160.36,-3.06,26674.21
1005600,679.84,444.95,1.00,1,1,1,1410.56,3.02,171642.92,1170.72,3.05,70889.93,782.22,2.87,36487.63,255.48,2.96,2251.79,208.96,-0.36,25569.73
1027700,657.35,446.17,1.00,1,1,1,1018.94,3.09,18146.41,1204.39,3.03,1921.06,900.73,3.04,8275.04,193.45,-3.09,3654.27,554.49,-0.14,15983.78
1041900,636.38,449.74,1.00,1,1,1,1498.05,2.97,35176.79,669.97,3.01,37649.85,585.33,-3.13,23000.20,38.27,-2.53,11440.37,893.03,-0.11,23899.16
1070000,629.24,449.75,1.00,1,1,1,254.17,3.14,44417.40,179.01,-2.49,19836.52,199.62,-2.49,15718.01,214.09,-0.47,8340.10,1180.49,-0.10,10231.09
1092000,629.27,444.28,1.00,1,1,1,248.89,-1.57,16227.44,397.80,-0.83,20421.84,508.31,-0.37,28892.00,708.72,-0.25,22843.55,1288.71,-0.09,5006.19
1120300,642.68,434.93,1.00,1,1,1,577.59,-0.61,16939.64,1232.26,-0.22,33048.65,1218.87,-0.23,25420.16,1355.96,-0.15,23098.81,1485.89,-0.08,6973.65
1134400,680.24,432.80,1.00,2,2,2,2668.28,-0.06,155852.39,2515.30,-0.10,92327.42,2127.04,-0.17,64754.66,1951.40,-0.13,42318.38,1565.12,-0.07,5807.66
1155500,730.81,426.42,1.00,2,2,2,2415.50,-0.13,14566.90,3195.88,-0.14,32845.60,3524.11,-0.09,66915.45,2627.21,-0.12,32034.53,1549.97,-0.09,1897.66
1170000,792.87,416.66,1.00,2,2,2,4332.38,-0.16,132375.26,4757.13,-0.09,108578.20,4062.05,-0.08,37155.02,2774.53,-0.10,11301.24,1634.34,-0.09,5827.33
1184300,867.26,414.07,1.00,3,3,3,5205.32,-0.03,73114.23,5159.57,-0.04,33056.31,4720.12,-0.08,46021.31,3340.11,-0.07,39853.25,1749.81,-0.09,8080.93
1198400,939.28,410.77,1.00,1,1,1,5113.34,-0.05,7672.32,4683.73,-0.08,35985.11,3427.41,-0.05,92113.96,3317.24,-0.06,3546.09,1768.57,-0.09,1331.31
1213400,1003.16,403.72,1.00,1,1,1,4284.55,-0.11,58762.94,2443.99,-0.07,149333.40,3191.54,-0.06,15741.74,3096.81,-0.06,14702.98,1739.45,-0.08,2063.01
1248400,1061.21,402.72,1.00,1,1,1,1658.93,-0.02,75349.50,2317.39,-0.03,4345.03,2716.94,-0.03,13739.24,2712.22,-0.04,11116.28,1750.62,-0.08,319.98
1263000,1118.05,400.21,1.00,1,1,1,3896.61,-0.04,153337.93,3192.57,0.02,60669.95,1999.42,-0.03,49145.13,2187.46,-0.04,35942.62,1749.15,-0.06,1970.13
1277500,1154.10,404.55,1.00,1,1,1,2504.20,0.12,102304.52,1560.16,-0.02,112759.44,1843.64,-0.02,10819.72,1573.19,-0.03,42398.25,1533.80,-0.06,14857.47
1298900,1174.05,399.00,1.00,1,1,1,967.48,-0.27,77175.88,743.23,-0.15,38726.28,954.85,0.02,41593.87,895.21,0.04,31919.04,1427.82,-0.05,4964.53
1312900,1180.11,400.59,1.00,1,1,1,447.77,0.26,44488.40,199.80,0.43,41899.00,159.67,0.00,56799.62,509.66,0.03,27550.00,1247.97,-0.03,13106.16
1327000,1179.15,401.34,1.00,1,1,1,86.56,2.48,35808.16,569.62,2.89,52194.18,610.12,2.87,54255.23,161.48,0.13,24790.22,903.78,-0.02,24416.59
1341500,1164.32,404.60,1.00,1,1,1,1047.09,2.93,66883.76,1216.44,2.95,44744.22,832.84,3.07,18191.11,26.17,3.10,12916.21,640.71,-0.01,18149.97
1362600,1136.60,409.42,1.00,1,1,1,1333.26,2.97,13780.55,1054.37,-3.14,12784.78,486.84,3.09,16411.07,102.45,2.89,3651.10,369.45,0.04,12899.46
1377100,1126.78,404.48,1.00,1,1,1,758.13,-2.68,58880.56,173.33,-0.96,80138.23,145.55,3.13,23549.28,94.58,2.74,1155.18,133.15,0.37,17070.23
1405700,1140.88,403.30,1.00,1,1,1,494.77,-0.08,42237.43,360.01,0.01,10449.82,245.70,-0.28,13560.89,123.88,2.83,1082.47,188.49,2.85,10653.60
1441100,1149.82,404.75,1.00,1,1,1,255.78,0.16,7181.11,354.11,-0.01,315.28,430.27,0.05,6034.75,108.36,2.93,553.74,390.33,3.06,5923.46
1455500,1158.52,403.03,1.00,1,1,1,615.39,-0.19,26800.61,589.93,0.10,16777.66,177.52,0.28,18083.51,87.85,-3.04,2525.86,557.70,3.04,11635.59
1469500,1166.49,406.42,1.00,1,1,1,618.88,0.40,25877.08,101.66,1.67,42718.29,74.44,2.43,16212.72,170.30,2.70,7523.75,699.90,3.08,10272.30
1506100,1158.03,408.15,1.00,2,2,2,235.97,2.94,22516.07,419.39,3.04,11248.38,473.10,3.01,11285.87,483.88,2.97,8823.02,839.07,3.09,3808.43
1520100,1145.38,408.60,1.00,2,2,2,904.00,3.11,48032.49,1296.41,-3.13,62911.37,792.30,2.98,22842.01,807.84,3.06,23470.51,885.21,3.10,3451.79
1534200,1121.60,407.91,1.00,2,2,2,1687.27,-3.11,55840.26,1328.40,2.95,18443.76,1505.16,3.05,50858.36,1011.97,3.06,14477.13,844.32,3.11,2945.14
1555400,1099.34,417.47,1.00,1,1,1,1143.06,2.74,38183.74,1678.40,2.99,16728.23,1736.03,3.09,11277.06,1281.98,3.10,12936.82,824.49,3.08,1618.85
1569700,1062.71,416.92,1.00,1,1,1,2561.85,-3.13,111080.05,2269.34,-3.10,49352.90,1551.51,3.07,13046.36,1746.68,3.11,32512.53,853.91,3.09,2268.93
1583800,1034.96,414.50,1.00,1,1,1,1975.62,-3.05,43146.63,1456.22,-3.13,57884.64,1827.15,-3.13,22036.57,1860.28,3.12,8096.65,807.14,3.11,3507.56
1612900,999.80,416.46,1.00,1,1,1,1210.01,3.09,27382.64,1577.61,3.13,4270.40,1946.10,-3.14,4142.73,1752.40,3.10,3778.94,635.86,3.12,5887.98
1633900,955.92,415.31,1.00,1,1,1,2090.13,-3.12,42369.66,2547.33,-3.14,46194.33,1961.49,3.13,1297.61,1655.29,3.13,4944.11,485.86,-3.12,7246.11
1648100,910.13,416.21,1.00,1,1,1,3225.15,3.12,80372.65,2629.31,3.14,5879.25,1999.81,3.13,2700.88,1284.18,-3.14,26240.28,331.92,-3.09,10870.63
1662700,880.20,415.55,1.00,1,1,1,2050.85,-3.12,80762.90,1340.33,3.11,88360.51,1449.88,3.08,38249.23,808.73,-3.12,32585.93,130.35,-2.91,14048.58
1677300,871.02,417.44,1.00,1,1,1,642.06,2.94,98081.46,526.33,2.83,58029.54,482.12,-3.13,66441.83,252.09,-2.89,38748.40,82.71,-0.65,13248.19
1698700,862.17,421.37,1.00,1,1,1,452.55,2.72,10387.52,228.44,-0.21,35231.91,349.59,-0.15,38742.31,436.05,-0.20,31404.75,298.46,-0.35,10318.68
1712800,878.94,415.73,1.00,1,1,1,1255.32,-0.32,121021.21,1082.72,-0.21,60587.09,1084.33,-0.11,52132.33,1066.13,-0.09,45044.13,552.92,-0.23,18419.16
1741500,907.45,411.55,1.00,2,2,2,1004.00,-0.15,11194.14,1692.93,-0.10,21915.83,1990.28,-0.12,31569.52,1376.28,-0.07,10821.50,776.50,-0.17,7881.62
1762800,963.16,407.21,1.00,2,2,2,2623.26,-0.08,76197.84,3089.53,-0.08,65605.74,2326.08,-0.07,16595.74,1656.00,-0.09,13208.89,973.02,-0.15,9265.93
1777100,1017.09,402.74,1.00,2,2,2,3784.07,-0.08,81182.92,3405.68,-0.04,23834.30,2318.01,-0.06,1208.05,1905.03,-0.11,17581.54,1120.66,-0.13,10461.36
1792200,1063.20,403.12,1.00,1,1,1,3054.15,0.01,52488.35,1773.88,-0.04,108066.94,2277.37,-0.08,4139.59,2008.04,-0.11,6841.25,1130.57,-0.12,946.40
1827500,1106.42,399.24,1.00,1,1,1,1229.24,-0.09,51973.73,1608.47,-0.13,6552.43,1833.66,-0.10,12631.23,2287.28,-0.11,7910.63,1067.01,-0.09,1986.05
1841500,1141.78,392.45,1.00,1,1,1,2571.72,-0.19,96733.07,1912.66,-0.17,22281.76,1757.42,-0.15,7914.49,2125.88,-0.11,11529.98,890.28,-0.09,12624.06
1870600,1187.61,384.95,1.00,1,1,1,1595.85,-0.16,33589.31,1903.70,-0.16,970.66,2259.00,-0.16,17245.70,1745.64,-0.11,13069.57,706.08,-0.08,6332.74
1891800,1236.31,377.17,1.00,1,1,1,2326.27,-0.16,34456.00,2682.52,-0.14,36788.21,1975.19,-0.14,13536.64,1188.50,-0.15,26385.96,396.28,-0.06,14623.13
1905900,1281.35,371.54,1.00,1,1,1,3219.12,-0.12,63663.17,2106.07,-0.10,41520.82,1616.65,-0.12,25474.90,710.17,-0.14,33927.64,68.08,-0.22,23346.50
1919800,1294.99,371.34,1.00,1,1,1,981.56,-0.01,161586.35,297.94,0.07,130435.63,296.21,-0.13,94995.75,12.63,0.15,50220.66,336.15,3.10,29017.87
1934300,1289.79,372.13,1.00,1,1,1,362.81,2.99,92546.51,1131.56,3.06,98387.49,1187.76,2.96,102317.49,743.11,2.97,52077.39,736.38,3.11,27601.94
1955300,1254.97,374.81,1.00,1,1,1,1662.95,3.06,61970.99,2366.26,2.99,59047.49,2356.28,3.00,55740.62,1636.89,3.01,42605.34,1021.57,3.10,13584.48
1969900,1206.58,385.26,1.00,2,2,2,3390.78,2.93,120381.03,3837.78,2.98,100790.44,2652.45,2.99,20322.96,2489.53,3.04,58570.98,1321.10,3.10,20515.83
1984700,1143.57,392.72,1.00,2,2,2,4287.19,3.02,65308.56,2888.97,3.00,64237.15,3200.60,3.01,37163.51,3039.88,3.05,37215.92,1501.22,3.10,12170.30
2013000,1083.31,402.80,1.00,2,2,2,2159.01,2.98,75376.74,2820.64,3.03,4011.38,3552.22,3.06,13987.69,3468.13,3.06,15217.66,1760.28,3.09,9157.63
2033800,1005.91,407.86,1.00,3,3,3,3729.13,3.08,76717.99,4367.82,3.11,75666.84,3612.19,3.08,3564.32,3536.10,3.06,3372.72,1743.95,3.09,860.44
2048600,927.87,407.04,1.00,1,1,1,5272.99,-3.13,106758.74,4965.99,3.12,40433.60,4484.74,3.11,59870.21,3155.35,3.08,26110.02,1805.98,3.08,4246.29
2062700,862.43,411.25,1.00,1,1,1,4650.81,3.08,51338.37,4631.32,3.11,23777.49,3953.04,3.11,37772.50,2872.20,3.10,20505.26,1806.08,3.07,1346.52
2077000,796.39,410.69,1.00,1,1,1,4618.17,-3.13,23659.26,3133.60,3.09,104889.99,2759.86,3.10,83467.26,2772.19,3.12,8747.64,1686.02,3.05,8741.40
2098400,750.70,416.74,1.00,1,1,1,2154.02,3.01,116981.75,1706.20,3.07,66736.62,2153.86,3.13,28620.30,1847.52,-3.13,43299.46,1657.28,3.04,1769.33
2127400,710.61,416.65,1.00,1,1,1,1382.38,-3.14,27774.14,1372.19,-3.07,13609.81,1404.53,-3.13,25858.90,1197.94,-3.12,22403.61,1536.79,3.04,4162.98
2142800,689.91,412.59,1.00,1,1,1,1369.44,-2.95,17095.43,929.80,-2.89,31863.48,432.02,-2.85,64693.94,710.24,-3.12,31669.35,1321.24,3.05,14000.91
2157100,683.89,409.65,1.00,1,1,1,468.45,-2.69,64675.22,451.93,-0.33,92947.63,371.91,-0.45,52430.39,289.78,2.95,30165.02,1094.03,3.05,15901.83
2193200,711.43,405.11,1.00,1,1,1,772.92,-0.16,32857.24,1066.83,-0.11,17559.18,731.06,-0.06,11464.27,138.39,2.58,4650.89,749.00,3.05,9557.37
2207600,737.43,403.61,1.00,1,1,1,1808.85,-0.06,72457.46,1248.74,0.11,22016.67,607.45,0.18,13999.26,119.86,1.10,12141.73,362.28,3.01,26905.44
2223100,748.52,409.33,1.00,1,1,1,805.33,0.48,76676.81,366.59,1.17,72051.26,383.27,0.92,26634.99,254.22,0.52,10791.65,19.66,0.55,24372.01
2258900,744.69,420.95,1.00,1,1,1,342.01,1.89,23019.62,541.33,2.31,14208.46,435.41,2.11,12875.53,448.49,0.32,5752.05,376.53,-0.02,10059.06
2273700,730.15,429.64,1.00,1,1,1,1144.45,2.60,61746.10,959.81,2.67,33323.47,415.40,2.35,7114.12,486.18,0.33,2581.66,727.51,-0.06,23762.07
2288500,719.38,433.85,1.00,1,1,1,781.50,2.77,26694.71,202.18,2.57,51278.20,229.08,0.99,29143.50,565.71,0.22,6631.02,1088.73,-0.05,24424.50
2302800,725.20,432.82,1.00,1,1,1,413.54,-0.18,83199.79,1146.88,-0.05,92754.75,740.99,-0.03,45512.98,748.54,0.04,15134.36,1311.57,-0.05,15585.24
2317000,752.01,432.07,1.00,1,1,1,1889.07,-0.03,104313.32,1482.45,-0.09,23826.06,1520.24,-0.12,55289.79,1210.29,-0.07,33457.39,1501.37,-0.04,13407.40
2338800,778.36,428.14,1.00,2,2,2,1221.97,-0.15,31715.51,1810.74,-0.15,15852.12,1801.69,-0.13,12919.64,1763.13,-0.11,25472.96,1621.11,-0.01,5687.89
2354000,818.22,421.81,1.00,2,2,2,2655.22,-0.16,94299.69,2065.62,-0.15,16771.12,1952.05,-0.14,10069.21,2261.59,-0.10,32804.45,1479.95,-0.01,9286.79
2382600,867.80,414.51,1.00,2,2,2,1752.32,-0.15,31581.52,2057.58,-0.14,1140.52,2608.85,-0.13,22993.88,2541.06,-0.11,9774.60,1496.38,-0.02,578.11
2403600,919.34,407.99,1.00,1,1,1,2473.57,-0.13,34403.76,3287.93,-0.11,58672.58,2886.83,-0.10,13923.50,2705.90,-0.10,7897.84,1623.88,-0.03,6216.47
2417700,982.51,401.80,1.00,1,1,1,4501.60,-0.10,143987.48,4356.03,-0.06,76882.31,3471.11,-0.09,41445.24,2803.58,-0.07,8448.67,1593.74,-0.05,3103.77
2431700,1041.51,400.47,1.00,1,1,1,4215.58,-0.02,31044.54,3698.96,-0.07,47022.49,3846.26,-0.07,27670.08,2352.55,-0.07,32245.25,1600.10,-0.08,2717.24
2446100,1087.29,394.29,1.00,1,1,1,3207.92,-0.13,75561.92,3359.11,-0.07,23602.67,3049.39,-0.02,56473.22,2336.60,-0.04,5035.94,1470.21,-0.09,9074.12
2461100,1140.02,393.52,1.00,1,1,1,3516.00,-0.01,33745.13,2554.05,0.04,57981.52,1829.33,-0.02,81339.95,2045.79,-0.01,19800.22,1337.18,-0.11,9097.20
2482700,1180.69,398.21,1.00,1,1,1,1894.97,0.11,76623.25,927.94,0.08,75332.80,1434.96,0.07,19564.50,1444.15,0.01,27895.50,1211.10,-0.13,6037.13
2510600,1185.81,397.21,1.00,1,1,1,187.11,-0.19,61563.23,469.78,0.21,16701.13,843.41,0.17,21529.30,999.76,-0.02,15987.73,957.62,-0.18,9245.87
2524900,1200.08,402.32,1.00,1,1,1,1060.15,0.34,63255.48,738.33,0.32,19294.73,320.35,0.20,36599.23,610.87,-0.02,27195.34,729.98,-0.23,16178.33
2546000,1210.65,405.35,1.00,1,1,1,520.88,0.28,25663.45,194.52,0.18,25883.74,163.83,-0.01,7774.02,225.63,-0.19,18508.60,431.58,-0.37,14674.19
2575000,1209.66,404.10,1.00,1,1,1,54.72,-2.24,19525.08,340.56,-2.54,18072.18,108.93,-1.94,7807.45,191.95,-2.45,13030.21,157.89,-1.32,12472.26
2588900,1198.63,397.03,1.00,1,1,1,942.47,-2.57,64093.04,364.98,-2.42,3376.85,399.24,-2.59,22931.73,436.29,-2.71,18392.47,321.52,-2.65,23238.11
2624300,1196.13,392.24,1.00,1,1,1,152.56,-2.05,22977.08,450.72,-2.62,3311.56,774.38,-2.68,10706.08,726.77,-2.82,8370.46,573.26,-2.91,7783.37
2638400,1179.30,385.90,1.00,1,1,1,1275.63,-2.78,82703.07,1507.66,-2.79,75626.39,970.33,-2.78,15054.45,1118.68,-2.88,28148.10,780.47,-2.97,14946.71
2653000,1155.49,377.38,1.00,2,2,2,1731.85,-2.80,31295.02,1685.38,-2.83,13073.58,1724.82,-2.89,52604.50,1542.94,-2.92,29242.86,981.18,-2.98,13784.20
2674900,1120.65,367.32,1.00,2,2,2,1655.72,-2.86,5938.26,1902.24,-2.95,13586.86,2166.45,-2.96,21170.23,1708.87,-2.97,8330.67,1044.62,-3.01,3086.82
2690000,1086.41,363.88,1.00,2,2,2,2278.98,-3.04,47392.34,2804.13,-3.06,62021.05,2502.50,-3.01,23430.08,2186.32,-3.00,31967.01,1062.59,-3.00,1432.60
2703800,1039.90,360.54,1.00,3,3,3,3379.33,-3.07,79937.85,3306.69,-3.06,36421.42,2843.06,-3.06,26861.68,2000.72,-3.02,13560.30,1080.61,-3.00,1328.66
2717900,994.50,355.94,1.00,1,1,1,3236.31,-3.04,12252.95,2881.83,-3.07,30301.94,2681.46,-3.08,11973.26,1948.74,-3.04,5209.17,1093.53,-3.00,926.86
2732900,956.25,354.55,1.00,1,1,1,2551.52,-3.11,47297.99,2197.50,-3.11,46176.96,1868.59,-3.07,54225.90,1770.20,-3.09,13207.79,970.33,-3.03,8446.07
2753800,915.64,353.65,1.00,1,1,1,1943.52,-3.12,29131.60,1276.52,-3.07,44215.82,1497.67,-3.09,17815.87,1472.92,-3.10,14239.53,991.28,-3.06,1762.20
2782700,892.86,349.82,1.00,1,1,1,799.49,-2.97,40073.22,919.05,-3.04,12410.64,1041.54,-3.13,15910.53,1055.75,-3.13,14507.35,899.02,-3.10,3446.57
2797100,876.05,349.62,1.00,1,1,1,1167.10,-3.13,27558.62,725.32,2.98,20043.51,494.61,3.12,38013.32,658.99,3.11,27658.68,859.92,-3.13,3485.58
2818100,867.51,353.95,1.00,1,1,1,455.68,2.67,37691.51,142.07,1.44,35018.51,154.01,1.96,21690.24,279.61,2.92,18491.37,731.39,3.07,6823.31
2832500,876.73,354.61,1.00,1,1,1,641.47,0.07,73508.69,778.95,0.23,51438.72,406.91,0.36,30436.67,92.58,1.80,17557.77,614.50,3.03,8355.12
2846600,889.15,358.93,1.00,1,1,1,932.71,0.34,25194.14,843.81,0.18,5358.02,755.69,0.20,25520.35,150.55,1.22,6338.75,497.65,2.98,8534.87
2860900,900.31,358.87,1.00,1,1,1,780.65,-0.01,22877.22,737.66,0.19,7432.97,479.12,0.36,20379.88,174.17,1.06,2399.89,389.68,2.84,8662.39
2882800,915.39,363.87,1.00,1,1,1,725.47,0.32,11436.08,294.85,0.65,22422.33,185.65,0.86,15003.72,219.35,0.90,2542.76,296.27,2.71,4706.93
2911700,912.28,367.88,1.00,1,1,1,175.46,2.23,27726.40,257.83,2.56,15627.87,187.55,2.15,7771.48,190.37,1.17,2176.68,205.30,2.46,3800.40
2947800,901.43,373.15,1.00,2,2,2,334.05,2.69,5343.90,465.92,2.84,6394.77,292.36,2.47,3556.05,160.72,1.84,3264.61,174.79,2.18,1675.45
2961800,889.96,374.71,1.00,1,1,1,827.10,3.01,37159.90,349.22,2.37,15969.40,287.66,2.46,388.06,239.98,2.21,7730.80,151.66,1.94,3322.33
2989700,890.97,383.38,1.00,1,1,1,312.87,1.45,31496.26,227.07,1.57,8979.26,307.05,2.54,1109.99,319.91,2.55,4417.59,127.57,1.80,1094.82
3011700,889.97,386.04,1.00,1,1,1,129.19,1.93,9393.80,273.40,2.79,13175.33,308.01,2.26,3840.43,342.66,2.63,1512.20,134.08,1.98,1134.21
3026300,881.57,386.80,1.00,1,1,1,578.02,3.05,36624.51,594.09,2.70,22114.00,369.35,2.67,10157.31,312.65,2.66,2182.48,143.25,2.17,1834.68
3040600,874.45,393.39,1.00,1,1,1,677.81,2.40,29060.05,497.77,2.58,8176.13,453.98,2.81,7280.53,250.08,2.60,4541.21,163.91,2.16,1449.37
3054700,869.62,394.36,1.00,1,1,1,349.65,2.94,29840.36,322.56,3.03,17858.79,325.38,2.80,9130.78,237.46,2.85,4492.61,181.71,2.14,1282.55
3068900,865.38,394.37,1.00,1,1,1,298.72,3.14,5701.59,216.43,-3.07,8179.59,235.30,-3.13,9376.15,221.86,2.88,1202.84,189.97,1.68,5914.29
3090500,861.89,393.81,1.00,1,1,1,163.52,-2.98,6476.53,170.76,-2.94,2402.59,144.80,-3.03,4278.94,147.67,2.63,4042.31,280.25,1.11,7313.35
3104500,859.42,393.18,1.00,1,1,1,182.38,-2.89,1775.19,84.91,-2.93,6132.93,70.44,-3.10,5338.19,70.46,1.90,7563.13,250.08,2.60,25648.53
3132900,858.37,393.05,1.00,1,1,1,37.11,-3.02,5130.30,18.98,1.63,3161.30,45.74,1.18,3476.11,163.32,0.87,4967.10,237.46,2.85,2230.49
3154400,859.36,394.12,1.00,1,1,1,67.73,0.82,4601.40,177.43,0.70,7761.52,194.91,0.69,7262.73,341.73,0.66,8597.36,221.86,2.88,794.43
3168700,863.25,397.12,1.00,1,1,1,343.45,0.66,19362.13,519.65,0.64,23965.45,503.56,0.63,21625.24,637.27,0.60,20771.92,147.67,2.63,6105.86
3182700,871.19,402.85,1.00,1,1,1,699.76,0.62,25477.28,909.60,0.61,27882.16,874.90,0.60,26556.09,194.91,0.69,31678.32,70.46,1.90,7563.13
3197500,884.72,412.13,1.00,1,1,1,1108.22,0.60,27633.11,1155.30,0.59,16681.80,1373.10,0.58,33709.63,503.56,0.63,20894.66,163.32,0.87,9531.47
3218600,905.74,425.81,1.00,1,1,1,1188.47,0.58,4034.16,1756.24,0.56,28534.29,1155.30,0.59,10343.66,874.90,0.60,17620.16,341.73,0.66,8760.34
3232400,936.63,444.72,1.00,1,1,1,2624.74,0.55,104136.77,2624.74,0.55,62959.48,1756.24,0.56,43628.51,1373.10,0.58,36152.36,637.27,0.60,21524.52
