@RELATION gaze_labels

%@METADATA width_px 1920
%@METADATA height_px 1080
%@METADATA width_mm 540.00
%@METADATA height_mm 254.00
%@METADATA distance_mm 620.00


@ATTRIBUTE time INTEGER
@ATTRIBUTE x NUMERIC
@ATTRIBUTE y NUMERIC
@ATTRIBUTE confidence NUMERIC
@ATTRIBUTE handlabeller1 INTEGER
@ATTRIBUTE handlabeller2 INTEGER
@ATTRIBUTE handlabeller_final INTEGER
@ATTRIBUTE speed_1 numeric
@ATTRIBUTE direction_1 numeric
@ATTRIBUTE acceleration_1 numeric
@ATTRIBUTE speed_2 numeric
@ATTRIBUTE direction_2 numeric
@ATTRIBUTE acceleration_2 numeric
@ATTRIBUTE speed_4 numeric
@ATTRIBUTE direction_4 numeric
@ATTRIBUTE acceleration_4 numeric
@ATTRIBUTE speed_8 numeric
@ATTRIBUTE direction_8 numeric
@ATTRIBUTE acceleration_8 numeric
@ATTRIBUTE speed_16 numeric
@ATTRIBUTE direction_16 numeric
@ATTRIBUTE acceleration_16 numeric

%The number after speed, direction denotes the step size that was used for the calculation.
%Acceleration was calculated between two adjacent samples of the already low pass filtered velocity

@DATA
0,312.69,423.09,1.00,1,1,1,0.00,0.00,0.00,2377.97,2.84,0.00,1094.23,2.76,0.00,320.33,2.48,0.00,437.26,2.77,0.00
14100,280.70,433.12,1.00,1,1,1,2377.97,2.84,168650.64,1094.23,2.76,91458.97,135.88,0.92,80758.48,179.01,0.38,31073.45,365.74,2.77,5075.70
35200,276.92,437.36,1.00,1,1,1,269.40,2.30,101958.43,135.88,0.92,53966.57,320.33,2.48,16436.84,135.93,0.29,2146.52,494.21,2.81,6126.41
63800,284.81,438.47,1.00,2,2,2,278.69,0.14,16895.63,378.47,0.07,10698.63,179.01,0.38,15319.43,200.89,2.79,11191.48,660.35,2.80,5810.14
77900,293.04,438.47,1.00,1,1,1,583.68,-0.00,21998.85,283.69,0.03,6771.63,135.93,0.29,3212.17,437.26,2.77,16771.77,613.79,2.66,6924.48
99000,294.79,438.80,1.00,1,1,1,84.48,0.19,23742.87,177.38,2.82,21531.38,200.89,2.79,15169.50,365.74,2.77,3391.82,528.67,2.41,8026.18
113300,287.08,440.44,1.00,1,1,1,551.31,2.93,44057.81,587.08,2.94,28770.97,562.39,2.91,25446.49,494.21,2.81,9039.66,371.70,1.59,26939.91
142000,270.06,443.89,1.00,1,1,1,604.92,2.94,1875.95,836.68,2.93,8701.12,831.47,2.91,9376.52,660.35,2.80,5789.90,639.44,0.64,18129.20
163100,246.36,449.30,1.00,1,1,1,1152.06,2.92,25948.78,1046.29,2.89,10050.09,1009.29,2.87,8564.36,613.79,2.66,4627.26,420.92,0.67,10390.23
191000,220.37,456.50,1.00,1,1,1,966.79,2.87,6863.35,1215.62,2.83,6599.56,1087.07,2.80,3872.80,528.67,2.41,6069.98,705.08,0.31,12391.19
205300,197.55,465.08,1.00,1,1,1,1704.69,2.78,52220.07,1157.64,2.69,12519.31,706.24,2.45,34294.70,371.70,1.59,26939.91,991.42,0.21,20891.40
226200,183.78,474.44,1.00,1,1,1,796.60,2.55,45401.71,580.09,1.23,59133.02,623.77,1.23,36512.07,639.44,0.64,24895.13,1212.44,0.14,11129.00
240400,204.43,484.25,1.00,1,1,1,1609.91,0.44,149793.93,1873.81,0.37,109483.26,1481.91,0.36,83142.75,1240.08,0.31,46996.79,1291.92,0.13,5796.94
254800,233.67,494.02,1.00,1,1,1,2140.75,0.32,40045.26,2891.27,0.17,77897.73,2577.43,0.16,80794.97,2102.08,0.16,62293.82,1410.53,0.12,8282.85
269000,285.91,498.30,1.00,2,2,2,3691.83,0.08,119108.54,3202.61,0.06,32801.55,3287.01,0.09,51935.02,2896.62,0.09,57173.45,1456.95,0.12,3351.62
289900,345.90,500.40,1.00,2,2,2,2871.69,0.03,39913.96,3623.17,0.04,20380.92,3946.77,0.02,33841.18,3510.14,0.03,30712.82,1589.14,0.11,6428.96
304000,412.64,502.99,1.00,2,2,2,4737.08,0.04,132300.64,4865.14,-0.01,89262.86,4377.55,0.00,31004.17,3365.26,0.01,11823.59,1688.72,0.09,7308.68
318500,485.03,498.78,1.00,1,1,1,5000.89,-0.06,37221.09,5296.32,-0.03,30330.90,4463.53,-0.04,14076.66,3359.18,-0.01,4823.37,1861.10,0.07,12094.52
332900,565.64,498.60,1.00,1,1,1,5597.92,-0.00,46238.79,4146.79,-0.07,80853.52,3444.14,-0.06,70905.17,2961.45,-0.01,27655.31,1946.12,0.07,5930.51
354400,633.55,488.65,1.00,1,1,1,3192.53,-0.15,115358.75,2376.11,-0.09,82420.31,2888.84,-0.05,25848.73,2683.25,-0.02,13014.53,2085.56,0.05,6768.00
382900,683.96,487.90,1.00,1,1,1,1768.89,-0.02,51119.65,1842.95,-0.01,19575.42,1902.14,-0.02,34698.55,2176.85,-0.03,17807.61,2273.74,0.04,6667.53
397500,712.98,487.73,1.00,1,1,1,1987.59,-0.01,15025.50,1262.80,0.17,43863.37,1226.32,0.05,46909.52,1660.34,-0.02,35397.15,2259.75,0.03,1531.57
418300,728.05,495.30,1.00,1,1,1,810.71,0.47,63355.41,503.09,0.34,37132.25,626.64,0.13,29029.66,1138.29,0.02,25275.26,2330.17,0.02,3706.03
433000,729.81,493.70,1.00,1,1,1,161.73,-0.74,52195.44,165.54,-2.69,45432.27,168.56,0.56,32567.76,924.75,0.10,15532.38,2388.12,0.01,4137.75
447000,723.77,493.22,1.00,1,1,1,432.47,-3.06,39711.88,273.76,-3.11,10032.51,167.69,0.73,1962.37,1188.39,0.12,18874.74,2381.43,0.00,1060.92
461300,722.07,493.48,1.00,1,1,1,120.86,2.99,22098.25,432.09,0.64,47161.29,627.19,0.20,34258.03,1311.43,0.12,8611.16,2267.02,0.01,8055.25
482700,736.11,502.48,1.00,1,1,1,779.53,0.57,40840.83,1133.19,0.18,36114.31,1647.17,0.11,47828.26,1732.79,0.05,20325.91,2141.73,0.02,5971.87
511500,778.08,503.38,1.00,2,2,2,1457.73,0.02,30927.38,2716.22,0.05,55516.02,2049.95,0.10,14013.90,2123.59,0.04,13607.48,2031.88,0.03,3945.50
525500,852.24,507.94,1.00,2,2,2,5306.64,0.06,275036.55,2974.78,0.07,19128.22,2844.31,0.03,58190.39,2567.91,0.03,31768.14,1960.81,0.04,5229.06
561500,926.44,514.02,1.00,1,1,1,2068.15,0.08,89977.37,2954.72,0.01,5243.15,3597.71,0.01,20983.57,2791.46,0.02,6217.83,1760.46,0.05,5572.74
575600,1000.26,509.16,1.00,1,1,1,5246.82,-0.07,228045.10,4649.48,-0.06,121496.24,3480.32,-0.01,9880.01,3091.90,0.02,21335.68,1712.84,0.04,3660.02
591700,1066.61,505.70,1.00,1,1,1,4126.54,-0.05,69694.03,4363.42,-0.04,18786.28,3946.11,-0.04,29518.81,3247.90,0.01,9765.18,1602.52,0.03,6884.71
605500,1130.64,504.28,1.00,1,1,1,4640.82,-0.02,38446.66,3342.80,-0.01,74242.46,3444.38,0.01,38495.17,2728.01,0.01,37677.93,1642.94,0.04,3317.31
626800,1183.93,504.07,1.00,1,1,1,2502.06,-0.00,100454.04,2677.45,0.07,33501.70,2804.08,0.02,30086.32,2334.91,-0.01,18537.07,1721.75,0.06,4046.42
640900,1225.17,511.13,1.00,1,1,1,2967.41,0.17,47012.89,2137.13,0.08,38333.27,1798.43,0.06,71665.77,1689.28,0.02,45906.19,1749.74,0.07,2413.98
654900,1243.80,508.75,1.00,1,1,1,1341.46,-0.13,123524.96,730.21,0.01,100668.59,722.68,0.17,77394.59,1022.77,0.01,47607.96,1650.98,0.10,7938.14
670000,1246.42,511.38,1.00,1,1,1,245.49,0.79,79948.01,389.38,2.90,73592.23,81.97,2.79,52628.92,668.50,0.11,23976.40,1301.85,0.14,23380.82
691500,1229.98,512.21,1.00,1,1,1,765.82,3.09,44088.56,734.43,3.08,16693.66,395.12,-3.11,14899.42,502.81,0.33,9736.67,940.86,0.18,16942.10
705800,1220.17,512.95,1.00,1,1,1,687.38,3.07,5632.14,421.93,-2.90,24783.55,190.18,2.93,15055.17,331.53,0.70,16036.20,464.85,0.41,34864.68
734300,1212.44,507.89,1.00,1,1,1,324.31,-2.56,16613.45,210.17,0.18,22169.86,339.92,0.59,17225.10,309.21,1.45,8279.59,178.44,1.97,17422.06
755700,1230.49,514.83,1.00,1,1,1,903.74,0.37,57134.13,1242.11,0.45,48654.28,644.35,0.61,14229.47,379.21,2.02,9492.94,569.86,2.85,22271.09
769700,1251.99,527.10,1.00,1,1,1,1768.25,0.52,63246.34,1460.50,0.72,29789.33,904.71,0.89,23947.26,494.88,2.38,13847.08,1031.16,2.99,33804.36
783700,1261.32,541.70,1.00,1,1,1,1237.29,1.00,63201.80,904.00,1.69,86220.26,803.15,1.73,50581.56,793.35,2.72,26111.92,1358.46,3.06,24119.78
798300,1249.00,552.79,1.00,1,1,1,1135.12,2.41,105238.66,1449.95,2.69,84163.48,1246.33,2.71,70853.68,1197.99,2.88,29708.18,1588.52,3.08,15880.95
813100,1222.97,560.31,1.00,1,1,1,1830.93,2.86,64110.45,1956.59,3.02,51046.00,2237.22,3.02,75533.26,1836.57,3.00,44850.01,1745.94,3.11,11078.96
834400,1178.85,561.07,1.00,2,2,2,2071.38,3.12,26607.15,2974.32,-3.14,49791.01,2550.88,-3.14,20260.31,2515.32,3.08,32929.71,1831.53,3.13,4277.41
848800,1116.79,559.66,1.00,2,2,2,4311.36,-3.12,155774.50,3064.94,-3.08,13555.05,2951.06,-3.11,28478.11,2811.18,3.14,22833.48,1822.26,3.14,1616.94
877600,1046.72,552.68,1.00,2,2,2,2445.09,-3.04,65372.44,2935.76,-3.09,4621.26,3650.73,-3.10,24323.86,2997.92,-3.11,7326.43,1855.15,3.12,1502.99
898700,970.50,551.94,1.00,1,1,1,3612.45,-3.13,56742.86,4366.94,-3.11,67970.31,3231.88,-3.09,19896.36,3129.31,-3.08,7738.50,1853.75,3.13,621.22
913000,892.18,548.53,1.00,1,1,1,5481.76,-3.10,131142.35,3579.55,-3.09,55473.43,3414.08,-3.09,12782.49,3180.05,-3.06,5623.75,1835.63,3.13,1289.50
941200,818.57,544.14,1.00,1,1,1,2615.14,-3.08,101675.91,2742.22,-3.07,29773.03,3325.95,-3.06,5544.39,2832.24,-3.04,12500.99,1769.25,3.12,2367.78
963100,755.14,538.79,1.00,1,1,1,2906.33,-3.06,13653.25,3032.62,-3.01,15662.65,2715.51,-3.01,28469.41,2560.66,-3.05,12424.37,1732.86,3.13,1675.06
977200,710.37,529.53,1.00,1,1,1,3242.33,-2.94,35325.32,2690.65,-2.91,31108.00,2282.71,-2.95,32753.85,1900.24,-3.03,46918.83,1684.10,3.13,3468.49
991700,680.22,521.22,1.00,1,1,1,2156.90,-2.87,75792.16,1388.01,-2.79,91246.31,1337.49,-2.88,65713.27,1168.47,-3.06,50558.03,1622.03,3.12,4311.30
1006600,672.04,515.53,1.00,1,1,1,668.78,-2.53,103509.49,91.98,-1.81,89852.97,224.84,-2.59,75436.93,632.02,3.06,37226.14,1401.53,3.12,14798.86
1021600,679.56,518.55,1.00,1,1,1,540.25,0.38,80094.84,725.05,0.24,51454.24,701.05,0.30,61369.92,329.69,2.65,23696.94,1089.05,3.10,20926.10
1043100,697.77,521.75,1.00,1,1,1,859.67,0.17,16255.05,1329.77,0.35,28613.06,844.87,0.58,11823.69,267.65,1.76,12148.36,770.93,3.13,14845.81
1057300,724.12,534.93,1.00,1,1,1,2075.15,0.46,89812.92,1005.97,0.78,41723.02,635.13,0.90,22436.25,345.25,1.38,9898.08,391.19,3.12,26743.30
1085300,727.81,551.74,1.00,1,1,1,614.63,1.35,62680.52,570.75,1.96,33777.94,584.98,1.46,12018.43,393.06,1.16,3337.14,5.99,-1.40,14013.88
1107500,713.27,561.45,1.00,1,1,1,787.46,2.55,36185.11,804.47,2.57,21284.28,623.94,2.34,23382.78,353.11,0.98,3434.92,378.60,-0.05,16995.76
1121900,702.97,567.55,1.00,1,1,1,831.43,2.61,4316.26,877.07,2.79,13433.43,564.12,2.71,15445.89,334.03,0.69,7106.08,702.16,-0.03,22489.27
1135900,689.90,570.06,1.00,1,1,1,950.71,2.95,23398.66,294.10,-3.09,44101.32,70.18,1.86,37147.31,333.00,0.31,8972.59,916.03,-0.04,15309.22
1150000,694.71,567.13,1.00,1,1,1,399.69,-0.55,94513.52,444.60,-0.15,52130.58,479.12,-0.34,37143.82,634.30,-0.10,25177.69,1044.67,-0.06,9212.85
1185500,711.69,566.69,1.00,1,1,1,478.37,-0.03,6703.88,903.40,-0.27,13093.03,1093.11,-0.22,17459.45,1005.92,-0.18,10620.46,1113.17,-0.08,1974.40
1200000,738.24,555.05,1.00,2,2,2,1999.17,-0.41,108046.37,2189.66,-0.25,88736.54,1590.22,-0.20,34371.85,1419.10,-0.20,28519.27,1122.64,-0.10,1704.07
1214900,774.11,550.92,1.00,2,2,2,2423.13,-0.11,52380.19,2756.96,-0.16,41004.45,2021.39,-0.21,28996.57,1660.09,-0.22,16305.77,1029.45,-0.15,7254.38
1229600,818.86,542.44,1.00,2,2,2,3098.96,-0.19,47934.57,1924.60,-0.19,56855.17,2344.97,-0.17,23000.54,1792.81,-0.23,9120.21,1025.00,-0.21,4478.11
1265300,869.40,532.81,1.00,3,3,3,1441.04,-0.19,46440.33,2102.24,-0.18,5024.47,2136.13,-0.21,6513.48,2108.00,-0.23,8828.93,1047.41,-0.24,1107.38
1279800,922.78,524.02,1.00,3,3,3,3730.72,-0.16,157960.18,2381.37,-0.24,21331.28,1954.22,-0.25,13421.41,2013.58,-0.21,6835.09,1033.89,-0.26,1677.97
1309000,970.60,508.57,1.00,1,1,1,1721.23,-0.31,70022.83,1817.78,-0.33,20398.11,2196.07,-0.24,8288.95,1733.39,-0.23,9648.08,1044.69,-0.26,371.72
1330100,1009.34,494.59,1.00,1,1,1,1952.03,-0.35,11331.33,1966.19,-0.25,9817.96,1683.60,-0.28,24506.10,1372.81,-0.26,17204.21,1001.46,-0.25,2130.30
1344200,1037.64,491.37,1.00,1,1,1,2019.78,-0.11,33100.92,1459.06,-0.17,37395.29,1199.33,-0.27,34364.99,1097.37,-0.30,19993.67,997.02,-0.25,395.14
1358500,1050.21,487.74,1.00,1,1,1,914.97,-0.28,78878.00,442.21,-0.33,71704.77,457.95,-0.32,51912.90,620.78,-0.43,34111.21,955.06,-0.21,4009.14
1379800,1052.53,486.26,1.00,1,1,1,129.22,-0.57,37179.06,375.87,-2.97,37211.45,301.84,-2.85,34097.03,239.76,-0.70,18524.07,878.30,-0.19,3641.39
1393900,1037.10,485.47,1.00,1,1,1,1095.73,-3.09,85337.10,1172.68,-3.13,56996.04,727.28,-3.13,31529.27,122.31,-2.92,23290.13,769.07,-0.17,7836.49
1408300,1019.11,485.79,1.00,1,1,1,1249.41,3.12,12061.59,1165.47,3.10,4821.82,1013.44,3.10,20191.22,238.57,3.08,8774.38,612.01,-0.16,10923.82
1422800,1003.45,486.98,1.00,1,1,1,1083.08,3.07,12384.75,861.96,3.02,21577.74,673.07,3.01,23973.74,213.82,2.86,3742.01,255.11,-0.22,24663.80
1437400,994.21,488.82,1.00,1,1,1,645.23,2.95,30758.77,287.95,2.73,40523.83,219.98,2.68,32251.11,123.77,2.35,8350.75,239.76,-0.70,8100.81
1458400,994.05,491.07,1.00,1,1,1,107.55,1.64,29785.00,210.33,0.47,21527.89,246.42,0.49,19737.09,154.09,0.82,9229.96,122.31,-2.92,15637.66
1487300,1003.57,493.57,1.00,1,1,1,340.58,0.26,11687.77,620.78,0.19,14624.57,545.28,0.22,10906.67,211.99,0.66,2233.79,238.57,3.08,4372.01
1502100,1020.69,496.19,1.00,1,1,1,1170.25,0.15,56236.40,1020.17,0.14,27094.65,746.30,0.18,13670.52,160.01,1.98,15620.74,213.82,2.86,3666.16
1523400,1040.01,498.88,1.00,1,1,1,915.93,0.14,11958.63,900.87,0.17,5735.23,626.52,0.27,6355.36,545.28,0.22,28016.76,123.77,2.35,5723.99
1537600,1052.20,501.67,1.00,1,1,1,880.29,0.22,6021.77,224.35,1.05,54731.10,446.49,2.72,71131.07,746.30,0.18,14248.14,154.09,0.82,13649.94
1553200,1043.34,504.68,1.00,1,1,1,600.22,2.81,91434.40,1981.52,3.03,133380.52,224.35,1.05,33209.41,626.52,0.27,8677.51,211.99,0.66,4138.24
1567000,994.31,508.17,1.00,1,1,1,3561.73,3.07,216310.83,3561.73,3.07,114777.17,1981.52,3.03,150777.98,446.49,2.72,73192.84,160.01,1.98,16752.68
