%@metadata width_px 1920.0
%@metadata height_px 1080.0
%@metadata width_mm 540.0
%@metadata height_mm 254.0
%@metadata distance_mm 620.0
% The number after speed, direction denotes the step size that was used for the calculation.
% Acceleration was calculated between two adjacent samples of the already low pass filtered velocity
@RELATION gaze_labels

@ATTRIBUTE time INTEGER
@ATTRIBUTE x NUMERIC
@ATTRIBUTE y NUMERIC
@ATTRIBUTE confidence NUMERIC
@ATTRIBUTE handlabeller_final INTEGER
@ATTRIBUTE EYE_MOVEMENT_TYPE {UNKNOWN, FIX, SACCADE, SP, NOISE, BLINK, NOISE_CLUSTER, PSO}

@DATA
0,421.55,808.46,1.0,1,FIX
15100,376.59,731.03,1.0,1,FIX
29100,424.49,758.36,1.0,1,FIX
52400,417.84,759.49,1.0,1,FIX
66300,405.36,717.85,1.0,1,FIX
80900,392.75,767.62,1.0,1,FIX
95800,427.32,761.12,1.0,1,FIX
110900,441.62,767.47,1.0,1,FIX
141000,452.28,793.85,1.0,1,FIX
163400,460.16,787.19,1.0,1,FIX
178100,439.6,771.68,1.0,1,FIX
192600,422.9,757.95,1.0,1,SACCADE
207700,387.97,758.32,1.0,2,SACCADE
222200,368.53,747.64,1.0,2,SP
237500,498.54,857.91,1.0,2,FIX
275400,938.23,955.46,1.0,1,FIX
290100,938.71,901.76,1.0,1,FIX
320900,953.7,951.73,1.0,1,FIX
335800,949.27,903.9,1.0,1,FIX
350900,992.56,939.56,1.0,1,FIX
365800,982.0,918.47,1.0,1,FIX
387500,915.49,860.68,1.0,1,FIX
402500,931.96,910.72,1.0,2,SACCADE
417500,905.33,885.04,1.0,2,SACCADE
432000,922.38,889.32,1.0,2,SACCADE
447000,1020.02,913.05,1.0,3,SP
462400,1148.48,754.4,1.0,1,FIX
477700,1249.76,743.23,1.0,1,FIX
499400,1249.87,730.04,1.0,1,FIX
513700,1249.96,655.82,1.0,1,FIX
528600,1284.21,691.31,1.0,1,FIX
543700,1265.34,681.55,1.0,1,FIX
559000,1198.74,641.0,1.0,1,FIX
588900,1210.91,651.47,1.0,1,FIX
610700,1237.51,632.3,1.0,1,FIX
640800,1241.96,639.26,1.0,1,FIX
655200,1241.6,743.49,1.0,2,FIX
670900,1216.74,658.91,1.0,2,SACCADE
701000,1222.5,650.32,1.0,3,SACCADE
723000,1235.79,600.2,1.0,1,FIX
738100,1332.64,607.74,1.0,1,FIX
753200,1334.45,621.2,1.0,1,FIX
768200,1316.91,631.73,1.0,1,FIX
782300,1342.24,659.78,1.0,1,FIX
797100,1352.34,678.95,1.0,1,FIX
819800,1280.71,609.81,1.0,1,FIX
834800,1316.39,607.75,1.0,1,FIX
850100,1327.23,581.16,1.0,1,FIX
865300,1352.02,615.36,1.0,1,FIX
881000,1338.54,621.37,1.0,1,FIX
896000,1333.8,599.82,1.0,1,FIX
911200,1364.56,673.57,1.0,1,FIX
926200,1336.68,635.07,1.0,2,FIX
941700,1372.81,606.78,1.0,2,FIX
956900,1370.82,610.84,1.0,3,FIX
978500,1352.25,619.89,1.0,1,FIX
993300,1377.29,630.98,1.0,1,FIX
1023400,1341.39,572.2,1.0,1,FIX
1038400,1356.62,575.22,1.0,4,FIX
1075700,1373.5,591.47,1.0,4,FIX
1090000,1385.0,555.74,1.0,4,FIX
1105100,1381.68,592.16,1.0,4,SACCADE
1119100,1346.06,520.49,1.0,4,SACCADE
1134100,1363.43,636.4,1.0,4,SACCADE
1155700,1514.91,637.64,1.0,4,SP
1169900,1828.63,656.07,1.0,4,FIX
1184400,1901.53,687.39,1.0,4,NOISE
1198500,1931.37,627.25,1.0,4,SACCADE
1213300,1886.45,665.66,1.0,4,SACCADE
1235900,1841.25,715.7,1.0,4,SACCADE
1249900,1721.67,750.47,1.0,4,NOISE
1265100,1418.27,756.54,1.0,4,NOISE
1279100,1307.13,775.47,1.0,4,NOISE
1294300,1175.26,750.5,1.0,4,NOISE
1308600,1252.7,711.34,1.0,4,NOISE
1330700,1173.96,802.87,1.0,4,NOISE
1359200,1056.02,834.37,1.0,1,FIX
1388900,1036.77,898.47,1.0,1,FIX
1411000,1062.55,935.22,1.0,1,FIX
1425600,1047.59,943.14,1.0,1,FIX
1455200,1018.93,931.14,1.0,2,FIX
1470700,1038.15,930.83,1.0,3,FIX
1485200,1050.12,900.23,1.0,1,FIX
1500800,1082.95,885.94,1.0,1,SACCADE
1523700,1102.8,887.53,1.0,1,FIX
1538100,1074.54,900.21,1.0,1,FIX
1552600,1057.68,838.3,1.0,1,FIX
1567600,1074.9,809.36,1.0,1,FIX
1596700,1084.43,848.72,1.0,1,FIX
1618200,1096.25,830.72,1.0,1,FIX
1633400,1091.53,826.63,1.0,1,FIX
1663500,1082.45,854.58,1.0,1,FIX
1678000,1063.8,803.18,1.0,1,SACCADE
1693000,1066.95,836.18,1.0,2,SACCADE
1715500,1077.59,827.59,1.0,1,FIX
1729500,1064.24,901.69,1.0,1,FIX
1744100,1050.45,914.99,1.0,1,FIX
1773100,1028.82,884.34,1.0,1,FIX
