@RELATION gaze_labels

%@METADATA width_px 1920
%@METADATA height_px 1080
%@METADATA width_mm 540.00
%@METADATA height_mm 254.00
%@METADATA distance_mm 620.00


@ATTRIBUTE time INTEGER
@ATTRIBUTE x NUMERIC
@ATTRIBUTE y NUMERIC
@ATTRIBUTE confidence NUMERIC
@ATTRIBUTE handlabeller1 INTEGER
@ATTRIBUTE handlabeller2 INTEGER
@ATTRIBUTE handlabeller_final INTEGER
@ATTRIBUTE speed_1 numeric
@ATTRIBUTE direction_1 numeric
@ATTRIBUTE acceleration_1 numeric
@ATTRIBUTE speed_2 numeric
@ATTRIBUTE direction_2 numeric
@ATTRIBUTE acceleration_2 numeric
@ATTRIBUTE speed_4 numeric
@ATTRIBUTE direction_4 numeric
@ATTRIBUTE acceleration_4 numeric
@ATTRIBUTE speed_8 numeric
@ATTRIBUTE direction_8 numeric
@ATTRIBUTE acceleration_8 numeric
@ATTRIBUTE speed_16 numeric
@ATTRIBUTE direction_16 numeric
@ATTRIBUTE acceleration_16 numeric

%The number after speed, direction denotes the step size that was used for the calculation.
%Acceleration was calculated between two adjacent samples of the already low pass filtered velocity

@DATA
0,318.06,528.46,1.00,1,1,1,0.00,0.00,0.00,784.31,-0.17,0.00,401.63,-0.35,0.00,280.83,-2.97,0.00,299.23,0.42,0.00
37000,346.67,523.63,1.00,1,1,1,784.31,-0.17,21197.47,401.63,-0.35,10710.08,1117.05,-3.08,40360.74,809.47,3.07,14615.99,580.18,0.40,7595.90
51700,337.55,521.32,1.00,1,1,1,639.63,-2.89,94809.17,1117.05,-3.08,101588.26,280.83,-2.97,57022.01,615.05,2.88,16028.04,1061.02,0.26,33530.40
66600,313.67,521.50,1.00,1,1,1,1602.77,3.13,66914.04,1038.40,3.08,10225.38,809.47,3.07,36294.75,244.43,1.40,42979.92,1679.98,0.19,42088.60
96200,291.42,523.95,1.00,1,1,1,756.35,3.03,28846.12,643.63,2.93,13976.79,615.05,2.88,7959.87,299.23,0.42,8827.10,2077.84,0.15,13670.43
117800,281.43,528.32,1.00,1,1,1,504.68,2.73,14498.32,285.13,1.76,27466.71,244.43,1.40,29648.19,580.18,0.40,13011.49,2502.19,0.12,19802.05
132700,289.42,534.16,1.00,1,1,1,664.14,0.63,68203.48,1274.44,0.34,84838.03,1136.40,0.33,69946.10,1061.02,0.26,33080.33,2696.20,0.11,13387.75
147400,316.97,540.97,1.00,1,1,1,1930.69,0.24,91170.27,2519.00,0.19,86657.94,2405.60,0.19,87735.26,1679.98,0.19,42661.23,2576.79,0.10,8178.76
162200,362.39,548.22,1.00,2,2,2,3107.53,0.16,80725.89,3552.61,0.14,70666.66,3031.35,0.14,43332.85,2077.84,0.15,27340.86,1307.34,0.13,85855.22
177100,421.50,555.37,1.00,2,2,2,3995.94,0.12,60287.30,3446.31,0.11,9747.61,3631.55,0.11,40765.86,2502.19,0.12,28706.33,1415.55,0.15,7449.63
199000,488.47,561.96,1.00,3,3,3,3072.73,0.10,42307.16,3697.20,0.09,11840.78,2868.93,0.09,34962.87,2696.20,0.11,9108.56,1470.59,0.15,2513.52
213800,556.63,567.60,1.00,3,3,3,4621.53,0.08,104724.09,2385.01,0.07,88793.21,2580.01,0.08,19617.45,2576.79,0.10,8123.50,1613.45,0.15,9661.02
242800,592.70,568.87,1.00,1,1,1,1244.52,0.04,116514.10,1642.34,0.06,25615.91,2396.09,0.07,6389.10,2438.14,0.09,4836.21,1878.92,0.13,9205.22
257500,628.28,571.72,1.00,1,1,1,2428.39,0.08,80710.30,2412.61,0.08,52454.54,1710.36,0.09,46695.72,2236.73,0.09,13725.69,2001.05,0.13,8327.24
272300,663.67,574.23,1.00,1,1,1,2396.99,0.07,2634.94,1792.00,0.11,42298.82,1912.11,0.10,13741.52,1872.28,0.09,24625.48,2191.80,0.12,12904.27
294600,694.33,579.35,1.00,1,1,1,1393.83,0.17,45652.04,1508.87,0.13,12746.81,1818.89,0.10,4192.48,1555.34,0.11,14270.19,2091.89,0.11,4558.11
308800,718.28,581.38,1.00,1,1,1,1692.65,0.08,22785.22,1853.75,0.09,24779.41,1397.53,0.12,29727.09,1681.14,0.11,8863.98,2068.74,0.10,2310.81
323500,747.69,584.08,1.00,1,1,1,2009.40,0.09,21565.23,1305.74,0.11,37339.83,1400.76,0.13,1182.99,1568.36,0.13,7971.69,1960.23,0.09,7436.29
353000,775.65,587.63,1.00,2,2,2,955.39,0.13,35765.80,1149.35,0.17,5882.74,1492.85,0.12,3189.39,1756.92,0.14,6433.55,1846.47,0.09,3866.27
375200,806.26,594.13,1.00,2,2,2,1409.41,0.21,20908.62,1718.34,0.13,25775.87,1396.51,0.15,4824.72,1686.89,0.13,3332.93,1627.44,0.08,9895.66
389700,838.21,595.59,1.00,3,3,3,2205.91,0.05,58413.10,1686.72,0.13,2380.80,2115.53,0.16,49591.57,1761.74,0.11,5492.09,1562.77,0.07,4627.82
419300,879.97,604.13,1.00,1,1,1,1439.88,0.20,27523.38,2445.52,0.17,25763.63,1928.39,0.12,6663.77,1730.73,0.10,1168.61,1331.27,0.06,7827.22
434000,944.94,614.16,1.00,1,1,1,4472.54,0.15,206471.49,2135.85,0.12,22706.87,1989.80,0.11,4779.04,1821.87,0.09,6327.16,1150.44,0.06,12304.51
470700,988.99,617.02,1.00,1,1,1,1202.72,0.06,89270.91,1605.13,0.02,15258.15,2131.84,0.07,4526.45,1703.90,0.06,3631.69,1011.82,0.05,3791.39
485100,1026.95,615.91,1.00,1,1,1,2636.99,-0.03,100280.65,2139.05,-0.03,37594.69,1536.91,0.00,42016.32,1452.67,0.03,17752.29,996.23,0.05,1106.63
499800,1051.21,615.34,1.00,1,1,1,1651.28,-0.02,67060.81,1419.87,-0.03,48923.38,1362.47,-0.10,15662.77,1079.10,-0.04,26065.34,918.91,0.04,5338.42
514600,1068.82,614.73,1.00,1,1,1,1190.08,-0.03,31180.73,623.29,-0.35,57450.21,648.09,-0.38,51486.79,512.63,-0.25,39711.59,929.08,0.01,1696.59
529400,1068.57,609.09,1.00,1,1,1,381.25,-1.61,84643.54,493.94,-2.03,56505.20,334.11,-2.21,54130.41,235.38,-0.74,21917.75,907.29,-0.01,2237.90
544100,1062.42,601.64,1.00,1,1,1,657.54,-2.26,28666.52,893.83,-2.78,43086.89,827.65,-2.78,39134.94,136.20,-1.30,9493.47,870.71,-0.03,2598.40
565900,1038.03,597.62,1.00,1,1,1,1133.87,-2.98,35378.39,1236.51,-3.00,18979.18,708.69,-2.89,6681.78,144.47,-1.90,3862.09,841.94,-0.06,1966.88
580600,1017.72,595.42,1.00,1,1,1,1389.86,-3.03,18035.44,565.66,-3.03,45662.42,382.20,-3.01,22622.50,166.18,-1.86,1561.89,712.55,-0.13,9477.12
610100,1013.18,594.86,1.00,1,1,1,154.97,-3.02,41861.41,333.07,0.16,30458.38,82.74,-0.35,15493.69,147.49,-1.06,4181.32,670.31,-0.16,1567.13
624200,1032.07,597.67,1.00,1,1,1,1354.02,0.15,107017.41,854.62,0.01,37370.88,551.36,-0.09,33470.04,272.91,-0.33,13451.57,603.27,-0.17,4811.74
646500,1044.29,595.31,1.00,1,1,1,558.11,-0.19,38025.04,826.11,-0.21,8475.38,1003.19,-0.07,20275.28,593.90,-0.11,14948.97,613.45,-0.17,492.92
661200,1061.97,591.35,1.00,1,1,1,1232.90,-0.22,45935.46,1192.88,-0.14,25329.69,1033.29,-0.13,4767.08,928.78,-0.06,22903.59,614.43,-0.16,351.03
676100,1079.23,590.26,1.00,2,2,2,1160.76,-0.06,13534.31,1297.71,-0.07,9297.36,1294.73,-0.09,17909.03,1127.14,-0.05,13338.22,614.50,-0.10,2406.94
690800,1100.29,588.64,1.00,3,3,3,1436.57,-0.08,18804.25,1400.66,-0.04,7703.55,1444.96,-0.04,10942.61,1075.25,-0.08,4105.29,661.58,-0.08,3354.93
705600,1120.53,588.79,1.00,3,3,3,1367.49,0.01,9268.09,1594.11,-0.02,13155.28,1228.71,-0.03,14637.86,1226.05,-0.06,10299.30,763.90,-0.05,7027.57
720200,1147.15,587.66,1.00,1,1,1,1824.81,-0.04,31786.27,1129.83,-0.03,31816.62,1106.32,-0.04,8397.10,1224.47,-0.03,2117.85,815.93,-0.05,3569.18
756900,1178.46,586.93,1.00,1,1,1,853.42,-0.02,26476.31,889.91,-0.05,6566.20,1184.07,-0.04,2120.12,1056.91,-0.01,4631.97,816.30,-0.06,220.84
786400,1205.97,584.44,1.00,1,1,1,936.41,-0.09,3467.34,1247.20,-0.04,12119.44,1089.35,-0.02,3265.14,991.97,-0.02,2256.20,702.59,-0.10,3979.87
801000,1233.41,584.60,1.00,1,1,1,1879.50,0.01,65180.79,1531.90,0.02,20390.75,914.03,0.02,12418.58,899.03,-0.02,6367.64,645.53,-0.12,4015.86
816400,1251.92,585.38,1.00,1,1,1,1202.85,0.04,44084.16,640.38,0.13,58351.38,858.78,0.01,3705.01,727.18,-0.03,11177.99,590.32,-0.11,3589.79
853500,1266.73,589.10,1.00,1,1,1,411.56,0.25,21673.28,468.37,-0.01,5128.46,567.10,0.01,7862.43,522.42,-0.08,5562.56,504.82,-0.12,2310.87
868100,1276.13,585.04,1.00,1,1,1,701.57,-0.41,30873.42,465.44,-0.29,8790.80,298.19,-0.09,18657.96,295.10,-0.18,15798.97,470.47,-0.13,2369.16
882800,1279.79,585.20,1.00,1,1,1,249.59,0.04,33293.31,64.60,-1.64,31002.91,191.20,-2.30,29872.92,87.23,-1.17,17563.34,479.05,-0.12,784.86
897500,1276.00,583.15,1.00,1,1,1,293.90,-2.65,36038.74,716.11,-2.93,47662.53,429.31,-2.85,19359.91,125.91,-2.29,8035.58,498.53,-0.09,1641.09
912100,1259.30,580.71,1.00,1,1,1,1155.72,-3.00,60661.18,755.39,-2.91,2802.75,649.76,-2.85,15099.54,243.12,-2.57,8657.11,520.65,-0.04,2220.54
934300,1248.94,576.78,1.00,1,1,1,499.31,-2.78,30496.60,600.87,-2.77,8098.08,574.67,-2.83,3413.70,229.32,-2.62,854.33,636.70,0.01,5392.59
949300,1238.44,572.68,1.00,1,1,1,751.18,-2.77,16794.93,361.47,-2.62,16630.52,287.90,-2.69,19475.49,102.30,-1.89,11149.39,761.38,0.02,8322.05
964000,1239.61,571.46,1.00,1,1,1,115.18,-0.81,54576.21,47.97,-1.68,22815.22,104.86,-1.66,17103.76,229.40,-0.28,17351.01,906.05,0.03,9847.89
993400,1238.20,570.58,1.00,1,1,1,56.54,-2.58,4705.18,203.94,-0.27,6874.94,452.39,-0.05,15921.71,519.57,-0.00,10405.50,1110.95,0.02,6977.40
1008100,1248.28,569.06,1.00,1,1,1,693.41,-0.15,50159.14,999.91,0.01,54814.14,850.11,0.03,27272.13,1005.28,0.07,33219.81,1174.72,0.04,4831.64
1030200,1275.00,570.91,1.00,2,2,2,1211.70,0.07,25127.22,1632.90,0.08,28912.39,1481.31,0.10,28781.64,1538.88,0.08,24147.67,1085.33,0.06,4093.34
1045100,1308.52,573.72,1.00,2,2,2,2257.74,0.08,70223.79,2088.56,0.16,32208.96,2150.53,0.12,44981.17,1904.24,0.08,24521.29,957.84,0.06,8568.44
1059800,1336.04,580.68,1.00,3,3,3,1931.13,0.25,32161.44,2814.83,0.16,49406.84,3044.66,0.10,60942.38,2509.48,0.07,41176.44,727.98,0.09,15694.85
1074100,1389.14,586.54,1.00,1,1,1,3735.56,0.11,128806.16,4025.85,0.07,87077.18,3202.75,0.09,11399.46,2640.22,0.09,9544.94,497.99,0.18,16507.89
1088800,1452.49,589.03,1.00,1,1,1,4313.16,0.04,43767.68,3516.11,0.05,35294.99,3549.66,0.06,24655.22,2277.88,0.10,24762.28,222.92,0.45,19700.47
1111000,1518.74,592.49,1.00,1,1,1,2988.46,0.05,59707.23,3173.97,0.04,15413.82,3133.14,0.06,18767.91,1747.07,0.11,23925.64,173.18,2.46,15111.40
1125500,1568.86,594.18,1.00,1,1,1,3458.33,0.03,32661.77,2647.24,0.09,37309.27,1719.70,0.10,97669.71,921.32,0.13,56980.05,473.49,2.87,22254.89
1140000,1595.22,599.14,1.00,1,1,1,1850.13,0.19,114045.06,525.90,0.38,148228.94,441.45,0.25,88612.59,112.21,1.13,59704.32,768.92,2.97,20748.12
1169300,1590.25,602.74,1.00,1,1,1,209.67,2.52,68266.87,1022.23,3.11,51846.53,892.85,3.07,45024.90,951.32,3.06,33998.18,1126.46,3.03,12372.34
1184200,1550.06,600.45,1.00,1,1,1,2701.28,-3.08,170606.39,2052.57,-3.12,69338.17,2066.48,3.12,78907.59,2067.71,3.10,75047.55,1355.88,3.07,15789.77
1221300,1483.54,600.24,1.00,2,2,2,1793.02,-3.14,24688.14,2957.58,3.13,24537.12,3577.97,-3.14,40774.70,2984.99,3.11,24734.97,1554.04,3.10,5444.28
1236000,1396.88,602.97,1.00,2,2,2,5898.27,3.11,279373.84,6277.12,3.13,225831.44,4306.64,3.13,49723.93,3510.96,3.13,35860.43,1725.05,3.12,11845.16
1250700,1299.00,601.78,1.00,3,3,3,6658.97,-3.13,55004.78,6659.66,3.13,26026.38,6389.57,3.12,141708.37,4317.37,3.14,54928.16,1896.77,3.13,11768.98
1265700,1199.09,604.45,1.00,3,3,3,6662.84,3.11,17269.62,6502.07,3.12,12955.65,5602.54,3.13,52480.13,4010.34,3.14,20503.88,2098.10,-3.14,13573.04
1280200,1107.25,606.52,1.00,1,1,1,6335.77,3.12,22630.91,4744.95,3.12,121187.16,5230.98,3.13,25629.27,4409.85,-3.14,27560.07,2087.31,-3.13,1616.19
1302300,1025.47,608.16,1.00,1,1,1,3701.20,3.12,119212.79,4201.71,-3.14,25050.75,3709.74,-3.13,68998.06,3678.41,-3.13,33139.54,2123.89,-3.11,1919.38
1316600,954.31,606.14,1.00,1,1,1,4978.35,-3.11,90491.09,2845.80,-3.08,95722.70,2963.26,-3.11,52372.13,2941.97,-3.12,51526.93,2192.18,-3.11,4842.46
1345900,901.59,601.12,1.00,1,1,1,1807.29,-3.05,108440.97,1944.53,-3.06,30804.47,2100.06,-3.08,29608.06,2134.42,-3.09,27711.98,2077.03,-3.11,3936.48
1360700,868.81,599.51,1.00,1,1,1,2217.67,-3.09,28411.57,1221.62,-3.06,48850.48,1091.61,-3.01,68538.86,1235.77,-3.02,61140.19,2009.96,-3.11,4563.09
1382900,856.55,597.33,1.00,1,1,1,560.86,-2.97,74902.92,157.95,-1.96,52180.32,296.67,-2.44,38597.56,683.77,-2.88,25551.52,1601.73,-3.10,18393.80
1397700,866.60,594.10,1.00,1,1,1,713.14,-0.31,83578.45,1066.90,-0.29,73891.06,537.48,-0.38,48950.26,303.76,-2.61,27038.66,1265.54,-3.10,22722.19
1412300,886.60,588.34,1.00,1,1,1,1425.74,-0.28,48853.59,1000.12,-0.25,5448.45,940.57,-0.24,28514.70,137.32,-1.25,20895.34,874.47,-3.08,26803.89
1441600,909.15,583.29,1.00,1,1,1,788.71,-0.22,21849.61,858.13,-0.19,5188.44,580.69,-0.28,12336.49,290.77,-0.44,7530.91,589.34,-3.05,9765.98
1456300,923.68,581.20,1.00,1,1,1,998.33,-0.14,15011.32,95.73,-0.69,52768.22,274.23,-0.30,20851.34,382.61,-0.22,7999.90,357.30,-2.98,15945.35
1478900,911.89,581.00,1.00,1,1,1,521.43,-3.12,67053.13,424.36,3.10,22291.16,37.48,-2.25,12841.67,336.69,-0.18,2132.73,133.33,-2.87,9961.78
1493500,907.91,581.86,1.00,1,1,1,279.53,2.93,17612.71,148.20,3.06,18925.96,122.62,2.80,7948.94,172.36,-0.01,11601.28,44.23,-0.67,11196.60
1508000,907.60,581.35,1.00,1,1,1,41.56,-2.11,18557.16,158.08,0.40,20517.29,97.13,0.59,13548.02,63.14,0.61,8718.18,133.51,-0.24,6560.42
1537500,914.31,584.58,1.00,1,1,1,252.56,0.45,9768.00,245.16,0.34,2978.80,116.26,0.60,650.54,79.67,2.41,3808.35,159.89,-0.13,1053.06
1552200,917.81,584.97,1.00,1,1,1,239.51,0.11,5682.71,87.60,0.92,12149.78,132.28,0.67,1217.60,91.13,1.45,5442.49,143.17,-0.11,1142.98
1588800,917.02,588.16,1.00,1,1,1,89.83,1.81,7281.78,82.32,1.64,1640.12,64.52,1.62,2968.65,72.24,1.18,781.12,74.68,0.10,1969.48
1603500,917.51,589.18,1.00,1,1,1,76.80,1.13,3898.20,115.05,2.64,6729.38,133.82,1.97,5186.99,53.08,1.42,1646.60,32.79,2.27,6590.84
1618400,914.03,589.79,1.00,1,1,1,236.79,2.97,17967.10,235.05,2.16,9607.56,98.42,2.38,3936.75,82.76,2.55,5154.52,97.55,2.86,4877.29
1633100,913.62,594.95,1.00,1,1,1,352.22,1.65,25302.62,91.47,2.11,9782.56,131.46,3.07,5689.93,46.57,2.58,2465.13,90.63,2.63,1547.29
1654900,912.32,592.66,1.00,1,1,1,120.94,-2.09,20983.15,192.65,-2.32,10797.97,151.32,2.99,1056.44,53.30,2.78,551.66,73.15,2.49,949.67
1669400,908.87,589.82,1.00,1,1,1,308.19,-2.45,13801.97,283.27,-2.98,12173.20,79.73,-1.92,10844.53,102.08,3.02,3567.39,58.67,1.60,4018.27
1683700,904.27,591.33,1.00,1,1,1,338.32,2.82,21853.02,62.59,-0.32,23764.61,40.04,-2.45,3461.88,131.50,-3.13,2328.09,82.93,0.70,4589.96
1713100,911.46,588.95,1.00,1,1,1,257.59,-0.32,20269.18,130.85,-0.10,2425.67,78.39,2.95,2098.27,173.96,-3.12,1445.55,170.39,0.25,3466.98
1728200,910.07,590.77,1.00,1,1,1,152.13,2.22,26005.84,244.93,2.91,24830.87,118.90,-2.96,3589.47,158.51,3.03,1815.14,345.53,0.09,11875.24
1750000,902.67,591.05,1.00,1,1,1,339.54,3.10,12374.32,419.65,-3.07,9216.34,360.98,2.91,11756.64,67.00,1.76,6984.62,502.65,0.02,7349.43
1764700,894.79,589.61,1.00,1,1,1,544.64,-2.96,15331.90,507.14,2.91,11189.04,306.06,2.92,3742.04,203.98,0.30,14140.74,622.14,-0.02,8266.74
1779300,888.19,594.40,1.00,1,1,1,558.38,2.51,29695.38,241.71,2.24,24172.27,154.38,1.06,26009.30,418.07,0.15,14949.49,758.73,-0.07,9606.49
1794000,890.41,595.18,1.00,1,1,1,160.33,0.34,45090.67,658.77,0.24,53762.71,597.06,0.27,34089.60,760.83,0.06,23587.26,995.04,-0.07,16075.58
1808800,907.08,598.99,1.00,1,1,1,1154.75,0.22,67271.71,1155.85,0.12,34342.47,1176.39,0.04,41266.31,1209.73,0.00,30554.98,1146.65,-0.06,10278.60
1831100,933.00,600.18,1.00,1,1,1,1163.96,0.05,9289.95,1604.11,-0.03,21926.28,1808.16,0.01,28376.22,1410.76,-0.02,9110.47,1307.74,-0.06,7228.19
1845700,966.25,597.40,1.00,2,2,2,2284.73,-0.08,78106.39,2646.15,-0.04,71409.45,2218.96,-0.05,29490.25,1682.57,-0.06,19093.47,1420.30,-0.06,7729.22
1860400,1010.46,596.84,1.00,2,2,2,3008.32,-0.01,50804.50,2991.62,-0.07,23927.86,2174.68,-0.09,6609.18,2082.76,-0.07,27272.28,1352.44,-0.07,4756.85
1875100,1054.00,591.56,1.00,3,3,3,2983.66,-0.12,22080.58,1865.19,-0.13,77391.89,2103.70,-0.10,5246.08,2147.10,-0.08,4655.13,1296.17,-0.06,4000.18
1904500,1091.98,585.85,1.00,1,1,1,1306.24,-0.15,57087.03,1601.24,-0.14,8996.30,2316.53,-0.13,7439.95,2373.59,-0.09,7726.13,1142.84,-0.05,5219.88
1926800,1135.93,579.69,1.00,1,1,1,1990.20,-0.14,30679.63,2854.57,-0.12,56244.74,2098.82,-0.11,9961.77,2287.25,-0.09,3879.05,927.06,-0.07,9707.83
1941500,1196.83,573.07,1.00,1,1,1,4166.65,-0.11,148179.93,2683.01,-0.08,13913.61,2553.39,-0.09,31019.73,1840.84,-0.11,30534.47,604.57,-0.08,21950.10
1971000,1254.13,570.09,1.00,1,1,1,1945.30,-0.05,75496.83,2303.46,-0.06,12984.84,2489.50,-0.07,2625.94,1365.39,-0.10,16139.86,250.52,-0.19,12087.69
1985700,1298.45,566.94,1.00,1,1,1,3022.52,-0.07,73348.35,2200.83,-0.06,6982.52,1367.08,-0.08,76367.01,890.99,-0.10,32272.22,138.94,-2.85,25784.65
2000600,1319.16,566.12,1.00,1,1,1,1390.64,-0.04,109607.78,261.08,-0.34,130975.47,311.54,0.02,70986.96,132.38,-0.17,50941.15,522.22,-3.10,26125.93
2022800,1307.57,563.67,1.00,1,1,1,533.50,-2.93,86139.94,1202.53,3.04,65636.37,1135.90,3.06,65142.46,804.95,3.08,42190.84,899.58,-3.13,17015.48
2037600,1274.88,570.49,1.00,1,1,1,2256.42,2.94,120337.44,2882.87,3.03,113550.32,2492.78,3.08,91708.84,1838.96,3.09,69867.67,1198.37,3.14,20221.92
2052300,1223.06,573.22,1.00,2,2,2,3529.76,3.09,91461.35,4123.38,3.09,85635.60,3210.47,3.07,48844.63,2750.12,3.09,61983.76,1440.91,3.14,16503.04
2066900,1154.22,576.57,1.00,2,2,2,4721.09,3.09,81605.15,3433.24,3.09,47276.41,3608.73,3.09,27825.50,3466.46,3.09,49069.64,1496.14,-3.14,3827.50
2096200,1072.51,580.36,1.00,2,2,2,2791.51,3.10,65856.63,3316.51,3.10,3992.69,4076.29,3.10,15961.46,4067.97,3.09,20530.95,1350.92,-3.12,5048.04
2118500,983.26,584.30,1.00,3,3,3,4006.30,3.10,54475.80,4835.19,3.10,68104.15,4261.81,3.10,8340.50,4169.78,3.11,5260.14,1838.96,3.09,22492.71
2133400,892.81,588.00,1.00,1,1,1,6075.76,3.10,138893.99,5909.77,3.10,72137.32,5012.86,3.11,50433.24,3901.51,3.12,18201.50,2750.12,3.09,61151.76
2148100,808.46,590.95,1.00,1,1,1,5741.57,3.11,22859.66,5237.16,3.11,45883.56,4938.38,3.12,6234.49,3046.47,3.14,58371.44,3466.46,3.09,48735.84
2162900,738.38,592.47,1.00,1,1,1,4736.38,3.12,68076.06,3964.86,3.13,86236.77,3662.79,-3.14,86532.98,1928.57,-3.09,76206.13,4067.97,3.09,40645.73
2177600,691.50,591.74,1.00,1,1,1,3189.42,-3.13,105698.38,2086.21,-3.06,128869.92,1561.48,-3.03,144142.08,4938.38,3.12,205462.11,4169.78,3.11,7979.67
2192200,677.44,587.71,1.00,1,1,1,1001.88,-2.86,153245.32,537.78,-0.70,171036.42,719.43,-0.50,149819.99,3662.79,-3.14,87718.36,3901.51,3.12,18575.50
2213900,706.39,579.12,1.00,1,1,1,1391.93,-0.29,106024.72,2227.16,-0.21,81715.51,537.78,-0.70,10110.35,1561.48,-3.03,97644.64,3046.47,3.14,39541.94
2243400,789.07,564.48,1.00,1,1,1,2846.34,-0.18,49886.36,2846.34,-0.18,21143.24,2227.16,-0.21,60109.38,719.43,-0.50,74148.20,1928.57,-3.09,38232.23
