@RELATION gaze_labels

%@METADATA width_px 1920
%@METADATA height_px 1080
%@METADATA width_mm 540.00
%@METADATA height_mm 254.00
%@METADATA distance_mm 620.00


@ATTRIBUTE time INTEGER
@ATTRIBUTE x NUMERIC
@ATTRIBUTE y NUMERIC
@ATTRIBUTE confidence NUMERIC
@ATTRIBUTE handlabeller1 INTEGER
@ATTRIBUTE handlabeller2 INTEGER
@ATTRIBUTE handlabeller_final INTEGER
@ATTRIBUTE speed_1 numeric
@ATTRIBUTE direction_1 numeric
@ATTRIBUTE acceleration_1 numeric
@ATTRIBUTE speed_2 numeric
@ATTRIBUTE direction_2 numeric
@ATTRIBUTE acceleration_2 numeric
@ATTRIBUTE speed_4 numeric
@ATTRIBUTE direction_4 numeric
@ATTRIBUTE acceleration_4 numeric
@ATTRIBUTE speed_8 numeric
@ATTRIBUTE direction_8 numeric
@ATTRIBUTE acceleration_8 numeric
@ATTRIBUTE speed_16 numeric
@ATTRIBUTE direction_16 numeric
@ATTRIBUTE acceleration_16 numeric

%The number after speed, direction denotes the step size that was used for the calculation.
%Acceleration was calculated between two adjacent samples of the already low pass filtered velocity

@DATA
0,322.82,541.48,1.00,1,1,1,0.00,0.00,0.00,1683.49,-0.62,0.00,793.11,-0.80,0.00,295.46,-1.42,0.00,281.36,0.01,0.00
14800,343.08,526.97,1.00,1,1,1,1683.49,-0.62,113749.43,793.11,-0.80,61695.48,301.51,-2.42,58276.10,256.84,-3.12,28104.85,353.23,0.32,8127.54
36900,343.28,520.55,1.00,1,1,1,290.76,-1.54,68985.35,301.51,-2.42,39026.53,295.46,-1.42,12965.82,261.50,2.53,7355.58,612.80,0.29,11754.86
51700,334.74,519.61,1.00,1,1,1,580.22,-3.03,42434.84,593.60,3.05,29990.83,256.84,-3.12,28104.85,200.34,1.13,20340.17,877.77,0.23,18200.50
66400,325.83,522.10,1.00,1,1,1,629.22,2.87,15992.36,322.75,2.64,22151.42,261.50,2.53,11058.40,281.36,0.01,18003.94,1141.28,0.19,18151.39
95800,322.28,526.49,1.00,1,1,1,192.04,2.25,16514.71,219.44,1.40,11085.70,200.34,1.13,10239.27,353.23,0.32,4091.42,1494.36,0.16,12055.77
110700,327.51,531.67,1.00,1,1,1,494.23,0.78,34351.44,448.32,0.47,24331.79,490.68,0.44,24164.59,612.80,0.29,17435.07,1648.09,0.15,10459.41
147500,342.96,536.95,1.00,1,1,1,443.80,0.33,5877.04,819.69,0.25,10738.38,861.02,0.24,10614.29,877.77,0.23,7319.77,1936.63,0.14,7841.80
162200,368.46,541.92,1.00,2,2,2,1767.06,0.19,90391.96,1360.77,0.16,37334.52,1221.13,0.16,25139.53,1141.28,0.19,18151.39,987.81,0.13,64551.89
191800,402.49,546.45,1.00,3,3,3,1159.91,0.13,20717.70,1696.06,0.12,11527.66,1782.94,0.12,19085.29,1494.36,0.16,11974.31,952.64,0.22,3071.30
206200,442.58,550.59,1.00,3,3,3,2798.69,0.10,113862.42,2299.93,0.10,42018.38,1938.98,0.11,10936.43,1648.09,0.15,10822.59,907.12,0.26,3977.67
228100,485.59,554.55,1.00,1,1,1,1972.04,0.09,37765.39,2231.88,0.11,3257.65,2430.47,0.12,22456.73,1936.63,0.14,13177.09,901.95,0.27,455.25
242700,523.58,559.27,1.00,1,1,1,2622.32,0.12,44810.49,2594.80,0.14,25607.33,2273.95,0.13,10913.91,1775.49,0.16,11152.38,878.38,0.25,1852.33
257200,560.31,565.39,1.00,1,1,1,2568.23,0.17,8343.25,2329.49,0.16,18583.08,2151.33,0.17,9974.99,1764.10,0.19,4779.03,887.44,0.26,684.61
271400,589.55,570.13,1.00,1,1,1,2085.71,0.16,33987.75,1706.52,0.20,44204.80,1580.45,0.22,40856.53,1249.61,0.24,36508.18,868.33,0.24,1601.00
286100,608.63,575.27,1.00,1,1,1,1344.49,0.26,51765.23,1005.40,0.33,49063.65,1123.24,0.36,33367.24,934.64,0.31,22165.43,904.52,0.23,2516.15
308200,624.54,582.15,1.00,1,1,1,784.23,0.41,26224.91,712.68,0.65,17962.13,472.49,0.66,31075.05,571.57,0.41,16749.01,804.15,0.23,4547.42
323000,629.58,591.17,1.00,1,1,1,698.12,1.06,32594.60,280.64,1.98,47348.65,240.23,1.56,25346.69,274.19,0.86,23371.84,698.17,0.23,7161.17
352000,619.66,593.43,1.00,1,1,1,350.73,2.92,29825.07,482.77,2.98,14005.61,331.23,2.73,11173.18,176.57,1.68,6872.26,518.94,0.26,6209.95
366700,608.77,594.63,1.00,1,1,1,745.63,3.03,27159.46,533.07,-3.11,7612.64,539.77,3.03,16614.82,176.21,2.15,5657.32,341.90,0.31,12139.06
388800,600.06,592.80,1.00,1,1,1,402.84,-2.93,17378.06,609.23,3.09,4121.42,495.67,3.07,2133.89,246.78,2.79,6756.78,198.77,0.42,6603.53
403500,586.38,595.87,1.00,1,1,1,953.41,2.92,41527.88,458.74,2.91,12069.98,218.41,2.98,18956.27,308.17,-3.10,8350.11,103.08,0.68,6972.79
418400,586.85,595.94,1.00,1,1,1,31.38,0.14,65962.24,271.84,0.14,48257.20,135.20,3.00,5589.81,284.48,-2.99,2797.62,77.56,0.99,2531.83
433300,594.41,596.97,1.00,1,1,1,512.30,0.13,32276.13,193.35,-0.36,9245.36,108.30,-1.54,12565.49,213.58,-2.82,5506.26,89.74,0.87,1055.43
447800,592.16,593.92,1.00,1,1,1,261.40,-2.21,49606.91,369.46,-2.38,33441.90,142.85,-2.07,5070.33,189.76,-2.75,1930.44,132.64,0.52,3949.26
462600,586.59,589.48,1.00,1,1,1,481.03,-2.47,16101.60,315.65,-2.57,5721.88,244.76,-2.47,8562.91,88.02,-1.82,10375.92,229.94,0.24,7386.79
484800,582.34,587.59,1.00,1,1,1,209.54,-2.72,12763.53,176.49,-2.58,6269.94,248.32,-2.54,798.43,104.11,-0.35,5839.29,412.20,0.18,8248.21
514600,578.81,584.61,1.00,1,1,1,155.02,-2.44,2510.80,192.20,-2.50,714.77,79.59,-2.11,6018.95,198.15,-0.01,3542.06,582.28,0.16,5714.69
529000,575.51,582.54,1.00,1,1,1,270.63,-2.58,8278.42,156.01,-0.15,22347.49,214.70,0.13,18814.34,417.00,0.12,15437.81,764.44,0.17,12654.15
543700,583.30,583.93,1.00,1,1,1,538.24,0.18,54125.51,550.08,0.27,28092.90,609.62,0.24,27024.08,691.62,0.16,18735.94,876.09,0.14,7807.32
580300,602.68,590.16,1.00,2,2,2,556.26,0.31,2078.19,873.40,0.28,8835.86,1063.85,0.23,12415.05,1012.15,0.17,8762.04,954.17,0.15,2161.84
595200,626.49,596.50,1.00,2,2,2,1653.40,0.26,73707.51,1958.67,0.21,73136.34,1441.10,0.20,25413.47,1385.00,0.19,25045.55,963.04,0.16,1129.29
609800,659.22,602.09,1.00,3,3,3,2274.21,0.17,44200.20,2457.39,0.15,35161.50,2309.98,0.18,59582.65,1673.40,0.19,19765.42,937.55,0.18,2141.78
624200,696.93,607.33,1.00,3,3,3,2643.71,0.14,26211.98,2666.25,0.16,14552.74,2339.37,0.17,2894.56,1666.06,0.18,1763.32,933.45,0.19,323.90
639000,736.09,614.43,1.00,1,1,1,2689.33,0.18,8114.04,2246.25,0.18,28587.46,2424.42,0.17,5811.25,1954.19,0.18,19468.43,961.22,0.19,1932.72
660800,777.81,622.05,1.00,1,1,1,1945.45,0.18,34122.93,2231.33,0.19,884.78,1889.88,0.16,24556.45,1854.24,0.19,4630.75,976.69,0.20,744.67
675500,816.13,629.45,1.00,1,1,1,2655.36,0.19,48320.18,1598.31,0.13,43552.59,1696.67,0.18,13351.63,1511.97,0.20,23353.43,1022.56,0.18,3252.56
705400,848.45,631.62,1.00,1,1,1,1083.15,0.07,53048.39,1259.23,0.17,11448.53,1425.12,0.21,9276.65,1198.80,0.20,10473.80,1038.80,0.18,616.91
720100,871.51,638.83,1.00,1,1,1,1643.54,0.30,43700.43,1186.01,0.38,18174.38,778.56,0.28,44212.54,908.35,0.22,19786.71,1144.77,0.15,7475.27
734800,880.85,644.51,1.00,1,1,1,743.53,0.55,63875.68,264.42,0.96,66389.39,368.30,0.48,28829.42,592.13,0.23,21515.61,1108.03,0.11,3834.98
756900,877.09,646.81,1.00,1,1,1,199.44,2.59,38625.92,293.52,-2.98,23244.26,98.76,2.41,18712.33,407.65,0.15,8494.72,1114.87,0.09,1097.91
771700,870.15,642.81,1.00,1,1,1,540.72,-2.62,32311.82,376.32,-2.81,6835.03,168.43,-3.00,8773.09,350.70,0.17,3861.78,1008.48,0.07,7410.52
786200,866.66,643.21,1.00,1,1,1,242.06,3.03,25829.54,64.12,-3.05,21689.28,105.62,-1.38,14010.73,381.83,0.01,4601.75,947.40,0.05,4383.06
815900,867.33,642.57,1.00,1,1,1,31.13,-0.77,9003.06,283.76,-0.33,11563.38,362.31,-0.09,11726.05,484.85,-0.14,4041.16,896.67,0.02,1852.17
830500,878.57,639.17,1.00,1,1,1,804.24,-0.29,53199.23,872.04,-0.07,41207.83,753.49,-0.07,26804.48,763.70,-0.12,19112.68,811.08,0.01,5937.17
852800,899.42,640.23,1.00,2,2,2,936.26,0.05,14562.88,1330.26,-0.00,20843.70,1133.32,-0.10,17078.49,869.93,-0.09,4882.40,767.10,0.01,1973.02
867500,927.79,639.16,1.00,2,2,2,1931.14,-0.04,68158.00,1352.26,-0.11,10032.98,1428.60,-0.06,20376.68,998.69,-0.08,8788.62,701.07,-0.01,4588.82
896900,958.70,633.74,1.00,3,3,3,1067.50,-0.17,30116.19,1513.80,-0.10,5520.04,1298.77,-0.09,4707.76,1204.38,-0.07,7007.20,682.67,-0.03,817.79
911800,994.53,632.58,1.00,1,1,1,2405.66,-0.03,91087.27,1253.64,-0.08,17577.03,1206.23,-0.09,6224.04,1201.35,-0.04,2486.66,722.10,-0.03,2645.96
948800,1023.58,628.77,1.00,1,1,1,791.82,-0.13,43770.60,943.37,-0.07,8386.63,1275.95,-0.05,2347.28,1168.09,-0.03,909.34,782.26,-0.04,1630.28
963600,1043.27,629.06,1.00,1,1,1,1330.63,0.01,37770.10,1318.16,0.01,26004.66,974.41,-0.01,20529.65,1004.50,-0.01,11156.19,879.38,-0.07,6853.73
978200,1062.33,629.02,1.00,1,1,1,1305.62,-0.00,2299.03,1036.89,0.08,20248.95,966.98,0.09,6905.79,904.43,0.03,7466.87,948.97,-0.11,5419.51
993000,1073.64,631.63,1.00,1,1,1,784.55,0.23,38515.72,633.88,0.27,29019.01,696.34,0.19,19162.74,685.49,0.07,14968.23,860.92,-0.09,6072.69
1007900,1080.48,634.00,1.00,1,1,1,485.93,0.33,20524.15,381.73,0.50,18539.45,470.47,0.29,15592.05,676.00,0.05,1185.26,798.19,-0.06,4562.95
1022600,1083.57,637.02,1.00,1,1,1,293.96,0.77,17239.39,338.91,0.32,5150.86,352.53,0.37,8329.97,728.95,-0.06,6374.40,712.93,0.01,6876.50
1044700,1092.31,637.97,1.00,1,1,1,397.61,0.11,11162.66,333.81,0.25,1075.17,465.80,-0.01,8570.83,657.84,-0.21,5635.20,669.24,0.11,3669.87
1059500,1095.49,640.13,1.00,2,2,2,259.93,0.60,14029.10,592.82,-0.16,21429.11,778.71,-0.22,22853.98,492.60,-0.24,11242.24,655.71,0.20,4348.36
1089200,1118.35,633.77,1.00,3,3,3,798.91,-0.27,22259.72,1183.12,-0.33,20421.51,900.09,-0.43,7207.72,409.96,-0.14,3146.03,762.71,0.29,4118.94
1104200,1145.59,623.18,1.00,3,3,3,1948.20,-0.37,77068.54,1418.41,-0.60,28370.70,680.88,-0.49,14898.08,406.64,0.07,5888.94,880.01,0.31,7943.27
1118600,1152.75,610.20,1.00,1,1,1,1029.49,-1.07,92534.46,245.90,-1.74,92589.16,355.05,-0.36,23004.59,451.94,0.26,6338.58,1045.00,0.31,11460.01
1140300,1144.13,614.42,1.00,1,1,1,442.27,2.69,65193.22,542.83,2.26,33563.70,281.43,1.70,25235.60,638.97,0.33,8805.68,1270.09,0.27,10581.77
1155000,1140.18,625.44,1.00,1,1,1,796.55,1.92,38764.52,920.20,1.60,40233.45,573.39,1.42,21291.22,876.90,0.46,17482.41,1422.35,0.24,10858.66
1169700,1143.22,641.46,1.00,1,1,1,1109.09,1.38,39786.74,819.16,1.00,35922.12,952.59,0.88,37092.53,1080.23,0.53,14535.17,1651.03,0.21,15847.40
1199200,1159.80,655.87,1.00,1,1,1,744.58,0.72,23655.47,1156.57,0.58,17963.21,1411.97,0.61,18777.79,1482.51,0.50,13688.20,1873.27,0.20,7562.26
1221100,1193.11,673.80,1.00,1,1,1,1727.17,0.49,46311.25,2233.60,0.45,50084.33,1754.09,0.43,20515.18,2082.35,0.38,29041.41,1976.28,0.19,4713.88
1235700,1233.35,691.04,1.00,1,1,1,2998.75,0.40,88193.39,2471.35,0.35,22630.90,2647.65,0.33,62882.74,2289.73,0.29,19675.60,2045.46,0.21,5566.34
1265300,1295.78,711.07,1.00,4,4,4,2215.13,0.31,27711.58,3006.15,0.26,19811.02,3479.01,0.24,29647.18,2686.20,0.22,14530.67,1899.01,0.26,6000.12
1280300,1362.92,725.50,1.00,4,4,4,4578.02,0.21,158918.70,5012.37,0.16,136384.61,3106.70,0.17,28966.88,3223.96,0.19,36544.40,1681.13,0.34,17262.44
1295100,1443.32,734.40,1.00,4,4,4,5465.49,0.11,69058.98,3211.96,0.10,122729.33,3841.24,0.11,51279.88,3371.15,0.16,11139.04,1510.85,0.43,14601.12
1332300,1529.16,741.66,1.00,4,4,4,2315.77,0.08,84706.12,3175.05,0.08,2072.84,3842.12,0.09,2605.14,3175.44,0.15,5429.78,1203.48,0.55,9468.33
1347100,1607.95,746.88,1.00,4,4,4,5335.32,0.07,204068.73,4949.54,0.08,119903.66,3290.07,0.09,37323.59,2895.87,0.15,18899.16,954.95,0.74,21736.63
1361900,1675.20,753.36,1.00,4,4,4,4564.86,0.10,52997.79,3493.28,0.12,99173.61,3290.06,0.12,5223.60,1935.44,0.21,65538.95,776.53,0.99,18771.91
1376900,1711.25,759.77,1.00,4,4,4,2441.05,0.18,142698.12,1650.33,0.23,124057.95,1606.05,0.28,114899.12,921.56,0.53,73364.18,571.04,1.37,21406.04
1391600,1722.90,764.60,1.00,4,4,4,858.52,0.39,109752.39,602.91,2.30,136801.89,674.07,2.36,137487.15,754.38,2.21,85305.10,493.88,2.06,25064.29
1406300,1699.39,772.94,1.00,4,4,4,1697.47,2.80,163589.91,2223.09,2.89,119199.05,2351.47,2.86,121783.70,1867.22,2.75,86954.75,733.90,2.68,29964.20
1428500,1643.48,785.14,1.00,4,4,4,2577.33,2.93,41366.89,3816.70,2.92,71926.55,3255.13,2.91,41140.76,2846.49,2.89,46454.44,990.46,2.95,15560.74
1443400,1561.15,803.63,1.00,4,4,4,5663.31,2.92,207118.65,4113.20,2.91,20093.66,4218.46,2.92,64807.97,3335.22,2.97,36842.13,1286.39,3.08,21968.88
1472900,1465.62,826.59,1.00,4,4,4,3330.43,2.91,79110.58,4558.77,2.92,15183.99,4904.41,2.95,23703.89,3826.84,3.04,18493.11,1718.47,3.14,14981.06
1487200,1366.22,846.89,1.00,4,4,4,7094.80,2.94,263501.34,6113.65,2.99,111846.99,4167.27,3.02,56191.58,4039.32,3.09,20305.88,1909.52,-3.11,14220.08
1502200,1288.43,852.88,1.00,4,4,4,5201.06,3.06,135929.58,3766.37,-3.11,166228.87,4599.89,-3.13,47341.92,3725.64,-3.14,26055.72,2192.48,-3.08,19282.09
1523800,1228.42,843.00,1.00,1,1,1,2815.62,-2.98,118312.57,3529.20,-2.91,36141.34,3980.12,-2.98,41093.55,3202.22,-3.06,27259.87,2179.12,-3.06,1449.51
1538600,1163.43,823.28,1.00,1,1,1,4589.35,-2.85,124017.60,4329.13,-2.84,57033.60,2866.50,-2.83,82990.79,2986.62,-2.95,26898.85,2242.94,-3.05,4716.77
1553300,1106.48,805.08,1.00,1,1,1,4067.36,-2.83,35771.94,2341.91,-2.73,137332.16,2472.88,-2.72,33586.40,2197.21,-2.79,60047.26,2170.84,-3.02,6269.58
1582800,1068.63,781.72,1.00,1,1,1,1507.77,-2.59,89135.41,1464.60,-2.51,32816.13,1866.12,-2.58,22816.30,1910.59,-2.66,13445.21,2031.47,-2.99,5232.32
1605000,1045.50,760.19,1.00,1,1,1,1423.29,-2.39,13492.30,1389.41,-2.28,14988.89,1136.22,-2.33,36780.85,1473.23,-2.58,20582.34,1787.70,-2.94,12006.78
1619700,1035.27,742.78,1.00,1,1,1,1373.36,-2.10,27682.48,835.84,-1.96,44438.55,1107.37,-2.22,8674.45,1165.48,-2.49,22439.49,1597.51,-2.85,16066.73
1649100,1031.65,726.03,1.00,1,1,1,583.05,-1.78,28562.83,876.97,-2.14,5442.45,704.56,-2.17,13765.89,880.04,-2.32,11411.12,1274.66,-2.74,12280.64
1663900,1014.48,710.07,1.00,2,2,2,1583.88,-2.39,78031.59,628.70,-2.42,21940.04,596.06,-2.25,8124.59,680.04,-2.16,15899.99,1142.31,-2.66,11269.49
1701000,1007.16,704.47,1.00,1,1,1,248.47,-2.49,36031.18,371.37,-2.49,6997.02,578.46,-2.29,757.38,524.91,-2.05,4494.03,1104.80,-2.63,1276.18
1715600,999.21,698.43,1.00,1,1,1,683.68,-2.49,29808.58,518.98,-2.01,17466.73,263.61,-1.90,23966.43,398.51,-2.10,8790.43,1033.01,-2.63,4920.94
1730400,1000.64,690.67,1.00,1,1,1,533.21,-1.39,43977.15,409.58,-0.80,36330.89,275.24,-1.53,6627.40,375.87,-2.41,8223.06,989.10,-2.65,3256.27
1745000,1007.63,689.82,1.00,1,1,1,481.89,-0.12,41253.34,256.39,-0.32,14903.56,169.64,-1.07,9937.22,374.66,-2.63,5544.53,1069.92,-2.72,7395.65
1759600,1007.76,688.35,1.00,1,1,1,101.14,-1.48,32268.00,123.84,-3.11,25698.13,190.03,-2.80,18761.93,645.22,-2.77,19122.08,1224.33,-2.81,12508.62
1774300,1004.00,689.70,1.00,1,1,1,271.83,2.80,22286.09,422.19,-3.01,20353.51,581.78,-2.94,26838.92,903.96,-2.87,18288.14,1391.04,-2.87,12657.87
1811100,986.21,685.50,1.00,1,1,1,496.85,-2.91,8346.76,843.92,-2.92,11544.14,1063.86,-2.95,13101.52,1229.05,-2.94,9084.34,1550.87,-2.92,4715.63
1825700,961.64,680.36,1.00,2,2,2,1718.97,-2.94,83722.13,2189.83,-2.93,92185.63,1592.75,-2.94,36230.35,1663.94,-2.97,29895.71,1615.83,-2.94,5205.60
1840500,923.31,671.75,1.00,2,2,2,2654.44,-2.92,63242.30,2902.22,-2.95,48286.75,2486.76,-2.95,60425.96,2135.64,-2.98,31958.41,1745.94,-2.94,8791.20
1855100,877.90,664.02,1.00,2,2,2,3155.37,-2.97,35837.04,2721.12,-2.97,12967.10,2971.58,-2.97,33399.57,2561.71,-2.98,29183.00,1639.11,-2.94,7338.28
1877900,823.06,654.23,1.00,2,2,2,2443.08,-2.96,31256.22,3027.12,-2.99,13653.48,3427.07,-3.00,20298.07,2971.87,-2.99,17994.51,1591.78,-2.94,2078.70
1892500,766.01,646.75,1.00,3,3,3,3941.28,-3.01,103088.32,4315.56,-3.02,88588.49,3731.20,-3.01,20942.70,3069.90,-2.98,6734.65,1456.61,-2.92,9363.68
1907700,695.41,638.60,1.00,3,3,3,4675.31,-3.03,48486.76,4618.89,-3.02,19956.67,3416.90,-3.01,20707.72,2795.11,-2.98,18109.08,1338.57,-2.91,7813.05
1922200,629.83,630.16,1.00,1,1,1,4559.94,-3.01,8974.47,2800.10,-3.00,125525.97,3159.59,-3.00,18044.49,2271.73,-2.96,36225.55,1287.81,-2.91,3500.89
1951100,575.08,621.57,1.00,1,1,1,1917.53,-2.99,91476.97,2174.54,-2.96,21906.88,2269.88,-2.96,30998.87,1937.42,-2.93,11747.06,1388.89,-2.95,3935.15
1966100,535.91,613.06,1.00,1,1,1,2672.35,-2.93,51084.36,1662.29,-2.87,36031.57,1256.34,-2.87,68286.05,1279.66,-2.87,44296.69,3069.90,-2.98,112159.31
1988400,515.34,604.98,1.00,1,1,1,991.06,-2.77,76293.02,514.68,-2.53,53309.03,662.85,-2.57,29291.99,689.96,-2.73,27134.89,2795.11,-2.98,12343.41
2017900,514.03,597.84,1.00,1,1,1,246.35,-1.75,30037.78,431.43,-0.73,25247.15,324.28,-0.87,26250.00,278.06,-2.34,15104.08,2271.73,-2.96,17805.78
2032700,529.62,592.28,1.00,1,1,1,1118.35,-0.34,74727.91,961.01,-0.20,42280.66,717.74,-0.22,33675.29,96.81,-1.75,13827.17,1937.42,-2.93,22938.52
2062600,556.10,589.14,1.00,1,1,1,891.76,-0.12,10659.91,1018.99,-0.05,5381.26,992.95,-0.04,10578.49,324.28,-0.87,9134.61,1279.66,-2.87,22222.42
2085300,583.14,589.49,1.00,1,1,1,1191.62,0.01,14478.55,1063.23,0.14,8896.72,546.77,0.31,22692.04,717.74,-0.22,21955.70,689.96,-2.73,26656.74
2100000,595.48,594.60,1.00,1,1,1,908.60,0.39,32921.26,675.08,2.15,101025.25,1063.23,0.14,36268.56,992.95,-0.04,21516.80,278.06,-2.34,30310.91
2114600,572.24,606.00,1.00,1,1,1,1772.99,2.69,169157.45,1772.99,2.69,84867.39,675.08,2.15,101717.20,546.77,0.31,35281.46,96.81,-1.75,14016.58
