@RELATION gaze_labels

%@METADATA width_px 1920
%@METADATA height_px 1080
%@METADATA width_mm 540.00
%@METADATA height_mm 254.00
%@METADATA distance_mm 620.00


@ATTRIBUTE time INTEGER
@ATTRIBUTE x NUMERIC
@ATTRIBUTE y NUMERIC
@ATTRIBUTE confidence NUMERIC
@ATTRIBUTE handlabeller1 INTEGER
@ATTRIBUTE handlabeller2 INTEGER
@ATTRIBUTE handlabeller_final INTEGER
@ATTRIBUTE speed_1 numeric
@ATTRIBUTE direction_1 numeric
@ATTRIBUTE acceleration_1 numeric
@ATTRIBUTE speed_2 numeric
@ATTRIBUTE direction_2 numeric
@ATTRIBUTE acceleration_2 numeric
@ATTRIBUTE speed_4 numeric
@ATTRIBUTE direction_4 numeric
@ATTRIBUTE acceleration_4 numeric
@ATTRIBUTE speed_8 numeric
@ATTRIBUTE direction_8 numeric
@ATTRIBUTE acceleration_8 numeric
@ATTRIBUTE speed_16 numeric
@ATTRIBUTE direction_16 numeric
@ATTRIBUTE acceleration_16 numeric

%The number after speed, direction denotes the step size that was used for the calculation.
%Acceleration was calculated between two adjacent samples of the already low pass filtered velocity

@DATA
0,1331.70,867.84,1.00,1,1,1,0.00,0.00,0.00,357.84,-1.35,0.00,2243.95,-3.07,0.00,733.03,-2.98,0.00,330.29,-3.01,0.00
22300,1333.47,860.06,1.00,1,1,1,357.84,-1.35,16046.42,2243.95,-3.07,104323.00,3459.56,3.09,56592.38,821.77,3.01,10848.96,291.27,-3.14,2513.96
37300,1248.19,862.19,1.00,1,1,1,5686.71,3.12,385665.92,3459.56,3.09,84134.00,733.03,-2.98,183194.79,902.36,0.13,113982.20,229.06,-0.07,34663.76
53200,1226.72,865.85,1.00,1,1,1,1369.76,2.97,272675.74,1062.28,-0.07,284383.40,821.77,3.01,15215.84,1027.25,-0.04,13093.50,613.22,2.56,51615.45
69000,1281.78,859.73,1.00,1,1,1,3505.89,-0.11,308480.34,1766.52,0.02,45229.45,902.36,0.13,108210.95,330.29,-3.01,85662.68,780.78,2.33,14631.63
84800,1282.54,866.71,1.00,1,1,1,444.70,1.46,223729.17,792.83,0.40,68052.24,1027.25,-0.04,13176.37,291.27,-3.14,3548.18,798.37,2.48,7567.09
100500,1304.75,869.53,1.00,1,1,1,1425.91,0.13,88624.27,294.81,-0.42,40134.39,116.55,0.31,58522.59,229.06,-0.07,33118.25,1675.04,2.84,61893.31
115700,1290.86,863.01,1.00,1,1,1,1008.97,-2.70,158294.72,574.32,-2.70,52539.69,257.97,-0.44,12518.29,613.22,2.56,53992.48,1283.30,2.68,29998.25
131400,1288.70,861.94,1.00,1,1,1,153.54,-2.68,54488.30,222.03,-0.47,46572.27,332.10,-2.76,34519.91,780.78,2.33,14724.83,810.93,2.85,31846.47
147200,1297.09,859.82,1.00,2,2,2,547.33,-0.25,42497.47,176.89,-2.90,23666.07,1844.13,2.79,102050.36,798.37,2.48,7567.09,1082.41,2.85,17190.85
178900,1280.55,859.92,1.00,2,2,2,521.76,3.14,33479.48,3213.32,2.78,96820.16,1331.58,2.38,25667.02,1675.04,2.84,30653.78,819.55,2.76,8763.14
194700,1154.21,913.50,1.00,3,3,3,8685.75,2.74,519409.57,2585.57,2.32,92003.36,1492.98,2.50,14973.73,1283.30,2.68,28859.07,686.68,2.69,9055.41
225900,1197.49,948.62,1.00,1,1,1,1786.59,0.68,309398.87,901.16,0.79,86596.63,3097.87,2.78,54740.74,1204.13,2.76,3868.30,531.33,2.68,4981.64
241600,1183.80,943.67,1.00,1,1,1,926.96,-2.79,170672.61,4581.40,-3.13,335039.39,754.56,2.43,153002.89,1665.03,2.82,29850.58,635.23,2.76,7280.60
257300,1053.65,946.54,1.00,1,1,1,8292.29,3.12,473595.24,2360.17,3.03,144061.30,1304.14,-3.06,60311.92,1755.85,2.80,6288.75,776.21,2.85,9814.59
273400,1109.25,952.30,1.00,1,1,1,3471.99,0.10,729509.37,909.16,-0.16,203026.34,2037.83,3.09,47537.44,757.42,2.78,62027.25,689.29,2.84,5430.72
304200,1095.75,939.82,1.00,1,1,1,596.76,-2.40,128757.16,1823.94,-3.13,88449.25,423.27,2.93,52654.76,426.01,-2.87,15705.48,1204.13,2.76,16882.81
319800,1024.62,951.22,1.00,1,1,1,4617.75,2.98,274044.45,2387.55,2.96,44504.03,836.24,3.07,26975.70,549.42,-3.08,10112.76,1665.03,2.82,30041.93
336000,1021.08,953.55,1.00,1,1,1,261.74,2.56,270391.10,384.99,0.45,167171.02,590.68,-0.19,87940.10,177.10,-0.36,44107.90,1755.85,2.80,6094.65
358700,1038.12,957.71,1.00,1,1,1,772.76,0.24,42742.51,3057.00,-0.19,121412.94,1120.73,-0.16,23373.40,228.67,-2.46,15534.79,757.42,2.78,43992.90
374400,1136.46,931.94,1.00,1,1,1,6475.25,-0.26,369880.32,2135.84,-0.29,61123.69,857.55,-0.28,18245.52,590.68,-0.19,48275.96,426.01,-2.87,30810.75
390100,1102.38,938.50,1.00,2,2,2,2210.89,2.95,553027.58,1901.19,3.05,255868.02,667.33,-0.60,19541.53,1120.73,-0.16,33794.66,549.42,-3.08,10048.35
405200,1078.15,937.29,1.00,2,2,2,1606.42,-3.09,49966.07,526.26,-2.73,96892.18,1901.19,3.05,165955.74,857.55,-0.28,18970.51,177.10,-0.36,47321.05
435500,1080.50,928.89,1.00,2,2,2,287.79,-1.30,55891.45,287.79,-1.30,18589.45,526.26,-2.73,48286.20,667.33,-0.60,10125.48,228.67,-2.46,11638.27
