%@metadata width_px 1920.0
%@metadata height_px 1080.0
%@metadata width_mm 540.0
%@metadata height_mm 254.0
%@metadata distance_mm 620.0
% The number after speed, direction denotes the step size that was used for the calculation.
% Acceleration was calculated between two adjacent samples of the already low pass filtered velocity
@RELATION gaze_labels

@ATTRIBUTE time INTEGER
@ATTRIBUTE x NUMERIC
@ATTRIBUTE y NUMERIC
@ATTRIBUTE confidence NUMERIC
@ATTRIBUTE handlabeller_final INTEGER
@ATTRIBUTE EYE_MOVEMENT_TYPE {UNKNOWN, FIX, SACCADE, SP, NOISE, BLINK, NOISE_CLUSTER, PSO}

@DATA
0,269.14,605.76,1.0,1,FIX
14000,289.18,594.06,1.0,1,FIX
28500,287.45,635.39,1.0,1,FIX
43400,296.1,618.86,1.0,1,FIX
57700,281.28,587.55,1.0,1,FIX
79300,290.76,593.76,1.0,1,FIX
93700,273.1,567.1,1.0,1,FIX
108400,255.3,589.41,1.0,1,FIX
122800,269.87,598.99,1.0,1,FIX
144000,268.45,576.89,1.0,1,FIX
158600,272.69,550.56,1.0,1,FIX
173000,270.91,596.97,1.0,1,FIX
187500,288.3,600.67,1.0,1,FIX
201800,272.37,531.31,1.0,1,FIX
223500,277.8,556.53,1.0,1,FIX
252600,279.15,563.57,1.0,1,FIX
266600,286.71,543.08,1.0,1,FIX
287900,288.23,617.33,1.0,1,FIX
316100,260.77,569.82,1.0,1,FIX
330700,265.02,603.28,1.0,1,FIX
352100,276.39,604.89,1.0,1,FIX
366600,275.58,555.78,1.0,1,FIX
380900,308.2,599.96,1.0,1,FIX
395800,272.06,585.82,1.0,1,FIX
410800,261.97,571.1,1.0,1,FIX
432300,305.26,550.72,1.0,1,FIX
446700,324.98,566.16,1.0,2,SACCADE
461300,305.79,590.98,1.0,2,SACCADE
475500,290.23,574.02,1.0,2,SACCADE
489600,396.35,545.29,1.0,3,SP
511400,689.52,548.61,1.0,1,FIX
525600,741.52,544.72,1.0,1,FIX
540000,746.99,492.29,1.0,1,FIX
554100,719.63,531.33,1.0,1,FIX
575900,672.91,523.47,1.0,1,FIX
590500,667.91,544.79,1.0,1,FIX
605400,774.18,539.39,1.0,1,FIX
633900,664.43,589.09,1.0,1,FIX
655000,643.14,516.31,1.0,2,SACCADE
683400,625.04,523.71,1.0,2,SACCADE
697800,688.71,535.07,1.0,3,SP
718700,1040.52,523.9,1.0,1,FIX
732700,1036.19,539.39,1.0,1,FIX
746700,1021.33,514.43,1.0,1,FIX
768200,1105.45,535.21,1.0,1,FIX
781700,1011.64,580.77,1.0,1,FIX
796600,1067.96,501.04,1.0,1,FIX
811100,1090.66,510.94,1.0,1,FIX
826100,998.57,507.18,1.0,1,FIX
847900,1039.26,497.81,1.0,1,FIX
862000,1001.53,539.11,1.0,1,FIX
876000,1056.76,509.28,1.0,1,FIX
890900,1039.8,521.23,1.0,1,FIX
912100,1060.78,505.5,1.0,1,FIX
926100,1065.04,540.13,1.0,1,FIX
940900,1026.11,511.08,1.0,1,FIX
955600,1070.52,502.26,1.0,1,FIX
969900,1035.36,515.17,1.0,1,FIX
1005000,1041.26,516.52,1.0,1,FIX
1019700,1110.12,542.36,1.0,1,FIX
1055600,1067.71,499.8,1.0,1,FIX
1069500,1082.5,518.97,1.0,2,FIX
1083500,999.89,505.77,1.0,2,SACCADE
1098000,1090.81,532.74,1.0,2,SACCADE
1119200,1111.71,548.66,1.0,3,SP
1133100,1227.18,608.83,1.0,1,FIX
1147900,1416.99,577.12,1.0,1,FIX
1162100,1385.49,583.11,1.0,1,FIX
1183200,1373.04,565.83,1.0,1,FIX
1198000,1401.61,564.51,1.0,1,FIX
1212600,1427.6,563.8,1.0,1,FIX
1241700,1413.49,542.59,1.0,1,FIX
1262400,1395.21,528.25,1.0,4,FIX
1276700,1450.13,540.52,1.0,4,FIX
1290800,1410.32,546.01,1.0,4,FIX
1312700,1361.16,542.61,1.0,4,NOISE
1327100,1433.91,543.06,1.0,4,NOISE
1341400,1406.58,552.3,1.0,4,NOISE
1369600,1100.79,733.83,1.0,4,NOISE
1390700,789.63,1173.81,1.0,4,NOISE
1404900,720.24,1323.41,1.0,4,NOISE
1433600,688.02,1325.81,1.0,4,NOISE
1456100,658.53,1312.25,1.0,4,NOISE
1470800,624.32,1252.54,1.0,4,NOISE
1484800,629.03,1126.97,1.0,4,NOISE
1499400,632.52,1000.64,1.0,4,NOISE
1513500,715.37,1025.68,1.0,4,NOISE
1535000,750.79,845.24,1.0,4,NOISE
1549400,865.15,775.8,1.0,4,NOISE
1563600,887.99,740.88,1.0,4,NOISE
1578500,984.78,681.23,1.0,4,FIX
1600800,1015.7,710.3,1.0,4,FIX
1615100,1017.93,663.05,1.0,1,FIX
1629700,943.93,634.09,1.0,1,FIX
1643600,976.71,620.38,1.0,1,FIX
1657700,1054.21,611.12,1.0,1,FIX
1679000,1017.99,597.71,1.0,1,FIX
1707100,1000.77,625.13,1.0,1,FIX
1721800,976.81,572.79,1.0,1,FIX
1757500,1001.89,543.14,1.0,1,FIX
1771500,1043.04,562.58,1.0,1,FIX
1808200,1084.37,487.77,1.0,1,FIX
1822300,1042.5,565.1,1.0,1,FIX
1836900,993.62,560.57,1.0,1,FIX
1850900,992.47,588.47,1.0,1,FIX
1865700,986.17,530.12,1.0,1,FIX
1886600,988.26,560.92,1.0,1,FIX
1900600,1002.7,579.26,1.0,1,FIX
1915100,1068.19,575.6,1.0,1,FIX
1930000,997.15,552.65,1.0,1,FIX
1951400,1047.54,576.88,1.0,1,FIX
1965500,1046.39,507.83,1.0,1,FIX
1979900,962.8,560.23,1.0,1,FIX
1994600,1014.15,547.52,1.0,1,FIX
2015600,1039.57,526.26,1.0,1,FIX
