%@metadata width_px 1920.0
%@metadata height_px 1080.0
%@metadata width_mm 540.0
%@metadata height_mm 254.0
%@metadata distance_mm 620.0
% The number after speed, direction denotes the step size that was used for the calculation.
% Acceleration was calculated between two adjacent samples of the already low pass filtered velocity
@RELATION gaze_labels

@ATTRIBUTE time INTEGER
@ATTRIBUTE x NUMERIC
@ATTRIBUTE y NUMERIC
@ATTRIBUTE confidence NUMERIC
@ATTRIBUTE handlabeller_final INTEGER
@ATTRIBUTE EYE_MOVEMENT_TYPE {UNKNOWN, FIX, SACCADE, SP, NOISE, BLINK, NOISE_CLUSTER, PSO}

@DATA
0,197.47,531.08,1.0,1,FIX
14500,202.5,533.18,1.0,1,FIX
36500,215.02,544.45,1.0,1,FIX
51000,209.21,525.66,1.0,1,FIX
65200,220.8,587.37,1.0,1,FIX
79800,204.19,544.44,1.0,1,FIX
93800,204.1,566.01,1.0,1,FIX
114800,222.29,532.59,1.0,1,FIX
129700,210.78,565.42,1.0,1,FIX
143800,200.53,572.36,1.0,1,FIX
158000,173.42,533.59,1.0,1,FIX
179200,219.8,531.34,1.0,1,FIX
207400,207.5,512.38,1.0,2,SACCADE
222400,206.94,521.12,1.0,2,SACCADE
243900,235.85,531.26,1.0,3,SP
272500,323.73,576.54,1.0,1,FIX
286700,294.48,533.86,1.0,1,FIX
308200,446.39,547.72,1.0,1,FIX
322400,366.52,566.39,1.0,1,FIX
336400,398.95,535.71,1.0,1,FIX
350400,298.66,553.91,1.0,1,FIX
372500,346.1,568.61,1.0,1,FIX
386700,345.47,530.68,1.0,1,FIX
401400,367.28,532.25,1.0,1,FIX
415400,421.22,531.74,1.0,1,FIX
429900,374.28,564.43,1.0,1,FIX
450800,421.33,548.61,1.0,1,FIX
464800,310.76,548.2,1.0,1,SACCADE
479400,306.67,568.34,1.0,2,SACCADE
500700,464.15,544.78,1.0,2,SACCADE
514500,391.52,532.04,1.0,3,SP
529500,871.26,503.85,1.0,1,FIX
543700,904.62,504.73,1.0,1,FIX
564600,967.71,492.48,1.0,1,FIX
592800,947.36,480.4,1.0,1,FIX
606900,919.6,542.23,1.0,1,FIX
642600,951.03,444.31,1.0,1,FIX
656700,862.25,487.57,1.0,1,FIX
671100,845.11,515.18,1.0,1,FIX
692300,958.25,490.93,1.0,1,FIX
706700,910.64,511.1,1.0,1,FIX
721100,929.51,473.64,1.0,1,FIX
735200,884.98,506.22,1.0,1,FIX
749800,938.41,478.97,1.0,1,FIX
771100,870.8,496.26,1.0,1,FIX
785300,911.91,496.49,1.0,1,FIX
799700,956.2,499.74,1.0,2,SACCADE
814300,930.95,506.97,1.0,2,SACCADE
836000,887.4,464.35,1.0,2,SACCADE
850700,1072.23,466.01,1.0,3,FIX
865000,1239.2,514.69,1.0,1,FIX
879900,1294.69,490.83,1.0,1,FIX
894200,1303.82,495.67,1.0,1,FIX
914800,1327.36,495.49,1.0,1,FIX
929500,1283.85,493.81,1.0,1,FIX
957900,1238.91,490.63,1.0,1,FIX
979500,1292.14,511.8,1.0,1,FIX
994300,1263.94,509.03,1.0,1,FIX
1023200,1291.29,490.79,1.0,4,FIX
1044100,1315.14,463.99,1.0,4,FIX
1057900,1280.27,468.61,1.0,4,FIX
1072500,1288.49,491.01,1.0,4,FIX
1086800,1259.77,490.45,1.0,4,SACCADE
1108100,1286.21,513.03,1.0,4,NOISE
1122700,1289.48,567.93,1.0,4,NOISE
1137200,1034.61,647.16,1.0,4,NOISE
1151400,634.32,1127.72,1.0,4,NOISE
1165800,676.98,1326.24,1.0,4,NOISE
1186900,645.76,1118.49,1.0,4,NOISE
1201200,671.86,961.35,1.0,4,NOISE
1215100,1053.65,766.67,1.0,4,NOISE
1236500,1104.61,651.17,1.0,4,NOISE
1251500,1270.85,637.39,1.0,4,FIX
1265500,1238.31,614.8,1.0,4,FIX
1279800,1394.21,618.88,1.0,4,FIX
1294100,1394.21,618.88,1.0,4,FIX
1315600,1304.64,595.31,1.0,4,FIX
1343500,1401.39,610.5,1.0,1,FIX
1357900,1311.49,625.34,1.0,1,FIX
1394000,1449.24,587.74,1.0,2,SACCADE
1408500,1399.43,601.59,1.0,2,SACCADE
1422800,1355.41,532.56,1.0,2,SACCADE
1437900,1237.54,570.55,1.0,1,FIX
1460200,1013.2,588.61,1.0,1,FIX
1474100,921.76,533.75,1.0,1,FIX
1488200,943.42,502.81,1.0,1,FIX
1503100,965.5,512.69,1.0,1,FIX
1524200,935.58,526.22,1.0,0,UNKNOWN
1538200,954.67,495.8,1.0,0,UNKNOWN
1552700,960.25,511.01,1.0,0,UNKNOWN
1567300,934.47,508.58,1.0,0,UNKNOWN
1582800,827.24,555.52,1.0,0,UNKNOWN
1604600,970.81,499.93,1.0,0,UNKNOWN
1619400,942.22,512.39,1.0,0,UNKNOWN
1633500,908.89,492.56,1.0,0,UNKNOWN
1647400,927.02,488.63,1.0,0,UNKNOWN
1668500,987.78,480.48,1.0,0,UNKNOWN
1682600,974.32,509.9,1.0,0,UNKNOWN
