%@metadata width_px 1920.0
%@metadata height_px 1080.0
%@metadata width_mm 540.0
%@metadata height_mm 254.0
%@metadata distance_mm 620.0
% The number after speed, direction denotes the step size that was used for the calculation.
% Acceleration was calculated between two adjacent samples of the already low pass filtered velocity
@RELATION gaze_labels

@ATTRIBUTE time INTEGER
@ATTRIBUTE x NUMERIC
@ATTRIBUTE y NUMERIC
@ATTRIBUTE confidence NUMERIC
@ATTRIBUTE handlabeller_final INTEGER
@ATTRIBUTE EYE_MOVEMENT_TYPE {UNKNOWN, FIX, SACCADE, SP, NOISE, BLINK, NOISE_CLUSTER, PSO}

@DATA
0,9.65,571.34,1.0,1,FIX
14700,37.87,537.36,1.0,1,FIX
44000,24.06,553.51,1.0,1,FIX
66100,29.98,545.9,1.0,1,FIX
81100,89.18,510.09,1.0,1,FIX
95500,113.7,524.64,1.0,1,FIX
110200,115.32,469.39,1.0,1,FIX
124900,45.79,600.4,1.0,1,SACCADE
139900,125.9,486.56,1.0,2,SACCADE
161500,112.92,600.41,1.0,2,SP
191200,355.47,654.15,1.0,1,FIX
205100,411.53,624.12,1.0,1,FIX
220000,548.97,587.93,1.0,1,FIX
256600,547.98,533.31,1.0,1,FIX
271200,561.29,562.73,1.0,1,FIX
286000,535.09,545.62,1.0,1,FIX
300300,506.22,513.67,1.0,1,FIX
322900,481.27,507.39,1.0,2,FIX
337400,522.99,560.78,1.0,2,SACCADE
352000,533.46,573.46,1.0,2,SACCADE
366700,565.44,541.58,1.0,3,SP
381400,736.95,563.95,1.0,1,FIX
396100,971.61,643.63,1.0,1,FIX
418000,986.58,580.45,1.0,1,FIX
432200,985.17,586.07,1.0,1,FIX
446800,953.24,588.84,1.0,1,FIX
461500,942.2,583.25,1.0,1,FIX
476200,928.3,567.69,1.0,1,FIX
498400,979.97,581.42,1.0,1,FIX
513000,934.9,638.82,1.0,1,SACCADE
527700,902.28,578.54,1.0,2,SACCADE
542400,927.22,609.34,1.0,2,SP
571900,1121.85,584.63,1.0,3,FIX
594000,1230.56,597.06,1.0,1,FIX
623600,1319.26,535.24,1.0,1,FIX
638100,1327.54,557.19,1.0,1,FIX
652900,1338.07,552.87,1.0,1,FIX
675000,1320.65,571.0,1.0,1,FIX
689800,1339.68,567.82,1.0,1,FIX
704400,1356.93,538.91,1.0,1,FIX
719200,1317.0,550.32,1.0,1,FIX
733800,1340.14,568.48,1.0,1,FIX
748200,1358.8,565.0,1.0,1,FIX
770600,1344.1,567.82,1.0,1,FIX
785200,1379.51,533.43,1.0,2,FIX
799800,1384.15,570.25,1.0,2,SACCADE
814500,1297.37,576.16,1.0,2,SACCADE
829300,1265.68,582.53,1.0,2,SACCADE
844000,1132.35,486.93,1.0,2,SACCADE
866600,925.26,570.87,1.0,2,FIX
880900,792.29,659.92,1.0,2,FIX
895800,700.42,570.59,1.0,1,FIX
910700,675.37,557.9,1.0,1,FIX
940900,663.3,565.79,1.0,1,FIX
956200,653.27,558.74,1.0,1,FIX
978000,659.11,582.85,1.0,1,FIX
1007800,665.84,589.37,1.0,1,FIX
1022700,676.96,526.75,1.0,1,FIX
1037700,586.91,595.83,1.0,1,FIX
1052000,586.91,595.83,1.0,1,FIX
1074100,690.62,539.57,1.0,1,FIX
1088900,687.91,554.41,1.0,1,FIX
1103500,672.46,537.93,1.0,1,FIX
1118300,647.38,562.42,1.0,1,FIX
1148300,667.03,569.63,1.0,1,FIX
1170500,696.72,536.81,1.0,1,FIX
1185200,668.61,550.5,1.0,1,FIX
1199900,631.53,570.37,1.0,2,FIX
1214600,653.99,508.05,1.0,2,SACCADE
1228800,629.47,576.08,1.0,2,SACCADE
1243900,614.31,550.56,1.0,1,SP
1265700,580.36,457.03,1.0,1,FIX
1280400,540.75,429.12,1.0,1,FIX
1295100,542.53,508.29,1.0,1,FIX
1324500,491.16,478.19,1.0,1,FIX
1346900,532.14,462.99,1.0,1,FIX
1376400,501.71,448.69,1.0,1,SACCADE
1391200,554.24,434.82,1.0,1,SACCADE
1405800,527.44,450.37,1.0,1,SP
1420500,478.45,451.11,1.0,2,FIX
