%@metadata width_px 1920.0
%@metadata height_px 1080.0
%@metadata width_mm 540.0
%@metadata height_mm 254.0
%@metadata distance_mm 620.0
% The number after speed, direction denotes the step size that was used for the calculation.
% Acceleration was calculated between two adjacent samples of the already low pass filtered velocity
@RELATION gaze_labels

@ATTRIBUTE time INTEGER
@ATTRIBUTE x NUMERIC
@ATTRIBUTE y NUMERIC
@ATTRIBUTE confidence NUMERIC
@ATTRIBUTE handlabeller_final INTEGER
@ATTRIBUTE EYE_MOVEMENT_TYPE {UNKNOWN, FIX, SACCADE, SP, NOISE, BLINK, NOISE_CLUSTER, PSO}

@DATA
0,567.93,335.04,1.0,2,SACCADE
14200,533.53,327.13,1.0,2,SACCADE
29000,526.11,342.87,1.0,3,NOISE
43600,383.45,349.67,1.0,3,NOISE
58900,118.0,464.91,1.0,1,FIX
81600,183.54,382.63,1.0,1,FIX
96000,124.59,479.63,1.0,1,FIX
110500,70.92,415.68,1.0,1,FIX
139800,39.58,426.09,1.0,1,FIX
154500,66.99,493.52,1.0,1,FIX
176900,84.4,418.42,1.0,1,FIX
191700,88.3,447.68,1.0,1,FIX
206600,84.81,451.36,1.0,1,FIX
221500,54.93,437.31,1.0,2,SACCADE
236100,64.1,416.47,1.0,2,SACCADE
250800,57.12,413.86,1.0,3,SACCADE
273100,213.44,477.89,1.0,1,FIX
302600,550.75,432.7,1.0,1,FIX
317300,582.44,456.8,1.0,1,FIX
346900,626.78,408.33,1.0,1,FIX
368800,597.86,439.3,1.0,1,FIX
383600,679.18,423.16,1.0,1,FIX
398400,646.09,471.46,1.0,1,FIX
413200,613.28,441.07,1.0,2,FIX
427900,667.11,443.53,1.0,2,SACCADE
442300,590.51,440.85,1.0,2,SACCADE
464400,581.42,486.28,1.0,3,SP
479300,761.13,485.94,1.0,1,FIX
494100,938.51,461.2,1.0,1,FIX
508900,898.14,459.39,1.0,1,FIX
523800,1022.56,461.76,1.0,1,FIX
538500,983.89,443.05,1.0,1,FIX
560600,1049.31,466.52,1.0,1,FIX
575300,985.55,459.45,1.0,1,FIX
590000,1020.21,503.63,1.0,1,FIX
604700,982.07,426.72,1.0,1,FIX
619500,913.45,393.78,1.0,1,FIX
634400,947.17,342.59,1.0,1,FIX
671300,1004.53,485.31,1.0,1,FIX
686000,920.85,490.39,1.0,1,FIX
700700,1004.23,448.82,1.0,1,FIX
715100,965.9,461.14,1.0,1,FIX
752200,1004.08,424.44,1.0,2,FIX
767400,989.26,439.3,1.0,2,SACCADE
782500,981.19,446.91,1.0,3,SACCADE
796900,945.34,452.94,1.0,3,SACCADE
811700,780.21,447.99,1.0,1,FIX
826400,715.59,493.13,1.0,1,FIX
848500,743.51,399.44,1.0,1,FIX
863200,792.06,406.75,1.0,1,FIX
878100,776.35,432.08,1.0,1,FIX
892800,765.33,437.59,1.0,1,FIX
907600,710.09,465.94,1.0,1,FIX
922300,666.79,472.24,1.0,1,FIX
944500,769.33,379.83,1.0,1,FIX
959200,715.69,400.85,1.0,1,FIX
974300,762.48,452.81,1.0,1,FIX
1003800,759.26,394.12,1.0,1,FIX
1018400,757.33,411.78,1.0,1,FIX
1040500,748.93,414.26,1.0,2,SACCADE
1070000,743.56,408.85,1.0,2,SACCADE
1084800,833.92,394.66,1.0,1,FIX
1114400,988.83,375.64,1.0,1,FIX
1136600,957.3,478.91,1.0,1,FIX
1151200,988.28,445.83,1.0,1,FIX
1165900,997.13,402.95,1.0,1,FIX
1180800,1011.32,431.99,1.0,1,FIX
1195800,997.41,525.32,1.0,1,FIX
1210500,932.24,423.88,1.0,1,FIX
1232700,950.99,406.91,1.0,1,FIX
1247400,916.1,469.13,1.0,1,FIX
1262000,985.73,411.44,1.0,2,FIX
1276400,972.19,438.74,1.0,2,SACCADE
1290900,955.74,436.73,1.0,2,SACCADE
1312900,1059.34,523.62,1.0,3,SP
1327500,1260.37,466.32,1.0,1,FIX
1342200,1343.04,553.59,1.0,1,FIX
1356900,1392.14,530.63,1.0,1,FIX
1371200,1366.26,457.49,1.0,1,FIX
1386300,1375.55,445.46,1.0,1,FIX
1408000,1373.68,446.87,1.0,1,FIX
1437400,1415.89,411.29,1.0,1,FIX
1452300,1340.46,380.6,1.0,1,FIX
1466700,1452.22,445.65,1.0,1,FIX
1503300,1389.84,476.64,1.0,1,FIX
1518100,1377.14,455.14,1.0,1,FIX
1532400,1397.33,417.2,1.0,2,FIX
1547100,1357.08,429.61,1.0,2,SACCADE
1569400,1376.93,505.29,1.0,3,SACCADE
1584200,1372.16,405.85,1.0,3,SACCADE
1599400,1252.65,403.74,1.0,1,FIX
1614200,1248.57,467.23,1.0,1,FIX
1628900,1180.71,447.18,1.0,1,FIX
1643500,1186.51,385.41,1.0,1,FIX
1658300,1110.53,415.46,1.0,1,FIX
1680600,1189.75,475.37,1.0,1,FIX
1695500,1234.68,523.54,1.0,1,FIX
1710200,1250.59,436.31,1.0,1,FIX
1724900,1171.84,464.77,1.0,1,FIX
1739600,1186.79,420.33,1.0,1,FIX
1754300,1194.79,418.41,1.0,1,FIX
1776400,1152.29,443.89,1.0,2,SACCADE
1791000,1170.89,463.39,1.0,2,SACCADE
1820300,1025.73,432.78,1.0,2,SP
1835000,934.17,420.45,1.0,3,FIX
1871900,820.37,435.15,1.0,1,FIX
1886600,803.4,405.47,1.0,1,FIX
1901200,798.88,448.78,1.0,1,FIX
1915900,806.97,402.1,1.0,1,FIX
1931000,788.89,402.05,1.0,1,FIX
1953200,816.98,422.24,1.0,1,FIX
1968400,744.29,442.31,1.0,1,FIX
1983200,762.89,420.27,1.0,2,FIX
1997900,720.19,449.22,1.0,2,FIX
2012500,757.31,439.9,1.0,2,SACCADE
2027000,755.56,459.84,1.0,3,SACCADE
2049700,653.87,400.62,1.0,1,NOISE
2063500,559.82,418.24,1.0,1,NOISE
2078300,406.94,482.4,1.0,1,NOISE
2092900,420.82,497.47,1.0,1,NOISE
2107600,411.13,451.03,1.0,1,NOISE
2122300,406.18,451.39,1.0,1,NOISE
2144700,408.98,422.89,1.0,1,NOISE
2159600,343.17,488.43,1.0,2,NOISE
2189000,386.07,457.09,1.0,3,NOISE
2203700,492.4,461.03,1.0,3,NOISE
2218400,604.61,486.16,1.0,3,NOISE
2255400,635.25,446.87,1.0,1,NOISE
2270200,612.1,474.6,1.0,1,NOISE
2286500,734.65,443.96,1.0,1,FIX
2301300,700.26,408.21,1.0,1,FIX
2315900,706.86,416.0,1.0,1,FIX
2330700,713.18,415.91,1.0,1,FIX
2352800,674.89,394.96,1.0,2,FIX
2368100,677.67,419.13,1.0,2,SACCADE
2383100,705.34,394.58,1.0,2,SACCADE
2397400,703.21,400.76,1.0,3,SACCADE
2412100,786.38,421.61,1.0,3,FIX
2426800,921.31,454.86,1.0,1,FIX
2449000,893.09,407.43,1.0,1,FIX
2463700,928.45,406.55,1.0,1,FIX
2478400,922.22,452.87,1.0,1,FIX
2507700,962.6,436.8,1.0,1,FIX
2522300,923.38,454.38,1.0,1,FIX
2544600,841.43,418.17,1.0,1,FIX
