%@metadata width_px 1920.0
%@metadata height_px 1080.0
%@metadata width_mm 540.0
%@metadata height_mm 254.0
%@metadata distance_mm 620.0
% The number after speed, direction denotes the step size that was used for the calculation.
% Acceleration was calculated between two adjacent samples of the already low pass filtered velocity
@RELATION gaze_labels

@ATTRIBUTE time INTEGER
@ATTRIBUTE x NUMERIC
@ATTRIBUTE y NUMERIC
@ATTRIBUTE confidence NUMERIC
@ATTRIBUTE handlabeller_final INTEGER
@ATTRIBUTE EYE_MOVEMENT_TYPE {UNKNOWN, FIX, SACCADE, SP, NOISE, BLINK, NOISE_CLUSTER, PSO}

@DATA
0,242.97,406.39,1.0,1,FIX
22100,189.85,388.53,1.0,1,FIX
36800,142.66,429.27,1.0,1,FIX
51400,71.1,440.1,1.0,1,FIX
80900,171.2,515.14,1.0,1,FIX
95600,195.93,427.79,1.0,1,FIX
117800,192.31,434.85,1.0,1,FIX
147400,99.69,384.97,1.0,1,FIX
162400,170.1,408.43,1.0,1,FIX
177000,83.38,427.04,1.0,1,FIX
191700,112.06,466.69,1.0,1,FIX
214000,164.71,434.03,1.0,2,FIX
228700,135.87,464.52,1.0,2,SACCADE
243500,189.0,453.83,1.0,2,SACCADE
258200,189.0,453.83,1.0,2,SACCADE
273000,512.23,571.1,1.0,3,FIX
287700,549.67,571.07,1.0,1,FIX
309900,653.98,498.78,1.0,1,FIX
339300,790.08,505.35,1.0,1,FIX
354100,748.61,420.13,1.0,1,FIX
369200,751.52,517.45,1.0,1,FIX
383800,746.64,475.38,1.0,1,FIX
405800,769.97,441.33,1.0,1,FIX
420600,808.57,454.03,1.0,1,FIX
435500,705.95,492.04,1.0,1,FIX
464900,799.74,480.89,1.0,1,FIX
479600,732.68,496.93,1.0,2,SACCADE
516700,823.95,443.7,1.0,3,SACCADE
531300,740.12,402.37,1.0,3,SP
546000,664.82,410.02,1.0,1,FIX
560700,527.09,457.83,1.0,1,FIX
575700,523.28,460.86,1.0,1,FIX
597800,421.65,472.76,1.0,1,FIX
612500,432.82,494.53,1.0,1,FIX
627100,478.93,482.2,1.0,1,FIX
641700,411.45,466.9,1.0,1,FIX
656500,426.05,479.16,1.0,1,FIX
671700,473.22,472.18,1.0,1,FIX
693500,466.64,520.15,1.0,1,FIX
708300,424.33,501.41,1.0,2,FIX
723000,369.9,549.92,1.0,2,SACCADE
737700,497.69,490.49,1.0,2,SACCADE
752400,525.87,519.2,1.0,2,SP
774600,696.14,476.03,1.0,1,FIX
789300,779.3,522.72,1.0,1,FIX
803900,904.82,480.4,1.0,1,FIX
833400,825.84,423.62,1.0,1,FIX
848200,902.12,516.85,1.0,1,FIX
885300,872.37,424.13,1.0,1,FIX
900000,913.32,416.13,1.0,1,FIX
914900,832.41,490.36,1.0,1,FIX
929600,859.32,446.85,1.0,2,FIX
944400,861.72,475.41,1.0,2,SACCADE
966200,858.94,443.91,1.0,2,SACCADE
980900,910.97,430.83,1.0,3,SP
997000,1168.25,466.26,1.0,1,FIX
1011200,1286.36,471.88,1.0,1,FIX
1025900,1344.77,477.54,1.0,1,FIX
1040600,1341.94,481.45,1.0,1,FIX
1062300,1355.78,507.3,1.0,1,FIX
1077100,1349.75,502.08,1.0,1,FIX
1091800,1313.63,490.94,1.0,1,FIX
1106700,1382.37,511.96,1.0,1,FIX
1121300,1352.96,530.76,1.0,1,FIX
1136000,1338.84,447.58,1.0,1,FIX
1158300,1349.11,494.0,1.0,1,FIX
1173200,1344.48,470.83,1.0,1,FIX
1203200,1344.42,473.21,1.0,2,FIX
1217800,1362.94,548.37,1.0,3,FIX
1232300,1285.39,493.45,1.0,1,FIX
1269400,1240.83,479.73,1.0,1,FIX
1284100,1254.61,511.48,1.0,1,FIX
1298800,1246.79,457.13,1.0,1,FIX
1313600,1186.29,461.46,1.0,2,FIX
1328500,1257.89,461.43,1.0,2,SACCADE
1350700,1159.6,472.39,1.0,3,SACCADE
1365000,1237.98,536.86,1.0,1,SP
1379800,1381.72,494.4,1.0,1,FIX
1394500,1501.58,491.29,1.0,1,FIX
1409100,1472.39,503.16,1.0,1,FIX
1423800,1486.51,478.81,1.0,1,FIX
1446200,1495.62,486.54,1.0,1,FIX
1461000,1478.03,473.26,1.0,1,FIX
1475700,1547.92,576.79,1.0,1,FIX
1505000,1499.75,563.54,1.0,2,SACCADE
1519500,1509.16,501.79,1.0,2,SACCADE
1541700,1518.38,537.29,1.0,2,SACCADE
1556500,1408.56,522.43,1.0,2,SP
1585700,929.42,498.23,1.0,3,FIX
1600400,771.53,501.01,1.0,1,FIX
1637700,739.41,429.33,1.0,1,FIX
1652500,716.82,467.75,1.0,1,FIX
1667200,655.07,529.29,1.0,1,FIX
1681900,702.97,488.59,1.0,1,FIX
1696600,686.73,471.15,1.0,1,FIX
1711400,700.99,480.19,1.0,1,FIX
1733600,704.77,449.44,1.0,2,FIX
1748500,661.86,490.13,1.0,2,FIX
1763100,745.83,432.87,1.0,2,FIX
1777700,697.41,454.99,1.0,3,FIX
1792400,621.23,483.1,1.0,3,FIX
1807300,620.38,433.25,1.0,1,FIX
1829600,572.41,470.1,1.0,1,FIX
1844000,578.42,501.22,1.0,1,FIX
1858800,593.73,457.22,1.0,1,FIX
1873500,503.14,490.4,1.0,1,FIX
1888100,556.53,482.37,1.0,1,FIX
1903900,549.63,488.52,1.0,1,FIX
1926200,502.82,500.95,1.0,1,SACCADE
1955700,534.14,489.84,1.0,1,SACCADE
1970300,564.63,430.24,1.0,1,SP
1984900,513.52,480.93,1.0,1,FIX
