@RELATION gaze_labels

%@METADATA width_px 1920
%@METADATA height_px 1080
%@METADATA width_mm 540.00
%@METADATA height_mm 254.00
%@METADATA distance_mm 620.00


@ATTRIBUTE time INTEGER
@ATTRIBUTE x NUMERIC
@ATTRIBUTE y NUMERIC
@ATTRIBUTE confidence NUMERIC
@ATTRIBUTE handlabeller1 INTEGER
@ATTRIBUTE handlabeller2 INTEGER
@ATTRIBUTE handlabeller_final INTEGER
@ATTRIBUTE speed_1 numeric
@ATTRIBUTE direction_1 numeric
@ATTRIBUTE acceleration_1 numeric
@ATTRIBUTE speed_2 numeric
@ATTRIBUTE direction_2 numeric
@ATTRIBUTE acceleration_2 numeric
@ATTRIBUTE speed_4 numeric
@ATTRIBUTE direction_4 numeric
@ATTRIBUTE acceleration_4 numeric
@ATTRIBUTE speed_8 numeric
@ATTRIBUTE direction_8 numeric
@ATTRIBUTE acceleration_8 numeric
@ATTRIBUTE speed_16 numeric
@ATTRIBUTE direction_16 numeric
@ATTRIBUTE acceleration_16 numeric

%The number after speed, direction denotes the step size that was used for the calculation.
%Acceleration was calculated between two adjacent samples of the already low pass filtered velocity

@DATA
0,346.37,440.93,1.00,1,1,1,0.00,0.00,0.00,3419.42,-0.70,0.00,1984.52,-1.41,0.00,839.45,-2.75,0.00,510.58,-1.78,0.00
14100,383.12,409.73,1.00,1,1,1,3419.42,-0.70,242512.26,1984.52,-1.41,163535.17,1805.90,-3.13,203442.79,1147.46,1.77,109801.73,362.88,2.65,49858.27
28300,355.28,385.48,1.00,1,1,1,2600.11,-2.43,323623.47,1805.90,-3.13,202010.09,839.45,-2.75,75459.18,931.42,1.79,15268.03,402.93,2.90,7323.90
42700,331.48,408.94,1.00,1,1,1,2320.56,2.36,232689.49,1904.36,2.61,70451.43,1147.46,1.77,107514.20,669.89,-3.14,71358.76,325.37,1.61,30829.73
64100,296.67,420.30,1.00,1,1,1,1711.23,2.83,51311.09,1930.82,1.20,115839.08,931.42,1.79,10131.12,510.58,-1.78,35027.63,174.01,2.86,14878.50
91600,365.70,496.94,1.00,1,1,1,3750.51,0.84,171339.50,1348.86,0.69,36505.64,669.89,-3.14,37366.04,362.88,2.65,25563.70,522.83,-2.53,15788.58
105600,339.93,455.83,1.00,1,1,1,3465.57,-2.13,513501.82,3601.22,-2.37,353320.98,788.84,-0.96,92330.35,402.93,2.90,7428.52,795.31,-2.34,21371.17
126700,275.21,408.68,1.00,1,1,1,3794.95,-2.51,66987.01,2437.58,-1.67,110465.62,1083.01,-1.99,45073.42,325.37,1.61,21040.20,364.13,1.26,53692.64
140700,331.20,370.71,1.00,1,1,1,4831.58,-0.60,505878.55,2373.18,0.38,294153.40,1075.43,-2.19,15576.07,174.01,2.86,22742.85,257.59,-2.54,42075.33
155200,337.98,433.88,1.00,1,1,1,4381.48,1.46,544910.12,1431.43,2.41,225317.06,1132.40,0.73,151283.81,522.83,-2.53,29943.86,693.44,0.18,64453.25
170300,299.70,399.06,1.00,1,1,1,3427.05,-2.40,483978.42,687.21,1.91,59054.09,1053.89,2.39,106874.69,795.31,-2.34,19814.33,1286.21,0.14,39358.97
191200,329.78,457.23,1.00,1,1,1,3133.38,1.09,308966.34,827.64,2.36,17609.22,446.71,2.82,32356.62,364.13,1.26,54206.45,1712.21,0.10,20531.45
219600,270.64,427.70,1.00,1,1,1,2327.47,-2.68,183019.42,553.67,-2.88,25636.54,630.17,-2.51,18234.63,323.07,2.72,16136.18,1725.94,-0.10,12092.16
255600,295.37,447.89,1.00,1,1,1,886.73,0.68,88845.76,1379.16,-1.89,32503.61,408.42,2.98,12442.04,1476.32,0.06,49133.95,1937.29,-0.14,6205.72
269600,249.15,362.18,1.00,2,2,2,6955.75,-2.07,555910.47,553.77,1.76,134530.83,343.65,-1.34,44707.26,2615.44,0.09,81479.74,2003.56,0.06,27590.20
283600,292.51,463.13,1.00,2,2,2,7847.81,1.17,1056356.79,877.45,0.83,50130.07,3910.50,0.01,274836.93,3189.39,0.01,44029.96,2372.41,0.13,28840.52
319300,278.57,394.37,1.00,3,3,3,1965.27,-1.77,273946.63,6154.24,-0.04,157731.86,6620.64,0.15,78735.00,3522.71,-0.11,14623.55,2116.54,0.11,7260.65
333800,601.16,449.82,1.00,1,1,1,22574.32,0.17,1610856.55,16892.56,0.10,747065.47,7390.99,0.00,89981.92,4630.28,-0.05,78029.66,1984.08,0.04,13940.28
348100,762.80,441.38,1.00,1,1,1,11318.40,-0.05,825303.73,9570.14,0.05,513521.63,8804.95,-0.05,103150.85,5018.38,0.18,81625.49,1842.43,0.05,10069.72
362600,876.39,464.47,1.00,1,1,1,7994.59,0.20,282661.39,3138.29,-0.74,530416.96,5522.20,-0.10,227561.34,4819.41,0.06,44120.16,1973.69,-0.04,14861.76
383800,845.78,366.11,1.00,1,1,1,4859.37,-1.87,527231.73,2589.12,-0.57,34435.39,3066.52,0.25,133823.65,5433.94,0.07,29203.31,2282.08,0.01,15201.20
397900,953.45,415.33,1.00,1,1,1,8396.17,0.43,864418.72,5772.74,0.86,423394.66,1728.20,0.34,96097.48,2620.84,0.02,199933.97,2327.64,-0.06,10998.66
412200,953.28,489.89,1.00,1,1,1,5214.37,1.57,548251.51,3148.39,1.27,219988.89,2377.97,0.53,52674.77,889.37,-0.10,121724.39,3753.67,0.02,101038.48
426600,980.61,501.51,1.00,1,1,1,2062.53,0.40,333610.05,1451.37,-1.07,297622.12,607.57,1.11,131797.42,556.71,-0.40,27462.47,3492.78,-0.06,27031.35
448400,978.35,443.72,1.00,1,1,1,2652.77,-1.61,183264.31,881.90,-1.70,41433.88,1129.08,-2.39,78544.21,992.20,0.48,35291.65,4240.12,0.04,38348.81
476400,974.81,457.97,1.00,1,1,1,524.55,1.81,112852.43,2152.76,-2.98,74222.02,947.36,-2.00,15691.27,54.59,-0.94,35191.86,3188.06,0.01,37718.02
490500,888.87,429.34,1.00,1,1,1,6424.40,-2.82,460026.06,1206.58,-2.37,96232.80,176.41,-2.09,54747.27,2676.96,-0.28,186801.75,2156.65,-0.14,78679.53
505500,949.66,433.47,1.00,2,2,2,4062.01,0.07,693761.90,2282.45,0.03,218286.79,802.99,-1.90,42050.63,2269.53,-0.31,27481.59,1801.29,-0.12,23841.63
526700,971.46,431.75,1.00,2,2,2,1031.49,-0.08,143648.15,731.93,-1.24,102801.85,6711.10,-0.11,327083.73,3163.03,-0.01,56006.60,1945.01,0.09,20150.88
540800,958.07,409.04,1.00,2,2,2,1869.35,-2.10,177292.67,12348.65,-0.14,853626.59,5316.29,-0.09,99194.12,3814.81,0.01,46459.29,1602.16,0.03,25527.58
555300,1321.35,383.75,1.00,1,1,1,25114.32,-0.07,1793325.25,11432.41,-0.02,116559.90,7146.72,0.01,133310.46,3411.13,-0.16,48821.09,1462.32,-0.14,20055.20
569900,1290.71,403.47,1.00,1,1,1,2496.05,2.57,1871800.55,3388.65,0.47,587757.83,7910.87,0.10,69242.67,3009.91,-0.07,32728.71,1424.36,-0.19,5744.32
590600,1428.09,437.74,1.00,1,1,1,6840.18,0.24,422266.35,5214.38,0.31,93616.55,770.35,-0.53,352706.18,2897.54,-0.03,8843.44,1493.65,-0.11,6287.12
605500,1467.29,460.73,1.00,1,1,1,3049.98,0.53,268981.81,2286.07,-2.14,478405.62,1278.15,-0.03,47029.19,3029.76,0.04,16432.03,1677.55,-0.09,12511.77
634500,1374.12,353.13,1.00,1,1,1,4908.14,-2.28,270967.54,1810.23,-2.40,24762.72,190.12,-1.61,44597.99,542.27,0.53,88399.14,1370.26,-0.02,11270.08
655600,1400.18,399.73,1.00,1,1,1,2530.46,1.06,350900.96,1723.18,0.90,166923.03,488.57,-2.39,17909.72,735.22,0.14,14920.60,272.01,1.20,61766.65
684100,1427.38,419.98,1.00,1,1,1,1189.67,0.64,53480.38,1069.61,0.73,24360.48,937.83,1.27,48558.02,285.57,-1.72,30144.89,253.59,2.46,10840.67
698100,1434.20,429.88,1.00,1,1,1,859.17,0.97,33365.48,879.69,2.85,121803.85,285.22,1.12,46906.75,321.34,-1.90,4779.76,184.18,2.43,4983.47
719100,1397.89,428.82,1.00,1,1,1,1729.79,-3.11,111537.58,752.42,-2.75,26727.13,429.75,-1.78,33824.27,739.90,2.47,42863.15,1444.78,3.01,61644.31
733300,1409.74,419.72,1.00,2,2,2,1052.33,-0.65,185267.52,1520.48,-0.98,128510.70,371.91,-0.78,27421.80,3096.52,2.89,171907.52,1207.75,2.94,17644.02
747100,1421.67,393.51,1.00,2,2,2,2086.85,-1.14,91221.07,1480.16,-0.15,87149.09,1732.88,-3.07,144833.49,3654.83,3.03,52022.29,1917.75,3.09,53934.01
761500,1450.99,413.33,1.00,2,2,2,2457.62,0.59,241595.16,3861.23,2.94,370828.47,6992.70,2.94,370965.07,3483.14,3.11,24024.24,1971.11,-3.08,15587.03
782300,1288.63,421.32,1.00,1,1,1,7815.22,3.09,475566.21,13857.46,2.95,480600.75,6552.43,2.97,23688.72,3623.21,3.11,6747.55,1515.61,2.93,31562.57
796300,978.00,507.32,1.00,1,1,1,23022.65,2.87,1106599.55,8728.28,2.99,367883.07,6267.80,3.08,52815.63,3411.44,3.03,26646.90,1642.62,3.05,16511.05
825900,912.56,479.59,1.00,1,1,1,2400.94,-2.74,716041.20,1723.93,-2.37,264172.60,5147.64,3.09,37861.60,4008.17,3.01,20219.35,1798.00,3.09,5821.00
847100,915.46,446.01,1.00,1,1,1,1589.71,-1.48,114849.54,1313.85,-2.25,21095.16,737.39,-2.57,215688.90,3914.38,3.12,21178.83,1621.62,3.14,9036.37
861100,883.60,443.53,1.00,1,1,1,2282.48,-3.06,199461.93,1169.02,1.14,176056.17,918.63,-2.92,24271.27,2419.16,3.07,107467.64,1488.39,3.11,10201.96
875100,929.25,475.70,1.00,1,1,1,3988.66,0.61,433141.33,1277.13,2.45,107072.89,843.40,-2.71,14064.11,585.51,-2.40,147402.76,1594.25,3.03,10969.06
889500,855.60,466.59,1.00,1,1,1,5153.22,-3.02,616146.48,2282.08,-2.45,166583.32,919.60,0.04,120155.10,248.36,-1.51,32544.40,1619.10,3.12,10176.06
910800,866.66,423.54,1.00,1,1,1,2086.51,-1.32,272389.22,2482.13,-0.23,200250.71,463.75,-2.13,58322.49,160.64,-0.62,9124.30,1731.94,3.13,5311.06
925600,942.86,446.20,1.00,1,1,1,5371.11,0.29,394235.31,1063.56,0.45,120318.38,788.98,-0.37,66746.56,428.42,0.02,21219.45,1168.87,3.09,38262.88
955500,909.56,444.04,1.00,1,1,1,1116.00,-3.08,216185.48,643.99,-3.06,56210.52,741.28,0.11,12215.65,40.80,-0.72,13351.74,94.13,-2.33,37138.95
969600,914.61,443.96,1.00,1,1,1,358.30,-0.02,104498.36,593.71,-0.44,84796.04,91.76,-0.15,46310.57,429.55,-0.96,27665.84,41.03,-0.99,6644.07
1005200,936.20,431.35,1.00,1,1,1,702.28,-0.53,12019.86,739.77,0.03,9610.06,472.39,0.84,12041.31,145.56,-0.10,9897.17,259.06,-1.45,6268.83
1019300,951.36,444.95,1.00,1,1,1,1444.18,0.73,99219.21,1423.77,1.62,114963.42,434.98,-1.92,63186.28,136.61,-2.96,19815.05,136.83,0.53,23955.31
1033400,934.11,471.45,1.00,1,1,1,2242.88,2.15,175506.31,1323.19,-2.46,173646.91,575.81,-2.91,35230.73,382.33,0.71,35790.76,141.20,-2.50,19686.30
1069500,899.76,403.12,1.00,1,1,1,2118.46,-2.04,104771.39,1291.72,-2.27,7004.06,402.61,-3.05,5137.21,155.08,1.38,7676.35,249.28,0.01,10322.55
1084400,891.80,420.96,1.00,1,1,1,1310.91,1.99,209247.85,1505.58,1.10,186553.41,309.32,0.54,46612.57,446.34,-1.75,40363.33,320.16,0.84,15988.28
1098500,919.61,442.01,1.00,1,1,1,2474.01,0.65,179045.41,2579.62,0.78,88335.74,1061.77,1.28,60928.55,260.29,2.60,41892.56,49.45,-1.17,24389.65
1119900,957.07,485.19,1.00,1,1,1,2671.15,0.86,26629.67,754.62,1.57,99151.46,965.31,-1.01,86331.38,308.49,-2.64,13376.57,106.98,0.42,5546.76
1134300,919.53,469.02,1.00,1,1,1,2838.72,-2.74,373007.27,4236.74,-1.84,344947.16,345.12,1.58,88406.70,558.35,1.10,57751.99,224.16,2.79,21524.04
1148500,924.56,368.46,1.00,1,1,1,7090.67,-1.52,468634.28,164.10,-1.61,287121.87,1231.23,-2.63,100667.23,620.35,1.07,4519.71,198.51,3.07,4463.84
1163100,919.33,464.30,1.00,1,1,1,6574.12,1.63,935941.95,2964.56,1.92,213495.68,206.01,-0.13,95964.29,216.26,-0.33,42602.35,171.83,-2.93,3993.37
1177800,894.99,450.14,1.00,1,1,1,1915.39,-2.61,519647.80,384.51,0.22,206661.59,1650.19,1.49,113911.81,226.82,-2.13,23601.09,141.11,-2.00,9722.96
1198600,932.65,467.26,1.00,1,1,1,1988.95,0.43,187472.24,1257.06,0.89,47361.87,555.13,-0.83,99527.19,486.08,-3.12,19617.31,200.91,-3.03,8466.70
1227800,934.61,498.94,1.00,1,1,1,1086.77,1.51,60381.04,891.82,-1.14,62819.06,525.83,0.16,17697.15,562.27,2.16,17327.58,86.71,2.74,4538.50
1242400,949.01,431.79,1.00,1,1,1,4703.67,-1.36,394361.85,1154.74,-1.45,28046.32,1044.20,3.14,107193.96,235.17,-2.07,48064.59,189.50,2.11,8863.24
1263900,939.66,457.56,1.00,1,1,1,1274.97,1.92,277639.51,2959.05,2.80,168795.42,1301.58,-2.29,46683.60,181.10,-0.65,12805.69,34.53,-0.88,10405.77
1278100,849.64,467.64,1.00,1,1,1,6378.82,3.03,417205.79,2252.43,-2.79,133607.10,718.96,3.08,73015.35,779.50,-2.47,59317.29,9.31,2.01,3070.95
1292400,879.35,435.56,1.00,1,1,1,3057.46,-0.82,623758.43,2217.31,-0.55,281383.20,518.01,-2.34,38527.29,732.38,-2.32,8129.48,461.26,1.09,31861.23
1306400,903.09,434.77,1.00,1,1,1,1696.99,-0.03,158554.92,1055.25,-0.05,99220.21,1099.78,-1.63,55834.75,547.52,2.36,66253.10,77.78,-1.53,37864.38
1327800,916.66,433.75,1.00,1,1,1,635.78,-0.08,49630.83,1921.02,-2.56,132921.70,165.95,-2.62,47566.23,217.24,0.70,28325.41,221.80,0.33,11899.69
1342300,845.28,397.17,1.00,1,1,1,5531.51,-2.67,419517.28,1631.22,-3.07,63865.41,655.79,1.79,49856.25,437.21,0.06,20268.94,1.99,-1.65,15351.71
1356400,870.13,430.28,1.00,1,1,1,2936.04,0.93,586643.10,2067.92,1.11,228326.01,812.39,0.75,52418.89,780.34,0.48,29834.84,174.83,-1.77,12258.68
1392200,890.94,489.71,1.00,1,1,1,1758.90,1.23,38195.00,2082.01,0.47,36642.07,1118.84,0.79,8629.70,110.47,0.31,18760.19,240.47,2.95,8256.50
1406600,963.36,477.54,1.00,1,1,1,5099.52,-0.17,354510.45,759.08,-0.58,127087.55,1430.75,0.48,34994.95,364.90,0.73,18584.90,160.21,-0.28,27798.30
1435500,918.35,471.57,1.00,1,1,1,1571.10,-3.01,228973.12,669.37,0.52,26080.16,727.63,-1.03,54220.53,709.04,0.67,11948.80,479.49,-0.33,11061.38
1449500,988.27,491.82,1.00,1,1,1,5199.81,0.28,482667.19,876.03,-1.50,93952.18,83.13,-2.17,49761.92,367.18,0.34,27165.44,649.04,0.07,20163.58
1471200,920.42,440.36,1.00,1,1,1,3924.34,-2.49,413550.29,959.86,-2.54,41937.27,234.90,-0.33,12395.04,321.63,-1.82,28023.27,492.07,0.03,7312.05
1485700,959.66,472.10,1.00,1,1,1,3480.79,0.68,510636.49,1017.16,1.14,131531.04,1175.48,-2.56,91847.42,267.19,-1.01,16334.77,445.45,-0.08,4827.75
1499700,932.61,466.66,1.00,2,2,2,1971.01,-2.94,379046.86,1448.82,-2.57,169270.54,633.84,3.03,57075.43,590.45,-0.65,25252.39,658.97,0.25,19776.80
1514300,924.71,449.83,1.00,2,2,2,1273.12,-2.01,108755.54,1581.50,-2.75,20473.61,561.38,-0.84,76467.99,663.77,-0.45,9739.17,508.32,0.02,13799.97
1535900,879.66,444.89,1.00,1,1,1,2098.46,-3.03,83353.75,1646.73,-0.08,145330.15,887.77,-0.71,15689.96,932.82,-0.00,20407.16,410.84,-0.42,10173.49
1550300,983.80,445.04,1.00,1,1,1,7232.27,0.00,647310.39,2507.61,-0.23,63212.36,1883.28,0.00,93371.84,717.49,-0.49,31274.37,301.85,-0.64,9347.79
1579500,986.19,420.33,1.00,1,1,1,850.36,-1.47,246626.95,2086.61,0.05,26265.81,2200.82,-0.03,11077.80,743.66,-0.19,7548.37,337.45,-0.24,4544.87
1593800,1074.43,449.99,1.00,1,1,1,6510.07,0.32,472248.84,1980.60,0.27,32063.83,885.57,-0.32,96105.82,696.27,-0.17,3485.82,240.11,-0.40,7557.36
1615700,1055.21,439.76,1.00,1,1,1,994.56,-2.65,342142.96,990.43,-2.29,130733.35,893.59,0.46,30647.71,829.38,-0.03,7871.38,288.79,-0.39,2232.30
1629900,1050.81,423.15,1.00,1,1,1,1209.55,-1.83,63592.77,617.50,2.78,67925.92,826.36,-2.81,120865.34,366.84,-0.38,35314.88,372.02,-0.30,6175.39
1644700,1038.45,446.08,1.00,1,1,1,1759.73,2.07,187065.28,1001.45,2.80,25962.71,880.67,3.11,21113.28,269.49,0.82,24883.48,387.13,-0.19,2988.27
1658600,1023.73,432.78,1.00,1,1,1,1427.61,-2.41,181010.22,1137.41,-3.03,35657.51,281.87,3.01,43210.68,133.96,2.53,22809.72,427.22,0.08,8356.60
1679700,998.88,441.76,1.00,1,1,1,1252.08,2.79,65749.08,327.69,-0.67,65825.76,334.38,3.05,2537.16,403.30,-2.61,17492.64,624.35,0.13,9422.52
1694200,1032.84,425.49,1.00,1,1,1,2596.57,-0.45,265132.21,353.98,0.46,25393.12,444.36,0.74,49180.21,150.38,0.51,38181.56,216.58,0.55,30109.36
1722700,1012.49,448.57,1.00,1,1,1,1079.48,2.29,126837.98,687.27,1.01,14912.77,370.72,-1.51,25838.72,96.53,-0.20,3501.41,205.52,0.67,971.87
1758200,1056.40,462.63,1.00,1,1,1,1298.81,0.31,56173.41,860.50,-1.85,43145.11,374.32,0.25,16205.28,264.51,0.62,5951.50,194.63,-2.86,11053.52
1772300,1000.92,407.49,1.00,1,1,1,5548.05,-2.36,477349.02,633.16,-0.98,46971.94,432.36,-0.14,11849.74,471.79,0.35,16176.30,31.38,-0.77,15029.44
1808600,1074.30,436.21,1.00,1,1,1,2170.82,0.37,209061.88,1286.26,0.57,39150.28,78.67,-0.41,9840.85,327.72,1.41,11637.75,193.65,0.69,5311.95
1822600,1055.27,442.59,1.00,1,1,1,1433.42,2.82,242663.11,957.11,2.04,108841.59,1228.38,0.70,85391.55,159.61,0.47,19029.35,58.00,0.36,10008.69
1836700,1062.06,460.16,1.00,1,1,1,1336.40,1.20,142113.42,1178.36,0.94,80165.53,971.34,2.20,107178.34,328.58,-2.53,34542.69,236.92,0.79,13174.41
1850700,1074.66,469.42,1.00,1,1,1,1117.07,0.63,51375.96,1007.10,2.34,100902.71,330.21,2.32,46050.43,421.98,0.39,53279.79,285.86,0.13,12492.21
1865400,1041.89,480.86,1.00,1,1,1,2361.55,2.81,213061.96,757.79,-2.93,60011.10,700.08,-2.62,47861.45,253.23,0.82,14911.79,139.35,2.17,25235.98
1900500,1037.78,461.45,1.00,1,1,1,565.34,-1.78,71140.43,1109.35,-2.09,23464.19,489.28,-1.90,13235.01,69.94,1.51,5808.09,241.33,-0.10,9908.73
1915400,1014.26,432.77,1.00,1,1,1,2489.45,-2.26,134527.74,1292.97,-0.86,93533.87,695.93,-0.31,57606.06,214.02,1.04,10390.84,77.72,-2.27,19644.35
1929600,1062.25,432.87,1.00,1,1,1,3379.57,0.00,374735.63,2499.68,0.34,166595.72,309.98,-0.46,27603.27,146.22,-0.88,20959.33,379.90,0.72,32178.08
1951300,1098.85,462.72,1.00,1,1,1,2176.60,0.68,100314.79,574.94,1.88,117462.50,1286.72,0.70,55174.84,260.74,-2.65,14890.57,244.97,1.51,12439.67
1965600,1055.90,452.57,1.00,1,1,1,3086.42,-2.91,358964.69,1114.59,2.30,44243.47,508.98,0.67,54425.83,404.82,-0.39,42304.58,38.90,2.73,16388.74
1980000,1077.58,486.62,1.00,1,1,1,2803.11,1.00,379005.43,1124.21,0.02,141161.00,1424.33,-3.14,128592.89,235.21,0.43,20801.71,22.16,0.31,3983.02
1994200,1088.04,453.26,1.00,1,1,1,2461.95,-1.27,336322.08,2091.55,-2.81,223969.98,501.35,-0.35,133994.95,388.63,1.12,17889.82,51.29,-2.51,5116.25
2015500,1007.41,462.35,1.00,1,1,1,3809.63,3.03,249126.29,329.18,-1.71,92187.50,831.63,-2.29,52312.95,333.35,2.00,14744.69,169.23,-2.19,5707.14
2030300,1086.39,441.49,1.00,1,1,1,5519.19,-0.26,628704.45,1289.19,-0.45,83046.39,376.71,1.61,76747.79,78.58,-2.71,23123.71,230.88,0.72,26855.51
2045300,1041.99,445.60,1.00,1,1,1,2972.63,3.05,564351.33,958.05,1.56,127035.84,1044.28,0.55,61288.70,163.33,-1.93,8066.60,193.38,2.49,21970.86
2073900,1086.86,483.26,1.00,1,1,1,2048.33,0.70,162500.25,1408.63,1.03,26506.31,445.25,3.00,49502.60,166.53,2.88,7739.74,185.95,1.41,6837.81
2095700,1078.63,506.41,1.00,1,1,1,1126.93,1.91,90052.56,1080.70,-2.44,112709.99,332.10,0.56,33543.71,151.34,-1.47,11989.45,92.74,-1.19,12376.14
2125300,1044.49,447.34,1.00,1,1,1,2304.97,-2.09,106567.50,1037.32,-1.80,22577.66,415.75,-2.39,25152.69,379.73,1.51,17892.33,70.97,2.92,4909.79
2139400,1068.44,462.24,1.00,1,1,1,2000.39,0.56,296266.83,723.06,0.63,117208.55,1035.00,-2.34,43974.73,447.33,2.85,36636.49,72.75,-2.77,2985.73
2155400,1062.10,460.14,1.00,1,1,1,417.78,-2.82,150531.50,1248.37,-2.72,122608.28,948.16,0.92,123722.72,103.48,2.81,21497.16,380.85,-2.97,19362.58
2190700,1010.04,435.96,1.00,1,1,1,1625.96,-2.71,34331.14,1107.97,1.03,63695.15,1261.25,3.08,55394.95,477.61,-1.16,15670.23,134.83,2.94,7374.52
2205700,1090.72,507.96,1.00,1,1,1,7208.68,0.73,585172.67,1846.62,2.49,136519.64,383.29,1.26,93747.00,96.35,2.33,37936.75,279.32,2.93,9633.48
2219700,967.34,468.29,1.00,1,1,1,9256.62,-2.83,1150960.89,981.99,-2.36,140343.09,1531.45,0.01,104187.09,138.39,2.18,3255.02,123.15,-2.98,12225.12
2233600,1071.25,488.68,1.00,1,1,1,7617.81,0.19,1211919.27,4062.73,-0.22,335713.40,1168.18,-2.41,181672.31,643.76,-2.85,44234.45,138.93,-2.97,1137.88
2255500,1109.28,436.51,1.00,1,1,1,2947.81,-0.94,315533.56,1311.32,-2.43,226468.95,1395.94,0.12,111546.96,426.01,2.46,24531.83,357.40,3.08,10247.96
2270200,1034.83,457.42,1.00,1,1,1,5260.05,2.87,530089.24,2333.62,2.46,167296.79,1719.51,-2.63,207728.73,776.10,-2.64,49811.60,427.39,2.51,15688.39
2284300,1056.92,478.65,1.00,1,1,1,2173.36,0.77,470311.05,2295.60,-2.77,165118.07,2258.84,2.91,109636.25,324.62,-0.68,67207.41,479.44,2.22,9949.84
2298800,973.77,433.31,1.00,1,1,1,6532.35,-2.64,596411.22,2509.47,-3.05,49693.50,491.34,3.07,122483.49,197.93,-2.69,30842.11,487.03,2.39,5525.35
2320200,967.19,470.71,1.00,1,1,1,1774.45,1.74,340911.20,1121.49,0.73,162407.22,849.69,-2.51,26775.99,1112.54,2.64,47212.31,354.84,2.10,8340.62
2334200,1003.47,459.65,1.00,1,1,1,2709.11,-0.30,275176.03,1135.43,-0.72,106341.36,974.49,0.54,130156.06,766.23,2.54,25630.64,456.56,3.09,28231.71
2362500,1003.45,439.21,1.00,2,2,2,722.15,-1.57,91624.35,894.74,0.38,37932.51,545.65,1.48,27804.52,826.14,2.23,8782.87,309.62,1.90,15766.16
2383500,1044.49,475.86,1.00,1,1,1,2620.01,0.73,149893.81,2300.81,1.99,119132.30,1066.60,2.34,39230.69,838.31,1.70,20936.15,420.59,2.84,16417.95
2397400,970.99,512.66,1.00,1,1,1,5913.94,2.68,525084.81,3740.47,2.73,184637.48,2076.91,1.71,98496.03,341.84,1.73,35737.22,696.50,2.63,21404.11
2412500,945.16,519.45,1.00,1,1,1,1768.31,2.88,278092.99,2051.43,1.34,259432.29,1841.48,2.39,86969.18,433.66,2.30,15588.99,381.21,3.06,25467.66
2426900,984.58,571.63,1.00,1,1,1,4541.43,0.92,379448.02,1126.53,1.25,65050.84,206.08,2.42,113576.84,831.96,2.08,29095.39,454.99,2.81,8896.52
2448100,957.94,557.46,1.00,1,1,1,1423.33,-2.65,276551.92,1101.38,-2.06,104721.88,105.55,-0.46,14580.69,672.49,2.66,21519.64,338.30,1.57,22152.55
2476500,958.79,523.47,1.00,1,1,1,1197.21,-1.55,48979.88,739.66,-1.66,17904.19,499.82,-2.87,20519.17,365.26,2.62,10844.63,81.91,2.45,10316.28
2505600,953.98,515.11,1.00,1,1,1,331.26,-2.09,31971.62,823.45,2.14,50817.81,304.53,-2.07,12377.19,346.25,-2.11,17117.62,304.76,1.91,8186.72
2526500,936.65,558.18,1.00,1,1,1,2221.37,1.95,116747.77,368.62,2.27,22030.09,496.76,2.69,27325.19,449.81,-2.53,9241.06,252.45,2.68,10249.94
2554700,942.35,528.98,1.00,1,1,1,1055.04,-1.38,115728.96,521.33,-2.61,20818.29,749.30,-2.27,28123.39,130.39,-0.80,17293.98,158.57,-2.52,8003.32
2575600,914.60,545.17,1.00,1,1,1,1537.26,2.61,113407.04,1960.60,-2.01,74591.07,472.38,-2.06,14494.40,232.12,-1.89,9889.47,229.52,-2.50,3399.57
2589600,913.45,466.96,1.00,1,1,1,5587.08,-1.59,462992.84,696.38,-1.33,105880.05,523.93,0.38,66924.96,269.02,1.14,35741.02,351.26,-1.95,14058.46
2604100,919.30,525.89,1.00,1,1,1,4083.98,1.47,666392.33,3298.47,0.89,259524.37,1023.90,-1.06,75147.65,534.92,-1.64,54640.65,449.81,-2.53,17043.31
2618600,973.41,541.50,1.00,1,1,1,3883.54,0.28,308437.66,1309.96,-0.95,266328.28,1575.16,0.98,153919.76,686.79,-0.94,30552.46,130.39,-0.80,33633.80
2640300,946.93,487.35,1.00,2,2,2,2777.69,-2.03,281352.30,291.12,1.84,73116.61,667.66,-1.34,96208.69,536.60,-1.61,19649.06,232.12,-1.89,9524.88
2654400,970.60,551.53,1.00,2,2,2,4851.90,1.22,540460.25,477.66,-2.48,45869.02,1167.37,-1.27,35746.78,369.65,-1.76,12838.17,269.02,1.14,35487.54
2682300,931.09,475.03,1.00,1,1,1,3086.14,-2.05,284003.55,2222.11,-1.27,75310.98,510.57,-2.66,42509.12,667.66,-1.34,13015.02,534.92,-1.64,28397.47
2703900,1003.07,446.44,1.00,1,1,1,3585.41,-0.38,229424.90,566.73,-2.83,105891.55,1949.56,-2.03,72458.83,1167.37,-1.27,23334.70,686.79,-0.94,20509.75
2717900,911.88,468.86,1.00,1,1,1,6707.31,2.90,733630.00,3667.66,-2.84,221496.29,566.73,-2.83,114856.97,510.57,-2.66,84714.61,536.60,-1.61,30456.04
2732400,903.33,415.15,1.00,1,1,1,3750.67,-1.73,548432.38,3750.67,-1.73,269405.38,3667.66,-2.84,213858.48,1949.56,-2.03,107938.67,369.65,-1.76,12484.01
