@RELATION gaze_labels

%@METADATA width_px 1920
%@METADATA height_px 1080
%@METADATA width_mm 540.00
%@METADATA height_mm 254.00
%@METADATA distance_mm 620.00


@ATTRIBUTE time INTEGER
@ATTRIBUTE x NUMERIC
@ATTRIBUTE y NUMERIC
@ATTRIBUTE confidence NUMERIC
@ATTRIBUTE handlabeller1 INTEGER
@ATTRIBUTE handlabeller2 INTEGER
@ATTRIBUTE handlabeller_final INTEGER
@ATTRIBUTE speed_1 numeric
@ATTRIBUTE direction_1 numeric
@ATTRIBUTE acceleration_1 numeric
@ATTRIBUTE speed_2 numeric
@ATTRIBUTE direction_2 numeric
@ATTRIBUTE acceleration_2 numeric
@ATTRIBUTE speed_4 numeric
@ATTRIBUTE direction_4 numeric
@ATTRIBUTE acceleration_4 numeric
@ATTRIBUTE speed_8 numeric
@ATTRIBUTE direction_8 numeric
@ATTRIBUTE acceleration_8 numeric
@ATTRIBUTE speed_16 numeric
@ATTRIBUTE direction_16 numeric
@ATTRIBUTE acceleration_16 numeric

%The number after speed, direction denotes the step size that was used for the calculation.
%Acceleration was calculated between two adjacent samples of the already low pass filtered velocity

@DATA
0,705.03,783.49,1.00,1,1,1,0.00,0.00,0.00,2766.78,0.66,0.00,1799.34,1.30,0.00,1287.79,1.35,0.00,985.91,0.88,0.00
29900,770.53,834.03,1.00,1,1,1,2766.78,0.66,92534.41,1799.34,1.30,57310.20,2120.20,2.25,60859.59,892.14,1.18,14565.92,463.34,1.68,24709.46
51100,729.43,872.14,1.00,1,1,1,2643.78,2.39,194828.41,2120.20,2.25,85834.98,1287.79,1.35,78608.13,771.04,0.34,32364.85,122.59,1.82,16154.34
65200,723.22,892.03,1.00,1,1,1,1477.70,1.87,109768.89,416.61,1.73,125678.83,892.14,1.18,30888.01,879.44,-0.03,22948.83,469.08,3.12,32079.38
80000,727.52,884.03,1.00,1,1,1,613.72,-1.08,140781.57,2389.41,-0.07,170098.68,771.04,0.34,46360.46,985.91,0.88,55971.60,140.65,2.23,26812.41
94200,792.34,887.08,1.00,1,1,1,4569.79,0.05,305683.29,1381.54,0.10,74162.60,879.44,-0.03,22787.22,463.34,1.68,52029.08,949.17,-0.08,73863.61
115300,776.06,888.74,1.00,1,1,1,775.51,3.04,252985.14,354.58,2.88,81447.54,1064.37,0.14,11672.85,122.59,1.82,16230.90,1063.21,-0.06,5489.34
129900,780.10,890.30,1.00,1,1,1,296.43,0.37,71806.90,683.23,0.24,69124.89,446.35,2.92,102087.59,469.08,3.12,30980.77,1147.24,-0.06,5759.54
144300,795.31,893.44,1.00,1,1,1,1078.62,0.20,54705.26,560.20,2.95,84352.73,864.39,-3.10,31144.78,140.65,2.23,27557.20,839.48,0.41,38717.32
158800,764.21,893.42,1.00,1,1,1,2144.76,-3.14,221285.91,2386.59,-3.04,128053.53,1799.06,3.12,64699.72,949.17,-0.08,72335.39,701.92,0.27,12292.13
173600,725.71,886.69,1.00,2,2,2,2640.88,-2.97,43466.89,2781.96,-3.14,31310.98,1198.97,3.08,40747.34,1063.21,-0.06,7826.02,784.73,0.07,11281.02
195500,662.11,893.12,1.00,2,2,2,2918.77,3.04,36866.03,411.80,2.24,116362.45,2068.90,-0.11,149189.30,1147.24,-0.06,3839.70,804.93,-0.01,3214.01
210300,716.34,898.55,1.00,3,3,3,3682.45,0.10,443817.47,6143.62,-0.06,434209.54,2470.81,-0.03,29208.05,898.24,-0.05,16851.65,751.05,-0.00,3689.36
239100,929.43,875.98,1.00,1,1,1,7440.10,-0.11,135683.22,4814.37,-0.09,46423.29,3571.63,-0.05,38243.96,1262.83,-0.03,12681.61,564.94,0.01,6467.99
253300,922.51,879.85,1.00,1,1,1,557.78,2.63,560271.82,483.21,0.22,306787.94,2375.40,-0.05,84256.74,1379.91,0.01,8910.46,768.84,-0.02,14444.83
275200,946.46,879.75,1.00,1,1,1,1093.34,-0.00,73249.07,341.98,0.38,7155.14,482.49,0.31,88192.91,1848.97,-0.01,21476.10,921.39,-0.06,7140.71
304000,938.58,886.36,1.00,1,1,1,356.97,2.44,48146.81,484.71,0.38,4956.74,395.23,0.25,3146.77,1439.91,-0.07,14495.14,875.27,-0.07,1603.26
318700,966.05,887.54,1.00,1,1,1,1870.30,0.04,146068.09,478.10,0.11,8619.61,167.44,0.76,17849.64,201.78,0.45,86304.32,989.34,-0.06,7764.07
340400,955.87,888.35,1.00,2,2,2,470.61,3.06,107746.03,281.46,3.00,34745.03,104.23,-0.42,7378.44,490.22,0.05,14492.85,1223.62,-0.01,11169.17
354500,956.07,888.91,1.00,2,2,2,42.12,1.23,34264.56,417.10,-2.74,16200.11,164.22,3.03,18825.30,694.91,-0.07,15334.39,1423.89,-0.04,14555.01
369300,944.80,883.59,1.00,3,3,3,842.20,-2.70,58942.61,19.66,-2.79,26856.14,655.94,-0.13,55415.16,847.49,-0.09,10381.82,1360.00,-0.04,4319.95
383100,955.54,888.72,1.00,3,3,3,862.66,0.45,123540.63,1691.69,-0.00,123924.42,1406.02,-0.17,54449.28,655.95,-0.14,14170.73,666.54,0.01,50363.04
398000,993.35,883.57,1.00,1,1,1,2560.88,-0.14,127486.27,2505.99,-0.17,59463.70,1602.48,-0.07,16823.21,1011.85,-0.03,24646.55,512.81,-0.01,10339.65
420100,1046.93,873.02,1.00,1,1,1,2470.77,-0.19,7876.80,1537.56,-0.13,43966.54,1461.05,-0.14,8052.48,877.02,-0.11,6988.84,85.10,1.75,24232.20
434100,1048.39,876.39,1.00,1,1,1,262.33,1.16,173442.39,147.57,0.58,102082.51,1329.98,0.01,17519.10,1263.31,-0.01,28643.73,394.39,2.68,24989.63
448700,1050.45,875.34,1.00,1,1,1,158.19,-0.47,21527.24,1122.18,0.25,67404.70,291.32,0.23,71763.75,1203.88,-0.07,6727.24,844.10,3.00,33306.94
463200,1080.06,884.34,1.00,1,1,1,2134.45,0.30,139535.31,446.49,0.12,47025.33,933.34,0.09,44557.05,540.00,-0.07,45784.86,697.39,2.91,11182.16
477400,1063.18,876.84,1.00,1,1,1,1301.35,-2.72,241525.30,803.64,-0.08,26513.54,953.43,0.03,4372.38,795.62,2.86,93570.15,671.93,2.86,2901.29
499200,1108.90,881.96,1.00,2,2,2,2110.27,0.11,154762.68,1353.72,0.01,25593.34,266.74,-2.79,55479.01,1483.79,2.87,31568.64,414.16,2.54,14179.04
513900,1112.59,877.18,1.00,2,2,2,410.90,-0.91,131233.46,1542.78,-3.06,196910.58,1552.62,2.93,90835.54,2198.32,3.00,51279.04,571.68,2.84,14690.70
528600,1063.68,878.35,1.00,2,2,2,3327.84,3.12,244955.25,3982.36,2.99,170491.29,3418.12,2.95,126942.25,2012.80,2.99,12738.02,637.34,2.82,4560.71
557200,942.15,903.35,1.00,2,2,2,4338.43,2.94,42579.74,4554.89,2.89,24716.79,4796.30,3.03,49533.22,1811.44,2.92,8276.98,850.13,2.88,7631.86
578900,841.68,934.98,1.00,1,1,1,4853.84,2.84,32082.68,5795.36,3.06,69391.27,3265.47,2.96,71632.55,1606.39,2.88,10112.89,902.82,2.91,2572.76
592700,737.13,920.51,1.00,1,1,1,7648.48,-3.00,280310.34,1794.50,-3.12,290876.91,2050.51,2.92,88369.73,1910.37,2.95,23947.44,880.16,2.87,2661.17
621600,765.07,933.63,1.00,1,1,1,1068.14,0.44,300144.60,768.99,0.60,85559.43,213.88,1.56,69753.42,1489.29,2.88,15060.35,824.81,2.87,1916.94
643600,769.40,942.66,1.00,1,1,1,454.96,1.12,35049.33,1596.36,0.27,41142.39,607.40,0.35,25841.55,895.75,2.90,26998.04,845.26,2.99,4485.48
671500,841.87,954.79,1.00,1,1,1,2633.51,0.17,86043.16,498.15,-0.13,41355.39,505.04,0.29,3845.65,372.60,3.06,19012.07,971.84,3.08,5398.14
685800,790.24,939.92,1.00,1,1,1,3756.85,-2.86,446167.44,1021.09,-2.90,104630.88,373.20,-0.15,16200.67,396.71,0.41,52119.95,883.43,3.05,6352.26
707200,806.47,946.09,1.00,1,1,1,811.15,0.36,213350.03,229.11,-0.20,57583.30,935.35,-2.89,60170.03,484.07,0.26,5147.88,1489.29,2.88,29737.11
722300,798.44,938.27,1.00,2,2,2,742.34,-2.37,100739.34,829.13,-2.89,68862.61,110.15,0.95,67682.67,313.98,-0.61,24556.14,895.75,2.90,39334.89
736000,783.37,940.04,1.00,2,2,2,1107.95,3.02,62934.90,301.05,2.07,59218.09,456.93,0.22,27897.81,460.38,-2.01,37228.20,372.60,3.06,38718.01
750400,794.39,945.70,1.00,2,2,2,860.63,0.47,130878.00,1502.90,0.23,111683.08,355.26,-1.23,37736.06,547.08,-0.60,45550.28,396.71,0.41,51758.01
771400,835.12,952.36,1.00,3,3,3,1965.25,0.16,56001.15,878.43,-1.19,77378.01,798.14,-0.86,23063.11,456.93,0.22,19308.46,484.07,0.26,5245.93
785500,805.88,917.08,1.00,1,1,1,3249.52,-2.26,347829.00,1880.30,-1.91,96035.43,1103.84,-0.70,24263.91,355.26,-1.23,38538.96,313.98,-0.61,26297.71
800400,816.80,901.00,1.00,1,1,1,1304.47,-0.97,211156.16,1588.66,-0.37,162571.85,1880.30,-1.91,122045.96,798.14,-0.86,32505.05,460.38,-2.01,34229.96
814200,848.31,900.39,1.00,1,1,1,2284.04,-0.02,135125.26,2284.04,-0.02,70152.14,1588.66,-0.37,175530.48,1103.84,-0.70,24791.38,547.08,-0.60,47530.73
