@RELATION gaze_labels

%@METADATA width_px 1920
%@METADATA height_px 1080
%@METADATA width_mm 540.00
%@METADATA height_mm 254.00
%@METADATA distance_mm 620.00


@ATTRIBUTE time INTEGER
@ATTRIBUTE x NUMERIC
@ATTRIBUTE y NUMERIC
@ATTRIBUTE confidence NUMERIC
@ATTRIBUTE handlabeller1 INTEGER
@ATTRIBUTE handlabeller2 INTEGER
@ATTRIBUTE handlabeller_final INTEGER
@ATTRIBUTE speed_1 numeric
@ATTRIBUTE direction_1 numeric
@ATTRIBUTE acceleration_1 numeric
@ATTRIBUTE speed_2 numeric
@ATTRIBUTE direction_2 numeric
@ATTRIBUTE acceleration_2 numeric
@ATTRIBUTE speed_4 numeric
@ATTRIBUTE direction_4 numeric
@ATTRIBUTE acceleration_4 numeric
@ATTRIBUTE speed_8 numeric
@ATTRIBUTE direction_8 numeric
@ATTRIBUTE acceleration_8 numeric
@ATTRIBUTE speed_16 numeric
@ATTRIBUTE direction_16 numeric
@ATTRIBUTE acceleration_16 numeric

%The number after speed, direction denotes the step size that was used for the calculation.
%Acceleration was calculated between two adjacent samples of the already low pass filtered velocity

@DATA
0,668.54,796.05,1.00,4,4,4,0.00,0.00,0.00,11036.94,-2.56,0.00,2231.48,-2.18,0.00,3828.39,-2.64,0.00,517.41,1.79,0.00
14800,531.73,706.81,1.00,4,4,4,11036.94,-2.56,745739.51,2231.48,-2.18,608659.23,1789.37,-2.71,76636.79,2582.28,-2.94,105341.98,2148.65,0.74,131332.13
29500,630.97,742.00,1.00,4,4,4,7162.66,0.34,1229768.23,1789.37,-2.71,77158.13,3828.39,-2.64,139286.73,2795.50,-2.99,17354.66,1016.40,1.32,95615.95
51000,472.97,679.55,1.00,2,2,2,7901.89,-2.77,700565.75,5404.09,-2.79,168529.99,2582.28,-2.94,72514.48,1624.18,1.14,182905.27,1985.61,0.89,52848.71
65100,450.50,675.35,1.00,2,2,2,1621.57,-2.96,448052.21,3696.15,-3.08,151528.76,2795.50,-2.99,18093.16,517.41,1.79,88905.57,2729.02,0.63,68741.49
79200,368.96,672.72,1.00,2,2,2,5785.48,-3.11,297165.50,1414.86,1.45,297580.26,1624.18,1.14,278898.10,2148.65,0.74,137852.17,2876.07,0.55,18441.27
93100,455.28,714.67,1.00,1,1,1,6904.82,0.45,893055.89,5015.42,0.60,303284.38,3586.17,0.76,155468.28,1016.40,1.32,101119.02,2072.75,0.65,60620.59
114800,516.19,773.73,1.00,1,1,1,3909.56,0.77,157429.64,5012.72,0.66,14058.89,5823.18,0.56,111786.32,1985.61,0.89,52361.62,1692.04,0.55,19620.36
142900,652.16,868.15,1.00,1,1,1,5891.10,0.61,75798.00,6496.95,0.53,59310.31,2873.57,0.71,107395.49,2729.02,0.63,34493.06,793.00,0.34,33205.19
157900,757.91,915.10,1.00,1,1,1,7713.09,0.42,148190.20,807.27,1.03,386872.40,2282.75,0.78,40820.58,2876.07,0.55,17334.80,1479.80,0.45,46489.81
193300,673.00,903.09,1.00,1,1,1,2422.25,-3.00,284311.71,1807.43,3.06,64413.84,1983.02,0.39,24805.72,2072.75,0.65,23803.00,1131.45,0.53,10238.63
207900,667.85,922.61,1.00,1,1,1,1382.78,1.83,181117.61,4359.12,0.19,419030.70,71.66,-2.01,139453.54,1692.04,0.55,29161.76,1851.44,0.45,49943.29
222700,798.78,927.70,1.00,2,2,2,8853.23,0.04,625210.97,3054.60,-0.14,120778.62,878.16,0.35,62856.65,1605.05,0.01,59629.20,1938.85,0.44,6000.25
236900,755.52,909.96,1.00,2,2,2,3292.18,-2.75,844984.42,2065.44,-3.07,358607.56,1174.36,-0.12,39589.27,1099.94,-0.16,38983.56,2158.71,0.39,16910.67
257900,726.25,922.67,1.00,3,3,3,1519.69,2.73,118250.41,382.14,2.88,81343.26,1582.69,-0.59,35746.05,1897.84,0.02,39911.19,1649.83,0.41,24276.80
272000,742.56,913.40,1.00,1,1,1,1330.42,-0.52,201846.86,5697.34,-0.32,431127.54,2481.20,-0.12,90949.30,2196.58,-0.05,23760.48,1451.10,0.32,16974.02
286900,883.27,871.25,1.00,1,1,1,9858.13,-0.29,574939.34,5942.85,-0.13,73182.47,2987.64,-0.08,35055.98,1204.81,-0.11,66887.17,937.85,0.12,37870.72
301000,913.37,890.45,1.00,1,1,1,2531.64,0.57,597499.06,1427.52,0.83,372792.85,3219.41,-0.03,19464.22,1437.11,-0.01,19071.19,697.13,-0.02,18908.31
322000,917.20,908.12,1.00,1,1,1,861.18,1.36,96184.53,1131.11,0.44,27178.66,1237.59,0.51,107284.10,1355.74,-0.09,6690.60,745.88,-0.00,2408.91
336300,949.48,907.47,1.00,1,1,1,2257.77,-0.02,157777.85,1214.16,0.06,31708.45,495.75,0.58,51997.63,1302.09,-0.05,5297.42,1139.52,-0.04,27626.29
350700,951.99,910.13,1.00,1,1,1,253.96,0.81,145539.60,326.02,3.10,106861.83,265.50,-3.04,51490.06,320.57,0.69,75480.99,838.14,-0.22,24068.00
365300,940.04,907.91,1.00,1,1,1,832.84,-2.96,71830.30,1444.84,-3.07,76829.45,616.27,-3.07,24035.79,350.92,0.39,7039.76,1026.35,-0.13,13952.84
386700,900.11,906.41,1.00,1,1,1,1867.08,-3.10,49081.05,856.56,-3.03,27567.98,447.33,-2.85,9509.79,294.76,-3.00,29928.88,1049.25,-0.14,1197.27
400700,909.90,904.53,1.00,1,1,1,712.37,-0.19,183296.41,460.21,-0.33,91974.84,257.70,0.12,50187.34,189.83,0.10,34608.77,936.82,-0.12,8225.16
428900,918.48,900.11,1.00,1,1,1,342.14,-0.48,14046.77,1049.75,0.11,23572.80,319.26,-2.98,20454.60,565.30,-0.38,14443.84,505.97,0.09,16080.40
450500,961.84,910.52,1.00,2,2,2,2064.43,0.24,84221.97,1198.54,3.09,103726.67,853.60,0.09,54266.78,725.87,-0.32,7687.03,362.47,-0.06,7240.16
464800,875.51,902.35,1.00,2,2,2,6063.91,-3.05,567340.47,513.23,-0.02,119689.69,1418.86,-0.20,45354.83,821.69,-0.20,9120.20,419.23,-0.18,5222.69
478900,976.41,910.25,1.00,3,3,3,7178.01,0.08,939112.04,3283.33,-0.16,196920.25,1262.47,-0.41,22555.92,678.37,-0.21,10165.60,262.81,-0.34,11678.24
515000,1038.10,875.34,1.00,1,1,1,1963.68,-0.51,156711.77,1708.51,-0.48,48137.46,1761.56,-0.15,17552.08,731.12,-0.13,2135.11,415.43,-0.18,4468.66
529500,1053.25,870.63,1.00,1,1,1,1093.61,-0.30,63761.96,60.85,1.59,119894.39,601.40,-0.53,84408.18,431.62,-0.40,23184.86,356.87,-0.23,4270.95
558100,1038.04,877.96,1.00,1,1,1,590.12,2.69,58725.46,527.08,2.79,17760.49,123.09,1.62,23655.69,1058.05,-0.10,22994.04,523.50,-0.13,6005.23
579400,1028.56,879.70,1.00,1,1,1,452.74,2.96,9143.34,199.56,1.63,22708.00,406.87,2.70,17181.55,348.80,-0.54,35517.14,366.33,-0.21,7523.93
593200,1037.64,884.95,1.00,1,1,1,760.51,0.52,82860.62,214.34,2.32,10278.96,125.34,1.21,30177.09,289.21,0.30,19204.78,24.72,-0.65,24940.26
607800,1024.39,884.14,1.00,1,1,1,909.18,-3.08,111336.14,113.65,0.15,20143.04,48.51,2.77,9175.36,97.89,2.07,22130.01,105.33,2.45,8906.11
621900,1040.87,885.44,1.00,1,1,1,1172.01,0.08,147596.12,99.74,-1.20,9518.71,618.36,0.06,46998.31,149.56,0.40,13249.52,244.40,2.92,11231.27
643400,1025.66,880.82,1.00,1,1,1,739.05,-2.85,88394.99,1019.98,0.06,46238.24,346.35,-0.06,12911.47,91.88,2.93,10743.10,568.21,-3.13,15585.54
658000,1077.63,887.51,1.00,2,2,2,3588.68,0.13,295835.29,735.40,0.10,19653.71,230.09,-0.00,8027.16,885.79,3.05,54426.44,822.32,2.96,19785.43
672000,1046.59,882.89,1.00,2,2,2,2241.25,-2.99,416404.67,761.56,-3.04,106925.79,140.90,2.99,26430.09,758.14,2.65,24685.18,950.54,3.00,9535.27
686800,1055.80,885.39,1.00,2,2,2,644.47,0.26,194749.08,995.80,-3.11,16324.29,2407.68,3.09,153210.36,1840.41,3.01,78320.98,813.99,2.97,9397.42
701100,1017.63,882.06,1.00,3,3,3,2679.48,-3.05,231870.97,3770.43,3.06,194573.24,1843.19,2.73,65442.07,1700.67,3.02,9870.29,737.69,2.97,5336.42
721800,924.24,895.72,1.00,1,1,1,4559.56,3.00,98901.54,2656.61,2.60,88673.73,3968.04,3.01,109006.19,2042.93,3.03,16574.11,710.57,2.97,1311.03
735800,938.73,929.73,1.00,1,1,1,2640.68,1.17,415848.83,4226.37,2.96,141184.23,2990.09,3.02,69861.77,1949.40,3.04,6916.15,815.84,3.03,8256.96
749900,807.46,917.35,1.00,1,1,1,9350.90,-3.05,770248.10,3706.07,-2.97,105165.97,1684.32,2.95,93332.60,1764.57,3.01,13644.20,643.22,2.92,13534.54
770900,810.51,907.78,1.00,1,1,1,478.05,-1.26,450671.36,359.16,-0.07,193138.00,2216.77,-2.98,41157.85,1320.80,2.97,21388.73,504.86,2.93,6593.41
784900,820.01,916.47,1.00,1,1,1,919.30,0.74,85784.04,393.05,-3.12,53675.70,394.42,-0.13,185553.77,541.90,2.84,56205.87,449.02,-3.11,9225.66
799500,799.27,907.56,1.00,1,1,1,1545.68,-2.74,166622.03,437.75,-0.18,56616.46,494.58,0.16,10962.57,948.67,-2.99,35764.62,103.42,-3.03,23699.06
814300,832.66,914.15,1.00,1,1,1,2299.64,0.19,258427.72,1189.84,0.12,52909.71,588.64,0.00,8479.66,443.33,0.11,94032.29,45.04,-0.15,9958.64
835900,842.26,912.82,1.00,1,1,1,448.65,-0.14,87095.72,723.22,0.10,21631.91,68.88,0.23,24154.75,562.90,0.03,5839.45,162.60,0.02,5484.93
849700,858.15,916.60,1.00,1,1,1,1183.20,0.23,56678.16,880.88,-3.04,116237.56,497.69,0.26,31076.35,845.53,-0.25,24678.87,598.27,-0.01,31575.01
878900,804.60,908.80,1.00,2,2,2,1853.22,-3.00,103889.57,336.39,0.55,40877.49,624.54,-0.06,7400.38,1388.87,-0.13,19140.74,431.39,-0.36,8386.16
893300,870.66,924.24,1.00,2,2,2,4711.49,0.23,455547.93,2405.01,0.01,147384.42,1041.55,-0.35,33180.21,1445.05,-0.13,3908.72,953.30,-0.09,38120.41
915100,891.65,910.08,1.00,3,3,3,1161.45,-0.59,184099.05,1783.85,-0.47,54140.77,2723.39,-0.14,78825.39,1427.03,-0.13,862.79,918.58,-0.07,1990.02
943100,949.67,883.63,1.00,1,1,1,2277.35,-0.43,41002.15,3032.62,-0.24,48748.84,2358.00,-0.20,14403.97,1506.07,-0.09,3559.33,879.97,-0.10,1788.61
957700,1017.22,879.71,1.00,1,1,1,4634.24,-0.06,180964.72,3309.36,-0.00,54320.30,2240.15,-0.16,11071.81,1751.81,-0.09,16832.19,1080.69,-0.06,14017.04
979100,1068.81,883.38,1.00,1,1,1,2416.86,0.07,105558.14,1342.28,0.07,92171.01,2255.42,0.08,24240.57,1453.06,-0.15,14729.57,983.05,-0.06,4565.47
993500,1065.17,882.92,1.00,1,1,1,255.07,-3.02,185528.32,1003.87,0.40,35783.82,584.80,0.17,116273.50,1281.68,-0.11,12632.86,842.23,-0.09,9960.60
1007900,1095.40,894.72,1.00,1,1,1,2254.05,0.37,173758.58,399.47,2.85,92745.64,289.13,0.43,21759.67,945.35,0.06,26603.01,724.15,-0.18,9501.13
1022000,1054.26,886.19,1.00,1,1,1,2980.04,-2.94,369935.11,297.70,-2.78,17287.17,172.17,0.72,9523.20,715.32,0.10,16466.40,741.88,-0.10,4458.23
1043000,1085.63,891.01,1.00,1,1,1,1511.55,0.15,213821.01,548.37,0.21,40179.20,378.77,-2.98,25367.60,386.96,0.27,16221.75,235.38,-0.24,24282.02
1057800,1073.47,890.24,1.00,1,1,1,823.66,-3.08,157639.90,488.63,-3.12,69761.10,847.91,0.04,82753.50,148.69,0.38,16196.03,213.61,0.56,11863.65
1072100,1071.42,890.72,1.00,1,1,1,147.17,2.91,47828.76,1233.13,-0.05,120347.80,499.95,0.17,25002.86,283.02,-2.69,30170.61,270.52,1.39,14213.68
1086700,1109.07,888.59,1.00,1,1,1,2582.83,-0.06,186847.24,1471.51,0.12,22484.04,147.14,-0.02,24425.87,380.59,3.09,12981.66,563.42,2.69,38068.18
1101600,1114.51,895.98,1.00,2,2,2,615.46,0.94,154666.68,715.19,3.09,146253.41,229.45,-2.21,22588.32,1264.12,3.02,59382.72,920.05,2.96,27263.39
1123100,1083.07,890.04,1.00,2,2,2,1487.90,-2.95,92253.55,1553.77,-2.82,43077.18,1618.89,-3.14,69476.26,1107.94,2.78,15342.95,148.69,0.38,48799.38
1136800,1062.59,878.79,1.00,2,2,2,1706.06,-2.64,39841.37,2808.37,-3.12,102333.22,2883.84,3.07,93019.38,981.06,2.63,14561.48,283.02,-2.69,31491.95
1150800,1005.30,888.55,1.00,3,3,3,4151.17,2.97,214871.05,4761.78,2.91,153674.45,2404.72,2.80,61168.98,1794.60,2.90,63543.85,380.59,3.09,13538.02
1164800,932.71,908.94,1.00,1,1,1,5385.29,2.87,95002.60,2361.91,2.46,202120.77,1971.18,2.51,54292.82,2084.71,3.04,27670.75,1264.12,3.02,63200.18
1185900,940.78,940.61,1.00,1,1,1,1549.28,1.32,263855.04,1484.07,0.97,127283.87,2056.96,2.71,19525.81,2404.72,2.80,29215.24,1107.94,2.78,15633.82
1199900,962.03,951.99,1.00,1,1,1,1721.75,0.49,94854.38,1912.82,3.11,212947.82,1376.77,2.97,57638.95,1971.18,2.51,54292.82,981.06,2.63,14249.45
1213900,887.25,942.52,1.00,1,1,1,5383.78,-3.02,501342.44,3583.71,-2.93,127726.93,1912.82,3.11,41338.52,2056.96,2.71,29428.19,1794.60,2.90,63543.85
1235700,836.51,925.46,1.00,1,1,1,2455.90,-2.82,138306.34,2455.90,-2.82,54086.28,3583.71,-2.93,82026.47,1376.77,2.97,37015.84,2084.71,3.04,17770.21
