@RELATION gaze_labels

%@METADATA width_px 1920
%@METADATA height_px 1080
%@METADATA width_mm 540.00
%@METADATA height_mm 254.00
%@METADATA distance_mm 620.00


@ATTRIBUTE time INTEGER
@ATTRIBUTE x NUMERIC
@ATTRIBUTE y NUMERIC
@ATTRIBUTE confidence NUMERIC
@ATTRIBUTE handlabeller1 INTEGER
@ATTRIBUTE handlabeller2 INTEGER
@ATTRIBUTE handlabeller_final INTEGER
@ATTRIBUTE speed_1 numeric
@ATTRIBUTE direction_1 numeric
@ATTRIBUTE acceleration_1 numeric
@ATTRIBUTE speed_2 numeric
@ATTRIBUTE direction_2 numeric
@ATTRIBUTE acceleration_2 numeric
@ATTRIBUTE speed_4 numeric
@ATTRIBUTE direction_4 numeric
@ATTRIBUTE acceleration_4 numeric
@ATTRIBUTE speed_8 numeric
@ATTRIBUTE direction_8 numeric
@ATTRIBUTE acceleration_8 numeric
@ATTRIBUTE speed_16 numeric
@ATTRIBUTE direction_16 numeric
@ATTRIBUTE acceleration_16 numeric

%The number after speed, direction denotes the step size that was used for the calculation.
%Acceleration was calculated between two adjacent samples of the already low pass filtered velocity

@DATA
0,795.67,978.52,1.00,1,1,1,0.00,0.00,0.00,211.38,0.26,0.00,2735.52,0.16,0.00,690.64,-2.46,0.00,181.77,-0.81,0.00
21300,800.01,979.69,1.00,1,1,1,211.38,0.26,9924.08,2735.52,0.16,118558.88,2743.41,0.07,11611.26,256.96,-0.57,37979.41,295.25,-0.40,6954.20
35200,890.68,994.12,1.00,1,1,1,6605.18,0.16,460073.01,2743.41,0.07,17792.79,690.64,-2.46,239900.87,1499.59,-2.84,120607.17,875.23,-2.80,80026.10
49700,877.72,985.34,1.00,1,1,1,1080.01,-2.55,523938.09,4782.89,-2.82,515307.71,256.96,-0.57,55790.45,778.32,-2.88,49838.36,28.83,-0.06,62196.67
63700,761.39,950.94,1.00,1,1,1,8664.81,-2.85,545908.42,1846.62,-2.92,210771.12,1499.59,-2.84,119745.69,181.77,-0.81,62899.21,780.01,-0.22,53682.40
85200,813.80,970.78,1.00,1,1,1,2606.50,0.36,523989.26,1059.78,0.38,134786.64,778.32,-2.88,33611.92,295.25,-0.40,6889.51,900.16,-0.11,7088.25
100300,797.37,965.43,1.00,1,1,1,1144.32,-2.83,248340.71,537.99,0.12,37009.70,790.42,0.21,103857.69,875.23,-2.80,73666.41,1344.55,0.03,31129.16
114100,829.24,972.59,1.00,1,1,1,2367.16,0.22,254209.41,523.06,-0.26,14518.56,345.36,-0.25,36551.32,28.83,-0.06,65351.57,1007.51,-0.09,26282.23
128900,811.82,961.55,1.00,2,2,2,1393.62,-2.58,250616.77,269.92,-1.04,25692.75,257.60,-2.58,37485.23,780.01,-0.22,50780.64,425.25,-0.20,39672.81
143400,833.27,965.79,1.00,2,2,2,1507.90,0.19,196696.54,798.15,-2.97,64006.93,816.09,0.23,73323.29,900.16,-0.11,10510.16,308.01,-0.41,9538.53
165300,783.22,956.48,1.00,3,3,3,2324.87,-2.96,175009.41,1422.40,0.38,100901.33,901.96,-0.59,31746.26,1344.55,0.03,21463.49,117.42,-1.26,11296.74
179900,881.47,985.10,1.00,3,3,3,7009.07,0.28,638717.94,2807.95,-0.35,135991.12,1397.55,-0.08,51694.32,1007.51,-0.09,24842.11,103.43,-0.32,6875.40
194800,861.13,928.35,1.00,1,1,1,4045.41,-1.91,667069.40,1747.20,-0.56,77628.14,3100.24,0.08,116329.88,704.29,-0.06,20420.74,643.79,-0.03,36610.38
208800,924.38,958.49,1.00,1,1,1,5004.46,0.44,598196.73,3844.42,0.39,225479.55,1269.87,-0.29,140702.68,318.77,-0.41,30030.17,611.91,-0.38,15395.23
223400,962.82,970.16,1.00,1,1,1,2751.62,0.29,158913.49,1004.23,0.07,199089.97,785.49,0.58,66611.09,810.55,0.06,37399.15,741.74,-0.20,11879.62
245100,960.73,961.18,1.00,1,1,1,424.82,-1.80,137632.09,1657.19,-2.91,122292.44,628.64,-2.92,64171.19,171.41,-0.36,30320.70,649.41,-0.27,4783.38
259900,903.94,956.32,1.00,1,1,1,3851.70,-3.06,252875.29,1991.90,-2.98,24133.15,720.89,-3.03,8211.63,555.77,0.18,28317.45,603.23,-0.20,4486.63
288400,875.62,947.26,1.00,1,1,1,1043.37,-2.83,99790.81,155.04,2.02,68551.07,727.18,2.88,9385.21,451.32,-0.79,16909.20,525.75,-0.26,2952.66
310300,900.54,963.36,1.00,2,2,2,1355.22,0.57,108589.67,1125.12,0.78,49501.37,485.59,-0.26,55377.78,396.55,-0.82,2567.90,759.55,-0.16,11056.45
324900,904.70,976.25,1.00,2,2,2,927.52,1.26,59350.13,1181.59,-0.38,86924.95,1343.17,-0.38,59109.42,399.91,-0.67,4243.89,554.21,-0.58,23478.79
353300,947.72,944.51,1.00,1,1,1,1882.82,-0.64,82709.29,2281.53,-0.78,44951.13,1444.10,-0.37,3607.84,531.64,-0.35,6916.70,854.83,-0.57,10592.34
368000,974.77,907.27,1.00,1,1,1,3130.85,-0.94,98773.19,1752.64,-0.36,66542.97,1501.38,-0.47,11143.14,739.98,-0.19,15793.35,805.31,-0.15,23339.76
389900,1007.69,921.73,1.00,1,1,1,1641.48,0.41,146609.17,1067.26,0.38,55229.86,603.52,-0.45,41010.38,747.73,-0.40,7295.53,980.36,0.47,26277.46
404300,1010.71,921.74,1.00,1,1,1,209.94,0.01,100776.98,891.17,2.92,129807.75,324.89,1.31,51155.82,945.86,-0.62,18779.76,180.69,0.16,56292.18
418300,983.02,927.39,1.00,4,4,4,2018.60,2.94,158891.87,1107.14,2.96,15698.53,229.29,3.02,30243.93,1479.44,-0.88,44106.49,688.55,-1.17,47755.82
432300,980.24,927.44,1.00,4,4,4,198.77,3.13,130256.31,428.43,-0.34,109431.74,388.41,-1.40,36112.63,1390.38,0.09,95935.68,742.60,-1.02,8419.03
447100,994.67,923.33,1.00,4,4,4,1013.92,-0.28,81556.80,1276.71,-0.71,60330.20,2436.33,-0.99,140879.03,2239.11,0.71,92840.17,780.34,-1.05,2772.00
468400,1015.05,897.23,1.00,4,4,4,1554.52,-0.91,44496.27,4147.41,-1.04,139286.12,2668.13,-0.03,111592.80,370.65,1.54,94296.71,843.35,-0.62,16264.71
482500,1068.78,796.58,1.00,4,4,4,8091.39,-1.08,465629.47,4861.09,0.18,369562.38,4370.94,0.68,205524.05,1188.96,-1.58,110608.42,719.14,-0.32,18981.59
497500,1154.14,922.97,1.00,4,4,4,10167.66,0.98,1045122.00,11609.01,1.12,638853.44,1122.11,1.61,254341.85,1188.29,-1.57,1438.15,499.02,-0.01,19112.99
511400,1214.05,1099.00,1.00,4,4,4,13377.37,1.24,320687.80,4245.79,2.83,926413.57,1399.58,-2.89,141570.89,1084.43,-1.50,9178.63,387.74,-0.16,9351.30
532700,1012.06,969.32,1.00,4,4,4,11269.47,-2.57,1092907.84,11140.31,-2.19,500278.15,3574.95,-2.43,112749.21,729.05,-0.62,39170.00,194.06,-0.26,9184.29
547300,980.94,774.03,1.00,4,4,4,13544.67,-1.73,708995.99,6890.32,-1.73,401196.03,5874.26,-2.16,179195.31,821.00,1.02,77945.12,407.22,-0.20,14641.51
561400,980.94,774.03,1.00,4,4,4,0.00,0.00,960614.76,896.23,0.41,525373.04,2322.52,-1.01,379452.53,418.06,-2.82,83116.08,153.58,-0.43,18427.67
575800,1004.41,784.10,1.00,4,4,4,1773.79,0.41,123180.07,3633.65,0.56,191021.11,2849.21,0.67,268622.81,1732.30,-2.09,100526.66,185.61,-0.25,3097.32
597100,1091.18,842.39,1.00,1,1,1,4907.71,0.59,149370.01,4450.07,0.71,48117.43,2804.58,0.82,20813.05,547.92,-0.89,75962.27,90.55,0.78,7460.19
611200,1123.95,886.70,1.00,1,1,1,3908.40,0.93,127406.80,2275.58,1.38,214514.54,2453.99,0.89,27738.34,1196.95,0.87,99731.07,697.50,2.44,50447.21
625600,1103.32,906.10,1.00,1,1,1,1966.78,2.39,289145.06,990.27,2.39,134308.32,903.80,1.99,152725.66,891.69,1.29,36564.64,878.90,3.08,36418.08
639800,1103.32,906.10,1.00,1,1,1,0.00,0.00,138505.65,814.02,3.09,45549.71,469.36,2.63,42045.05,809.48,1.24,6403.70,1004.62,-2.61,39608.54
676700,1061.77,908.04,1.00,1,1,1,1127.27,3.09,30549.37,234.73,-3.04,15802.42,888.88,3.11,14034.39,592.98,2.24,18906.34,524.03,-2.93,14469.31
690400,1091.51,904.84,1.00,2,2,2,2183.33,-0.11,241550.52,979.23,3.12,54532.10,558.06,3.07,24213.55,1341.46,2.96,71230.74,676.30,2.04,54097.62
719100,1020.26,909.04,1.00,2,2,2,2486.78,3.08,162674.17,891.27,3.02,4312.34,378.14,2.89,6927.70,1266.73,2.98,2855.17,672.27,2.12,1834.02
740200,1047.43,910.03,1.00,3,3,3,1288.39,0.04,178734.77,418.46,0.45,59916.39,2254.80,3.02,89145.08,910.50,2.84,18288.58,644.25,2.22,3453.40
754100,1033.44,915.42,1.00,1,1,1,1077.97,2.77,166805.14,4645.79,3.02,359978.59,1777.58,2.90,38594.76,1396.12,2.99,36828.48,603.61,2.39,8317.41
768600,916.39,925.42,1.00,1,1,1,8102.33,3.06,487821.33,3816.95,2.97,59354.26,1492.28,2.71,28855.52,1416.56,2.93,5471.86,759.54,2.87,24511.78
790300,897.31,939.06,1.00,1,1,1,1080.74,2.52,331518.19,1369.91,0.52,228129.27,2609.15,3.01,57871.52,1109.04,2.93,14171.06,698.28,2.79,3789.54
804900,959.57,950.08,1.00,1,1,1,4330.91,0.18,352426.57,1113.02,-3.12,164878.12,480.20,2.39,152993.68,1235.68,2.99,9628.61,910.50,2.84,14799.34
819200,865.15,938.38,1.00,1,1,1,6653.44,-3.02,767888.83,2339.04,-3.09,85817.31,284.32,-3.09,24289.32,634.61,2.57,49309.70,1396.12,2.99,35798.31
833100,893.71,946.51,1.00,1,1,1,2136.16,0.28,630965.15,568.40,-0.01,209107.92,1109.02,-2.92,59738.56,153.95,1.65,39897.25,1416.56,2.93,5708.06
847300,881.12,938.28,1.00,1,1,1,1059.23,-2.56,222758.30,347.12,-1.84,52016.75,1594.14,0.21,190362.07,325.63,1.09,14865.68,1109.04,2.93,21655.78
868800,890.42,934.56,1.00,2,2,2,465.93,-0.38,64209.42,2411.91,0.25,121033.52,330.48,-0.06,59513.18,1109.02,-2.92,62392.57,1235.68,2.99,6538.50
883100,964.72,959.90,1.00,2,2,2,5489.04,0.33,359733.10,939.36,0.41,104275.59,770.49,0.81,42871.23,1594.14,0.21,189030.87,634.61,2.57,49309.70
897100,914.81,945.14,1.00,3,3,3,3717.11,-2.85,657448.21,1788.08,2.86,184418.57,939.36,0.41,26956.38,330.48,-0.06,91395.24,153.95,1.65,39612.27
911800,915.44,974.22,1.00,0,0,0,1978.85,1.55,320572.08,1978.85,1.55,156376.63,1788.08,2.86,175636.73,770.49,0.81,41704.66,325.63,1.09,14360.04
