@RELATION gaze_labels

%@METADATA width_px 1920
%@METADATA height_px 1080
%@METADATA width_mm 540.00
%@METADATA height_mm 254.00
%@METADATA distance_mm 620.00


@ATTRIBUTE time INTEGER
@ATTRIBUTE x NUMERIC
@ATTRIBUTE y NUMERIC
@ATTRIBUTE confidence NUMERIC
@ATTRIBUTE handlabeller1 INTEGER
@ATTRIBUTE handlabeller2 INTEGER
@ATTRIBUTE handlabeller_final INTEGER
@ATTRIBUTE speed_1 numeric
@ATTRIBUTE direction_1 numeric
@ATTRIBUTE acceleration_1 numeric
@ATTRIBUTE speed_2 numeric
@ATTRIBUTE direction_2 numeric
@ATTRIBUTE acceleration_2 numeric
@ATTRIBUTE speed_4 numeric
@ATTRIBUTE direction_4 numeric
@ATTRIBUTE acceleration_4 numeric
@ATTRIBUTE speed_8 numeric
@ATTRIBUTE direction_8 numeric
@ATTRIBUTE acceleration_8 numeric
@ATTRIBUTE speed_16 numeric
@ATTRIBUTE direction_16 numeric
@ATTRIBUTE acceleration_16 numeric

%The number after speed, direction denotes the step size that was used for the calculation.
%Acceleration was calculated between two adjacent samples of the already low pass filtered velocity

@DATA
0,787.66,961.85,1.00,1,1,1,0.00,0.00,0.00,4073.73,0.19,0.00,1086.54,0.23,0.00,973.69,0.20,0.00,747.57,0.12,0.00
14900,847.29,973.17,1.00,1,1,1,4073.73,0.19,273404.46,1086.54,0.23,200579.65,208.05,-0.75,66156.36,101.00,2.51,70093.24,301.63,-0.17,31313.37
36500,826.26,970.96,1.00,1,1,1,979.24,-3.04,233807.53,208.05,-0.75,45635.64,973.69,0.20,40221.74,315.67,-2.69,13084.00,152.73,-2.18,18136.77
50600,852.74,968.12,1.00,1,1,1,1889.19,-0.11,202414.82,834.42,0.15,51266.74,101.00,2.51,74070.16,365.41,2.63,22615.82,762.52,-2.23,43268.37
65700,850.35,974.57,1.00,1,1,1,455.28,1.93,141149.00,479.35,2.45,79994.86,315.67,-2.69,18716.19,747.57,0.12,70465.88,451.90,-1.69,29387.09
79700,842.01,977.03,1.00,1,1,1,621.38,2.85,36035.46,1234.50,-2.86,74706.19,365.41,2.63,22777.37,301.63,-0.17,33326.37,404.95,-1.21,14976.92
101700,807.72,962.01,1.00,1,1,1,1701.54,-2.73,58637.41,288.54,2.86,45563.65,528.29,-0.03,39466.15,152.73,-2.18,17807.01,1122.48,-0.12,45543.47
116100,831.91,979.90,1.00,1,1,1,2089.01,0.64,261601.38,2676.23,0.15,204262.84,693.29,-0.23,14356.54,762.52,-2.23,42366.94,513.51,-0.79,54852.29
130800,884.73,973.61,1.00,2,2,2,3618.90,-0.12,172803.43,1938.27,-0.24,78442.24,176.98,-0.68,36692.80,451.90,-1.69,30186.73,381.09,-0.33,16307.82
144800,885.91,966.56,1.00,2,2,2,510.13,-1.40,250704.85,2543.08,-2.89,310464.71,1378.54,-2.02,96283.68,404.95,-1.21,14976.92,191.49,-1.50,25122.04
158900,815.57,955.62,1.00,2,2,2,5048.80,-2.99,360323.56,2609.72,-2.44,81096.98,964.48,-2.15,31399.59,1122.48,-0.12,71060.73,303.08,-0.54,17560.67
195600,784.62,881.04,1.00,1,1,1,2200.42,-1.96,118029.25,1042.33,-1.04,72077.32,626.09,-2.05,9479.68,513.51,-0.79,21522.43,184.95,-1.42,6373.57
210000,842.73,909.80,1.00,1,1,1,4502.92,0.46,439456.99,3062.93,0.48,221190.57,1669.70,-0.08,138621.71,306.42,-1.43,22477.11,231.35,-2.08,9863.46
224500,862.95,922.26,1.00,1,1,1,1637.99,0.55,198338.13,2871.70,0.22,55716.66,1417.03,0.37,50998.96,375.77,-2.19,18037.70,203.07,-1.31,11475.19
260800,985.13,941.50,1.00,1,1,1,3407.19,0.16,55052.73,522.38,-0.01,65184.93,652.19,0.31,21127.03,546.91,-0.33,20536.54,181.19,-0.91,2187.99
274900,889.28,921.95,1.00,1,1,1,6937.85,-2.94,733527.08,3387.41,-2.97,276773.75,155.74,-2.80,57296.54,585.77,0.43,29937.32,261.67,-2.24,19944.17
288800,891.61,925.68,1.00,1,1,1,316.69,1.01,515074.05,1357.83,-3.04,146390.92,1352.72,-2.96,86273.10,181.49,2.87,52834.95,436.22,-2.61,15455.66
302900,851.45,918.17,1.00,1,1,1,2897.72,-2.96,221321.69,263.90,0.03,114980.32,466.28,-2.92,62902.50,42.10,-2.87,10431.53,247.13,-1.28,31864.65
324100,900.92,925.98,1.00,1,1,1,2362.49,0.16,248098.36,270.28,-0.28,3935.61,1161.13,-3.02,32952.57,1141.23,-3.00,51864.36,576.31,-0.50,20602.69
338000,860.56,915.54,1.00,1,1,1,2998.96,-2.89,385272.18,2906.62,-3.03,227198.97,96.64,0.41,90229.50,808.28,-3.13,25602.65,843.64,0.04,32701.47
352900,817.72,916.69,1.00,1,1,1,2875.87,3.11,55565.78,208.64,2.16,189049.47,938.95,-3.06,69198.63,899.77,-3.01,9215.93,652.19,-0.10,14478.85
367300,857.17,920.63,1.00,1,1,1,2752.55,0.10,390084.00,616.23,0.19,50226.36,1149.82,3.07,18364.48,453.63,-0.34,91695.54,464.88,-0.27,14629.74
389400,839.81,920.94,1.00,2,2,2,785.32,3.12,159894.51,1974.55,3.14,116829.25,641.75,-3.00,24478.17,632.79,-0.67,11423.77,183.72,-1.72,21679.40
403800,785.09,920.94,1.00,2,2,2,3799.84,3.14,209352.69,2258.00,-2.98,31205.60,838.74,-0.42,98842.19,1199.57,-0.17,49693.17,442.97,-0.29,31655.84
417800,776.51,910.66,1.00,3,3,3,956.67,-2.27,233614.10,4425.16,-0.18,471147.92,2077.65,-0.35,88706.04,1574.51,-0.12,27196.14,453.26,-0.32,1254.99
431700,906.54,898.73,1.00,1,1,1,9393.80,-0.09,717135.14,5358.96,-0.19,67218.65,3615.25,-0.14,118589.67,1021.32,-0.25,41513.45,536.54,-0.20,7371.11
453600,965.00,874.91,1.00,1,1,1,2882.61,-0.39,305430.23,2995.29,-0.08,109617.43,3806.79,-0.07,13641.28,1095.94,-0.19,4498.06,736.16,-0.19,9117.91
467700,1014.00,889.82,1.00,1,1,1,3632.61,0.30,162544.94,2028.67,0.32,97930.72,1224.90,-0.13,183324.82,1686.08,-0.15,42035.90,955.11,-0.09,16596.01
481700,1019.11,892.84,1.00,1,1,1,423.99,0.53,230152.13,1047.08,-3.10,217849.19,371.13,0.99,79729.17,1773.09,-0.10,8798.22,1267.99,-0.04,22803.73
495900,984.51,888.46,1.00,1,1,1,2456.57,-3.02,200758.82,1143.97,3.09,9995.80,246.08,-3.13,38593.08,614.42,-0.11,81603.42,917.06,-0.10,25188.12
517700,977.98,894.84,1.00,1,1,1,418.82,2.37,101866.37,387.07,0.08,70120.18,273.23,-2.92,2736.02,936.26,0.10,16454.94,1034.17,-0.09,5385.43
531600,998.28,889.57,1.00,1,1,1,1508.87,-0.25,135525.59,888.66,-0.24,38481.04,154.18,0.01,30597.81,757.09,0.00,14149.30,1308.54,-0.05,20062.45
545600,1002.08,889.02,1.00,2,2,2,274.23,-0.15,88327.59,23.44,-2.21,64144.66,1541.34,-0.06,99115.02,1033.89,0.06,20142.14,1329.84,-0.03,2417.20
580800,997.60,888.65,1.00,1,1,1,127.80,-3.06,11356.87,1922.42,-0.01,55006.34,1458.41,0.00,3545.05,851.76,0.04,5212.58,838.86,0.02,14026.31
594700,1096.46,887.96,1.00,1,1,1,7112.99,-0.01,520883.94,3175.15,0.01,90211.00,1881.60,0.08,31699.17,990.96,-0.00,10430.78,675.20,0.12,12946.43
623000,1131.58,890.13,1.00,1,1,1,1243.17,0.06,207539.23,1856.46,0.17,48562.59,1612.09,0.04,9775.03,1014.05,0.08,3263.41,195.60,-0.05,17094.11
643900,1186.47,903.48,1.00,1,1,1,2703.09,0.24,71548.09,261.72,2.72,99444.16,458.50,0.17,55460.59,990.04,0.07,1475.29,230.23,3.13,20369.99
658700,1123.06,893.98,1.00,1,1,1,4332.29,-2.99,474910.39,1913.23,-2.97,115030.62,422.74,0.49,9719.57,1083.32,0.10,6709.08,188.52,2.99,3422.55
672900,1131.78,894.18,1.00,1,1,1,613.66,0.02,348006.48,1180.84,0.27,217627.29,364.02,-2.98,54671.55,417.73,0.17,46984.39,271.10,-3.11,6530.13
687200,1155.50,902.95,1.00,1,1,1,1768.87,0.35,84287.66,890.93,0.17,21482.12,457.12,0.34,57204.42,483.26,-3.09,62905.67,204.73,3.06,5007.68
708700,1163.21,899.60,1.00,2,2,2,390.97,-0.41,70289.05,137.23,2.97,47507.16,368.34,0.16,5425.36,1811.27,-3.10,61769.94,179.44,2.83,2426.11
722800,1150.68,903.77,1.00,2,2,2,936.18,2.82,94046.10,283.89,-2.93,11678.00,1357.05,-2.96,122359.08,1495.85,3.13,23302.52,73.36,2.78,7531.91
737400,1155.25,897.87,1.00,3,3,3,510.90,-0.91,95195.47,2870.67,-2.94,177177.84,3261.59,-3.11,132402.15,1790.32,-3.13,20338.82,480.02,3.10,28157.44
751700,1069.47,886.81,1.00,1,1,1,6047.82,-3.01,442064.22,5632.96,-3.12,200045.83,3400.26,-3.11,9740.94,1520.38,-3.10,19195.69,825.04,3.05,24223.60
773500,951.94,893.66,1.00,1,1,1,5400.57,3.08,57142.91,3880.67,3.07,82741.15,3948.74,-3.12,25206.18,1483.34,3.11,5123.31,1035.72,3.06,9667.46
787700,930.12,896.70,1.00,1,1,1,1551.47,3.00,271552.28,1800.43,-3.11,147741.35,1672.91,3.08,160918.37,1199.84,-3.10,21181.33,1021.99,3.04,1844.89
801800,901.01,892.03,1.00,1,1,1,2090.55,-2.98,53775.52,172.67,-0.32,139235.75,160.21,1.75,116539.90,1367.31,-3.12,12026.35,1164.79,3.11,11389.09
830900,937.19,894.33,1.00,1,1,1,1245.72,0.06,114526.12,996.05,0.28,29544.02,604.07,-0.01,22460.84,1136.39,3.00,10603.89,948.09,3.07,7553.80
852700,949.71,906.15,1.00,2,2,2,789.82,0.76,37340.02,1133.39,0.04,13261.52,737.06,0.02,6186.08,402.54,2.54,36536.07,1197.70,3.13,11813.56
866900,977.96,896.05,1.00,2,2,2,2112.84,-0.34,133160.20,572.21,-0.94,66384.36,516.94,2.66,85672.44,649.03,2.87,21037.41,1046.81,3.06,11905.28
880800,959.23,893.20,1.00,2,2,2,1362.84,-2.99,242799.70,2493.94,2.95,211524.98,770.78,2.72,18448.96,658.89,3.01,6403.05,1133.66,3.07,6323.33
895700,907.45,909.73,1.00,1,1,1,3648.28,2.83,167898.43,1760.68,2.60,69663.91,1894.83,2.95,77721.84,438.37,2.70,18522.74,728.37,3.01,27506.51
917300,904.24,926.46,1.00,1,1,1,788.58,1.76,154814.66,1549.75,2.95,28879.71,2050.90,3.06,12326.74,936.85,-3.12,26784.80,449.77,2.98,12924.04
945700,831.31,924.12,1.00,1,1,1,2569.55,-3.11,90394.94,2553.20,-2.95,43986.84,378.89,2.73,59760.30,925.30,2.92,7970.79,207.27,2.68,9095.38
959700,797.93,906.07,1.00,1,1,1,2710.61,-2.65,87207.28,1332.79,-0.03,276034.95,1126.27,-2.92,60749.67,933.64,2.95,2644.69,658.89,3.01,33349.73
980700,877.93,922.62,1.00,1,1,1,3890.33,0.20,311098.23,100.44,-0.50,59235.04,82.71,0.80,56969.93,370.20,3.03,26904.76,438.37,2.70,13142.32
1010000,802.36,903.65,1.00,1,1,1,2659.12,-2.90,223483.19,970.96,3.00,36373.76,276.67,0.73,6628.55,550.49,-3.02,7170.69,936.85,-3.12,19745.79
1024500,835.85,928.79,1.00,1,1,1,2888.08,0.64,375027.53,719.30,0.96,99496.03,396.62,-2.95,44771.60,299.87,0.00,58548.74,925.30,2.92,15611.75
1038900,814.21,920.73,1.00,1,1,1,1603.72,-2.79,308980.41,468.30,-0.82,65027.89,315.47,0.65,48169.44,276.67,0.73,14376.14,933.64,2.95,2571.23
1059700,847.14,916.78,1.00,1,1,1,1594.67,-0.12,149436.65,184.48,-0.85,13651.81,601.81,-0.12,20833.80,396.62,-2.95,31210.97,370.20,3.03,27163.46
1074200,818.53,915.85,1.00,1,1,1,1974.74,-3.11,245465.64,969.64,0.27,62336.00,184.48,-0.85,33108.85,315.47,0.65,47837.24,550.49,-3.02,14489.74
1088600,874.16,924.23,1.00,1,1,1,3906.96,0.15,407827.44,3906.96,0.15,204619.31,969.64,0.27,62768.89,601.81,-0.12,30093.26,299.87,0.00,58955.33
