@RELATION gaze_labels

%@METADATA width_px 1920
%@METADATA height_px 1080
%@METADATA width_mm 540.00
%@METADATA height_mm 254.00
%@METADATA distance_mm 620.00


@ATTRIBUTE time INTEGER
@ATTRIBUTE x NUMERIC
@ATTRIBUTE y NUMERIC
@ATTRIBUTE confidence NUMERIC
@ATTRIBUTE handlabeller1 INTEGER
@ATTRIBUTE handlabeller2 INTEGER
@ATTRIBUTE handlabeller_final INTEGER
@ATTRIBUTE speed_1 numeric
@ATTRIBUTE direction_1 numeric
@ATTRIBUTE acceleration_1 numeric
@ATTRIBUTE speed_2 numeric
@ATTRIBUTE direction_2 numeric
@ATTRIBUTE acceleration_2 numeric
@ATTRIBUTE speed_4 numeric
@ATTRIBUTE direction_4 numeric
@ATTRIBUTE acceleration_4 numeric
@ATTRIBUTE speed_8 numeric
@ATTRIBUTE direction_8 numeric
@ATTRIBUTE acceleration_8 numeric
@ATTRIBUTE speed_16 numeric
@ATTRIBUTE direction_16 numeric
@ATTRIBUTE acceleration_16 numeric

%The number after speed, direction denotes the step size that was used for the calculation.
%Acceleration was calculated between two adjacent samples of the already low pass filtered velocity

@DATA
0,761.92,957.82,1.00,1,1,1,0.00,0.00,0.00,1062.48,0.68,0.00,3378.20,0.16,0.00,944.78,0.42,0.00,605.33,0.15,0.00
15200,774.46,967.99,1.00,1,1,1,1062.48,0.68,69900.05,3378.20,0.16,165563.53,1922.45,0.12,95974.78,960.29,-0.08,31282.57,628.44,0.04,4974.03
29100,859.04,973.03,1.00,1,1,1,6095.56,0.06,379028.32,1922.45,0.12,104950.84,944.78,0.42,76166.53,386.69,-2.53,92204.27,102.78,-0.20,38057.78
50900,842.61,976.09,1.00,1,1,1,766.46,2.96,313848.00,1150.22,2.90,138801.69,960.29,-0.08,21811.70,449.68,-2.81,6135.46,551.07,-2.20,27573.17
65500,818.40,983.10,1.00,1,1,1,1726.53,2.86,66207.07,520.69,-2.04,78840.44,386.69,-2.53,87783.52,605.33,0.15,71992.78,551.89,-1.62,21686.57
79400,835.90,962.86,1.00,1,1,1,1925.09,-0.86,251911.77,1114.35,-0.88,73629.91,449.68,-2.81,9622.52,628.44,0.04,5439.23,578.85,-0.48,43674.20
93900,838.51,958.66,1.00,1,1,1,340.63,-1.01,109616.92,585.15,2.96,110838.18,389.71,-0.56,52348.60,102.78,-0.20,36482.98,470.04,-0.45,7620.73
115700,815.01,966.74,1.00,1,1,1,1139.62,2.81,65150.29,308.83,1.46,29437.42,330.15,0.38,15118.57,551.07,-2.20,27573.17,577.83,-0.54,5451.07
130100,839.76,969.77,1.00,1,1,1,1731.19,0.12,194487.31,1402.68,0.10,95211.26,546.95,0.34,15111.61,551.89,-1.62,21987.77,427.99,-0.29,13450.38
145100,856.04,970.90,1.00,2,2,2,1088.23,0.07,43139.02,1120.25,0.02,20029.70,733.39,-1.90,77008.26,578.85,-0.48,40471.43,372.09,-0.50,6672.11
159000,872.13,970.39,1.00,2,2,2,1157.72,-0.03,9499.39,1690.58,-2.36,188472.41,891.61,-1.93,11508.75,470.04,-0.45,7949.68,228.90,-1.75,26546.70
194900,796.04,911.84,1.00,1,1,1,2674.40,-2.49,101509.73,1754.06,-2.28,4294.97,855.32,-0.69,28295.97,577.83,-0.54,3310.12,310.44,-0.87,6727.55
209000,814.84,903.99,1.00,1,1,1,1445.42,-0.40,256474.12,2823.15,0.07,301051.88,590.58,-0.92,21870.10,394.95,-0.87,17072.38,542.09,-0.75,16753.05
237900,917.14,920.23,1.00,1,1,1,3584.15,0.16,85599.77,2132.70,0.24,27986.74,1232.31,0.08,35841.24,354.19,-1.35,6311.06,643.08,-0.52,5950.61
253000,905.97,926.39,1.00,1,1,1,844.89,2.64,283615.87,652.70,-3.11,183741.84,852.11,0.27,28313.34,422.48,-1.95,15707.74,641.09,-0.38,5652.48
274200,893.46,919.47,1.00,1,1,1,674.09,-2.64,35331.60,746.80,-2.97,6319.45,756.40,-3.06,75529.40,722.88,-0.04,44831.31,726.06,-0.40,4040.46
288300,879.98,921.96,1.00,2,2,2,972.27,2.96,44103.51,889.73,-3.02,10493.15,944.31,-2.84,19024.37,833.42,-0.23,13231.21,612.19,-0.45,8445.40
302800,868.20,916.38,1.00,2,2,2,898.74,-2.70,39962.25,1193.51,-2.73,29105.71,209.94,-1.02,70101.55,722.26,-0.55,18567.84,538.26,-0.55,6463.11
318000,847.43,907.93,1.00,3,3,3,1475.56,-2.76,38185.00,908.76,-0.26,130843.97,1059.99,-0.72,56683.58,854.26,-0.34,13819.79,547.80,-0.56,651.92
339800,900.70,907.76,1.00,1,1,1,2443.77,-0.00,176593.67,2516.45,-0.36,74065.54,2101.66,-0.34,54355.47,921.19,-0.29,3719.87,846.73,-0.12,19201.64
354100,932.50,876.07,1.00,1,1,1,3139.40,-0.78,155181.53,3682.83,-0.36,81570.76,2558.64,-0.11,48348.34,941.94,-0.24,3516.71,659.32,-0.09,13207.59
367800,997.11,871.16,1.00,1,1,1,4729.37,-0.08,226875.92,2826.05,0.17,139332.97,1720.61,-0.21,62801.74,947.50,-0.22,1627.42,381.68,-0.31,21810.66
381800,1009.63,889.49,1.00,1,1,1,1585.38,0.97,297836.24,497.35,0.96,178593.46,1070.54,0.25,64082.90,1246.94,-0.13,22458.83,370.74,-0.40,2535.10
403000,1007.14,885.51,1.00,1,1,1,221.41,-2.13,85217.86,349.57,2.85,32680.07,333.40,2.05,56196.70,992.87,-0.19,12447.51,465.90,-0.22,5748.61
417100,997.79,892.99,1.00,1,1,1,849.37,2.47,64010.16,715.36,2.92,26048.78,74.06,-2.65,24254.94,488.55,0.18,40284.57,919.08,-0.14,32366.38
431500,987.25,889.97,1.00,1,1,1,761.24,-2.86,51594.13,332.89,-0.64,71401.78,278.44,-0.12,23732.70,181.53,0.95,26321.42,833.08,-0.15,5992.84
445800,1005.44,887.26,1.00,1,1,1,1286.05,-0.15,140141.95,1068.27,-0.17,54937.63,108.75,-2.21,24174.96,125.29,-3.11,19305.34,926.50,-0.07,8073.63
467300,1024.92,883.34,1.00,1,1,1,924.00,-0.20,17039.11,333.44,3.13,65038.62,366.07,-0.00,20462.13,66.38,1.20,7571.77,854.16,-0.05,3455.25
481300,993.61,887.40,1.00,1,1,1,2255.17,3.01,226969.30,563.20,2.71,20925.43,187.08,2.99,39413.65,907.29,-0.04,63441.68,432.30,0.09,30724.11
495300,1010.61,889.96,1.00,2,2,2,1228.14,0.15,246604.39,57.35,1.59,38629.93,280.79,2.54,9937.21,734.12,-0.06,12427.80,76.74,1.09,28276.69
509900,993.58,889.04,1.00,2,2,2,1167.82,-3.09,163919.86,98.15,1.69,2847.33,1708.50,0.00,133289.45,656.85,0.03,6884.99,214.30,2.99,17121.84
530900,1010.19,893.43,1.00,3,3,3,817.93,0.26,94081.50,2702.21,-0.01,129360.90,1036.24,-0.08,32423.35,758.54,0.11,5427.10,325.65,2.98,5303.97
559100,1126.53,887.91,1.00,1,1,1,4130.14,-0.05,119123.80,1926.30,-0.12,28940.96,1292.72,0.01,9818.97,390.24,-0.01,13238.11,459.09,-3.12,5351.94
573200,1091.09,883.73,1.00,1,1,1,2530.77,-3.02,470889.46,659.20,3.03,183366.11,1430.98,0.02,9817.95,19.56,2.83,29000.79,399.95,-3.13,4197.35
594700,1103.20,890.45,1.00,2,2,2,644.03,0.51,145869.67,1054.01,0.23,78611.63,906.44,-3.13,108716.66,285.98,2.92,12396.42,427.79,3.05,2447.25
623600,1142.82,895.81,1.00,2,2,2,1383.52,0.13,28296.90,1114.62,-3.07,74804.35,971.58,3.06,3932.58,602.85,3.06,11146.25,443.92,3.05,558.30
638200,1054.83,886.99,1.00,3,3,3,6056.55,-3.04,509547.17,3770.18,-3.11,181955.62,1963.22,3.09,67981.41,1806.70,3.13,82594.25,373.05,3.05,4854.98
659500,1007.55,890.96,1.00,1,1,1,2227.44,3.06,182532.68,3010.19,3.03,42745.17,3499.51,3.12,72248.02,1509.52,3.12,13980.26,528.57,3.13,7494.85
674000,947.76,899.15,1.00,1,1,1,4162.55,3.01,133908.71,3184.70,3.04,12120.53,2906.06,3.12,40930.14,1538.50,3.10,2711.73,388.09,3.05,9983.89
688600,915.40,900.80,1.00,1,1,1,2218.80,3.09,134312.61,2815.15,-3.04,49908.88,2309.27,-3.12,41417.67,1877.86,-3.14,23718.79,457.22,3.10,4899.57
703000,866.56,890.70,1.00,1,1,1,3463.96,-2.94,99344.75,1515.80,-2.86,93682.15,1026.92,3.14,89075.84,1295.28,3.08,41025.43,854.75,3.12,27619.03
717900,872.72,888.54,1.00,1,1,1,437.91,-0.34,258126.02,440.85,0.56,130438.12,274.09,-2.84,51630.07,1208.74,3.14,7475.99,647.98,3.09,13936.85
739700,880.29,899.25,1.00,1,1,1,601.72,0.96,29327.06,739.47,0.27,15650.99,333.62,0.31,27875.77,529.56,-3.14,31156.48,711.14,3.13,3137.59
753800,898.32,895.55,1.00,1,1,1,1305.58,-0.20,84990.85,252.59,-0.27,38151.57,221.52,2.91,37987.83,280.96,-3.10,17657.67,1097.79,3.14,27432.19
767900,887.16,897.37,1.00,1,1,1,802.18,2.98,149456.09,1379.71,-3.05,114776.87,39.97,-0.11,18529.18,204.44,0.13,34390.29,823.00,3.10,19715.94
782600,858.76,891.81,1.00,1,1,1,1968.19,-2.95,84840.92,166.75,2.80,83710.50,305.89,2.94,23519.45,313.58,0.11,7431.61,528.85,3.11,20018.21
797100,882.57,899.00,1.00,1,1,1,1714.91,0.29,253691.81,615.40,0.36,51769.37,101.28,-0.52,27807.51,274.92,-0.19,6556.02,480.25,2.99,5295.17
817900,879.10,899.44,1.00,1,1,1,167.99,3.01,89880.68,320.44,-0.45,21915.96,833.63,0.02,36002.07,311.12,3.12,28073.16,407.63,2.88,4252.96
832600,892.83,894.09,1.00,1,1,1,1002.40,-0.37,79329.02,1155.05,-0.19,57775.08,483.45,-0.19,25554.37,349.31,-3.13,2689.97,134.65,1.95,23444.65
848000,913.27,893.00,1.00,1,1,1,1328.80,-0.05,31811.93,700.80,-0.05,30499.12,325.91,-2.99,51808.30,124.51,0.22,30640.07,183.73,2.54,6805.08
861800,913.27,893.00,1.00,1,1,1,0.00,0.00,96289.71,1581.71,3.08,165399.42,789.40,3.09,34406.96,449.68,2.84,40661.52,118.27,1.87,8528.42
882900,858.16,896.24,1.00,2,2,2,2616.20,3.08,123990.56,2025.59,3.09,21043.80,614.02,3.08,8315.97,539.42,2.74,4927.19,152.46,1.11,4957.95
897000,842.06,896.74,1.00,2,2,2,1142.13,3.11,104600.81,570.99,-0.06,184154.47,1161.88,2.88,40758.72,330.31,2.46,16901.84,217.50,0.80,6079.05
911400,874.41,895.33,1.00,2,2,2,2248.23,-0.04,235436.93,654.76,2.39,80060.03,773.26,2.55,34520.35,545.34,2.85,18665.17,78.31,1.84,13184.66
946400,818.42,918.81,1.00,1,1,1,1734.63,2.74,112051.71,1516.25,2.66,25771.95,341.54,1.24,21737.18,351.71,2.41,7757.50,111.72,1.62,1122.57
960500,808.44,929.83,1.00,1,1,1,1054.74,2.31,63732.41,807.91,0.23,155605.52,520.50,2.67,41280.47,450.72,0.57,45375.57,218.05,2.77,14203.47
989600,852.44,926.61,1.00,1,1,1,1516.05,-0.07,82220.38,447.82,-0.51,19265.90,674.57,0.24,38526.77,631.96,0.48,6482.42,432.13,2.94,7577.24
1011000,828.23,918.89,1.00,1,1,1,1187.34,-2.83,124065.27,515.80,0.27,17300.34,1374.74,0.04,33896.17,174.29,2.43,33466.22,434.38,2.90,912.68
1025800,870.43,931.62,1.00,1,1,1,2977.93,0.29,281430.18,3130.23,0.17,176845.91,1231.37,0.20,16593.87,444.73,0.20,38413.30,182.35,2.16,21821.43
1040000,917.62,934.69,1.00,1,1,1,3330.75,0.06,56282.18,2149.05,0.18,69097.37,385.93,-0.20,62555.57,102.29,-0.54,26491.68,450.72,0.57,34438.20
1054100,930.31,942.22,1.00,1,1,1,1046.75,0.54,173378.43,1915.53,-2.83,287623.26,164.71,0.01,16117.72,629.27,-3.04,50628.90,631.96,0.48,13378.61
1075600,852.66,913.93,1.00,1,1,1,3843.76,-2.79,226800.80,1400.24,-2.93,25119.07,1519.78,-3.01,78297.50,296.75,3.01,16130.42,174.29,2.43,33310.56
1090100,881.02,931.69,1.00,1,1,1,2307.19,0.56,422009.71,1148.32,2.89,44011.39,2501.27,-2.99,67735.83,111.96,0.40,27397.53,444.73,0.20,39208.06
1104100,821.00,922.23,1.00,1,1,1,4339.53,-2.99,466061.18,3922.19,-3.02,205993.72,983.13,2.98,113670.65,1519.78,-3.01,116275.66,102.29,-0.54,26870.13
1118100,771.96,918.78,1.00,1,1,1,3512.08,-3.07,63817.16,860.27,3.09,219871.68,95.98,1.13,72421.59,2501.27,-2.99,70154.96,629.27,-3.04,50990.54
1139800,790.34,923.90,1.00,1,1,1,879.34,0.27,201713.19,3170.07,0.16,184988.74,860.27,3.09,41505.69,983.13,2.98,73335.90,296.75,3.01,15981.75
1153800,883.61,937.23,1.00,1,1,1,6730.22,0.14,418525.87,6730.22,0.14,254398.08,3170.07,0.16,286732.55,95.98,1.13,72421.59,111.96,0.40,28376.01
