@RELATION gaze_labels

%@METADATA width_px 1920
%@METADATA height_px 1080
%@METADATA width_mm 540.00
%@METADATA height_mm 254.00
%@METADATA distance_mm 620.00


@ATTRIBUTE time INTEGER
@ATTRIBUTE x NUMERIC
@ATTRIBUTE y NUMERIC
@ATTRIBUTE confidence NUMERIC
@ATTRIBUTE handlabeller1 INTEGER
@ATTRIBUTE handlabeller2 INTEGER
@ATTRIBUTE handlabeller_final INTEGER
@ATTRIBUTE speed_1 numeric
@ATTRIBUTE direction_1 numeric
@ATTRIBUTE acceleration_1 numeric
@ATTRIBUTE speed_2 numeric
@ATTRIBUTE direction_2 numeric
@ATTRIBUTE acceleration_2 numeric
@ATTRIBUTE speed_4 numeric
@ATTRIBUTE direction_4 numeric
@ATTRIBUTE acceleration_4 numeric
@ATTRIBUTE speed_8 numeric
@ATTRIBUTE direction_8 numeric
@ATTRIBUTE acceleration_8 numeric
@ATTRIBUTE speed_16 numeric
@ATTRIBUTE direction_16 numeric
@ATTRIBUTE acceleration_16 numeric

%The number after speed, direction denotes the step size that was used for the calculation.
%Acceleration was calculated between two adjacent samples of the already low pass filtered velocity

@DATA
0,690.64,911.26,1.00,1,1,1,0.00,0.00,0.00,3207.68,0.02,0.00,2229.27,0.02,0.00,667.71,0.28,0.00,249.43,-0.08,0.00
14700,737.78,912.39,1.00,1,1,1,3207.68,0.02,218209.62,2229.27,0.02,66574.90,593.63,-2.39,183688.06,416.21,-2.96,73658.58,134.39,-3.05,26019.42
29600,756.62,912.31,1.00,1,1,1,1264.36,-0.00,130480.93,593.63,-2.39,181222.45,667.71,0.28,82332.47,959.00,3.10,37649.50,263.83,-2.69,9760.75
44400,724.85,900.40,1.00,1,1,1,2292.19,-2.78,236692.62,695.65,2.69,49332.69,416.21,-2.96,73160.88,87.99,2.55,59807.62,357.70,-3.06,9850.36
66600,733.41,923.44,1.00,1,1,1,1106.90,1.22,141038.69,433.14,2.68,11829.50,959.00,3.10,25269.26,249.43,-0.08,14822.78,234.43,-2.63,7850.37
80700,710.77,907.39,1.00,1,1,1,1968.09,-2.53,209165.81,1421.21,-2.93,79129.01,87.99,2.55,62776.79,134.39,-3.05,27126.63,498.21,-0.30,48332.52
95000,693.95,914.93,1.00,1,1,1,1288.46,2.72,120243.23,358.97,-0.39,120935.41,286.16,-2.18,20802.13,263.83,-2.69,10170.29,1095.96,-0.37,41956.33
108900,720.14,903.57,1.00,1,1,1,2053.53,-0.41,240426.81,848.13,-0.21,35854.84,162.41,0.33,30843.03,357.70,-3.06,10488.15,1125.52,-0.21,12964.08
130000,722.96,908.61,1.00,1,1,1,273.74,1.06,96887.31,205.46,1.52,42907.55,567.51,-0.50,22459.40,234.43,-2.63,8259.64,740.35,-0.12,18647.22
144000,720.48,910.77,1.00,2,2,2,234.99,2.42,22999.31,394.47,-1.32,42414.23,649.86,-2.97,82193.18,498.21,-0.30,48677.76,695.30,-0.15,3604.89
159000,725.84,897.54,1.00,2,2,2,951.85,-1.19,77755.68,1503.02,-2.81,101703.21,243.14,3.13,27502.91,1095.96,-0.37,39998.37,718.63,-0.06,4399.28
173200,678.93,896.61,1.00,2,2,2,3303.74,-3.12,264129.46,604.82,2.60,84773.37,859.23,-0.41,76573.02,1125.52,-0.21,12690.19,590.55,-0.03,9176.71
195000,707.15,908.71,1.00,3,3,3,1408.44,0.41,212805.89,2587.99,-0.09,144171.70,1626.03,-0.32,35467.15,1261.54,-0.13,7621.20,488.81,-0.33,8754.28
209300,772.01,888.59,1.00,1,1,1,4749.11,-0.30,264971.64,4419.32,-0.36,143383.03,2846.91,-0.12,90388.68,1516.26,-0.13,17814.24,734.02,-0.17,18339.94
223600,825.46,864.25,1.00,1,1,1,4107.14,-0.43,59495.03,3175.26,-0.16,100853.89,2960.67,-0.12,8140.67,1574.24,0.01,15613.90,736.01,-0.15,1351.71
238200,862.54,873.57,1.00,1,1,1,2618.53,0.25,180103.97,1953.84,0.45,133193.37,2223.81,-0.02,53037.42,1435.45,-0.00,9593.64,498.15,-0.07,16627.46
252500,876.24,888.95,1.00,1,1,1,1440.46,0.84,114754.17,1526.02,0.21,41515.77,1661.03,0.27,55786.98,1075.12,-0.18,29680.93,555.64,-0.16,5301.93
274100,916.08,885.19,1.00,1,1,1,1852.52,-0.09,70932.32,1525.58,0.14,5230.24,410.06,0.76,60811.68,929.46,-0.12,7369.10,644.62,-0.08,4637.44
303200,952.83,899.73,1.00,1,1,1,1358.23,0.38,30569.59,735.03,2.80,75686.02,217.27,-2.67,21351.55,504.87,0.25,16932.80,965.46,-0.05,11058.64
317500,886.07,896.01,1.00,1,1,1,4676.04,-3.09,418199.76,2655.65,-2.94,144412.17,153.37,-1.40,15819.23,128.85,1.54,33992.41,1168.62,-0.03,14312.29
339100,859.47,880.42,1.00,1,1,1,1427.50,-2.61,160576.25,810.46,-0.66,150138.50,657.88,-2.83,30323.49,49.12,-0.85,7783.18,1304.87,-0.04,6336.63
368100,918.56,870.99,1.00,1,1,1,2063.26,-0.16,113548.50,1012.93,0.08,23528.34,292.14,-3.05,13039.46,85.92,2.34,4655.60,827.94,-0.05,16453.45
382400,903.19,883.89,1.00,2,2,2,1403.03,2.44,233933.31,2114.18,2.75,213382.53,278.15,0.11,39878.42,374.02,-0.32,31591.72,930.83,0.12,12663.96
396500,863.08,893.96,1.00,2,2,2,2932.97,2.90,126256.78,582.23,-3.09,114006.29,410.03,2.03,40414.47,904.18,-0.07,38940.77,595.31,0.05,24028.09
419400,881.68,882.81,1.00,3,3,3,946.65,-0.54,168069.63,1169.19,0.03,76475.99,1546.58,-0.01,77347.16,1566.23,0.06,29745.49,537.36,-0.06,3815.65
433700,906.56,895.07,1.00,1,1,1,1939.59,0.46,114175.88,4328.70,0.00,220980.43,2334.47,-0.05,55315.27,710.24,0.05,59865.76,465.54,0.09,7323.30
447700,1004.18,882.87,1.00,1,1,1,7027.03,-0.12,393622.44,3850.45,-0.08,40729.93,3384.44,0.06,77941.27,1459.92,0.06,53552.67,305.99,-0.08,12243.66
462400,1016.75,886.71,1.00,1,1,1,894.45,0.30,423235.46,2469.95,0.16,106046.95,1647.09,-0.18,124378.31,1314.83,-0.07,15478.25,542.92,-0.07,16118.86
476300,1073.92,894.10,1.00,1,1,1,4147.05,0.13,235158.99,351.35,-2.08,194315.80,1380.49,0.14,39980.20,1227.47,-0.02,7359.71,723.83,0.04,13964.15
498000,1010.70,875.77,1.00,1,1,1,3033.59,-2.86,329951.98,511.71,0.07,35140.44,277.06,-0.23,51910.27,1109.71,0.02,5823.03,526.01,0.06,9129.98
512100,1092.19,895.41,1.00,1,1,1,5945.47,0.24,636664.29,846.69,0.29,25788.24,700.59,-2.81,67152.00,261.96,0.31,61177.40,913.18,0.10,27509.62
526900,1034.17,882.69,1.00,1,1,1,4013.90,-2.93,672895.92,2181.81,-2.88,204611.18,689.71,0.50,93610.48,139.36,-0.05,9474.35,970.84,0.06,4426.00
541100,1031.02,879.26,1.00,1,1,1,328.24,-2.31,264111.88,596.97,0.74,191839.76,846.56,-3.10,105330.68,166.00,-2.90,21288.62,861.69,0.04,7839.37
563000,1050.03,897.28,1.00,1,1,1,1196.23,0.76,69581.27,412.77,1.19,13137.33,49.92,1.37,39252.02,331.58,0.09,22661.55,893.18,0.07,1954.53
577800,1036.61,893.33,1.00,2,2,2,944.85,-2.86,140704.45,653.40,-2.50,69474.41,365.66,0.42,22920.30,373.39,0.23,4510.82,387.59,0.11,34191.34
592100,1034.81,885.88,1.00,3,3,3,535.94,-1.81,57377.82,585.48,-0.26,77969.59,311.61,-1.50,38816.46,659.09,0.32,20216.84,392.37,0.17,1698.30
606600,1052.91,888.98,1.00,1,1,1,1266.19,0.17,107466.35,616.03,-0.38,5420.41,1606.39,0.13,114041.07,558.66,0.16,9821.28,107.50,0.31,19740.47
621000,1051.33,879.25,1.00,1,1,1,684.34,-1.73,112684.74,2469.51,0.20,137808.53,1296.95,0.29,26826.88,701.72,0.15,9936.06,108.11,0.27,299.54
642400,1139.53,906.67,1.00,1,1,1,4315.78,0.30,217809.40,1974.84,0.45,34147.14,734.13,0.05,28488.93,498.00,0.02,10208.24,469.74,3.08,26779.48
657000,1115.48,909.90,1.00,1,1,1,1661.50,3.01,401686.67,761.36,-2.67,187395.26,1214.54,0.33,37515.64,604.14,0.21,10180.98,455.77,2.95,4033.66
685200,1110.54,891.78,1.00,1,1,1,665.85,-1.84,60496.22,690.34,0.08,50485.77,295.00,-2.70,53471.06,324.50,0.28,9974.39,449.71,2.97,319.27
706300,1149.41,912.63,1.00,1,1,1,2090.40,0.49,122936.27,107.16,0.62,28479.78,140.46,-0.33,19298.88,71.02,2.73,18103.50,696.59,3.14,12573.00
735000,1114.88,894.88,1.00,2,2,2,1352.62,-2.67,119961.44,527.64,-2.83,21971.30,157.42,2.07,9676.65,1156.74,-3.13,38063.46,342.14,3.10,12371.41
749400,1127.76,905.67,1.00,2,2,2,1166.57,0.70,173865.32,388.32,2.46,31432.09,1427.51,-2.88,97115.70,1333.90,-3.13,12303.28,476.70,3.08,9352.18
770700,1104.11,903.60,1.00,2,2,2,1114.49,-3.05,102145.89,2515.01,-2.90,108093.31,2429.50,3.08,54546.12,1438.64,3.09,6288.53,432.21,3.02,2471.34
785100,1040.65,883.91,1.00,1,1,1,4614.26,-2.84,245346.01,5012.59,3.14,183916.36,3415.55,3.13,69253.19,2080.70,-3.09,46140.40,597.75,2.97,11633.27
800000,957.24,904.18,1.00,1,1,1,5760.75,2.90,199766.55,4668.06,2.97,58920.26,3420.65,-3.13,3847.98,1362.11,3.13,48803.45,1132.46,-3.07,38186.86
814500,905.41,907.28,1.00,1,1,1,3580.87,3.08,160405.72,1835.82,-3.10,200169.01,2925.96,3.07,38288.23,1773.21,-3.09,29260.35,1274.65,-3.09,9954.37
829400,903.33,901.70,1.00,1,1,1,399.83,-1.93,233859.09,1570.32,-2.96,23220.85,306.54,-2.80,177720.64,1418.02,3.14,24492.04,1166.68,3.08,11636.35
850500,849.76,897.33,1.00,1,1,1,2547.01,-3.06,113956.63,1016.14,-0.12,121322.21,238.65,-2.05,9873.39,1297.74,2.99,11275.72,2080.70,-3.09,44146.24
864400,938.65,897.55,1.00,2,2,2,6394.73,0.00,642883.26,1706.79,-0.08,49838.27,411.22,0.08,41327.27,1107.77,-3.01,28254.89,1362.11,3.13,52314.49
879000,898.26,893.64,1.00,2,2,2,2778.88,-3.05,627743.94,370.47,2.54,139445.33,574.19,0.33,14024.02,1205.50,-3.05,7496.67,1773.21,-3.09,29059.93
893700,929.69,903.68,1.00,2,2,2,2244.40,0.31,339809.17,737.05,2.42,25294.10,1894.56,-3.04,167167.11,865.40,3.05,26551.83,1418.02,3.14,24825.27
909100,881.58,908.27,1.00,1,1,1,3138.21,3.05,342603.60,3180.38,-2.98,179975.84,2261.84,-3.13,27154.19,574.19,0.33,91457.19,1297.74,2.99,15449.20
930600,813.90,884.60,1.00,1,1,1,3334.94,-2.81,65040.31,3710.89,-3.02,25759.89,2112.02,3.08,9898.31,1894.56,-3.04,114295.65,1107.77,-3.01,18267.11
945200,748.53,892.63,1.00,1,1,1,4510.53,3.02,145115.95,1243.58,2.25,220664.32,3710.89,-3.02,114773.37,2261.84,-3.13,28642.09,1205.50,-3.05,7496.67
959300,791.41,912.32,1.00,1,1,1,3346.48,0.43,536565.15,3346.48,0.43,272956.49,1243.58,2.25,228489.29,2112.02,3.08,15093.16,865.40,3.05,27681.70
