%@metadata width_px 1920.0
%@metadata height_px 1080.0
%@metadata width_mm 540.0
%@metadata height_mm 254.0
%@metadata distance_mm 620.0
% The number after speed, direction denotes the step size that was used for the calculation.
% Acceleration was calculated between two adjacent samples of the already low pass filtered velocity
@RELATION gaze_labels

@ATTRIBUTE time INTEGER
@ATTRIBUTE x NUMERIC
@ATTRIBUTE y NUMERIC
@ATTRIBUTE confidence NUMERIC
@ATTRIBUTE handlabeller_final INTEGER
@ATTRIBUTE EYE_MOVEMENT_TYPE {UNKNOWN, FIX, SACCADE, SP, NOISE, BLINK, NOISE_CLUSTER, PSO}

@DATA
0,244.18,621.29,1.0,1,FIX
14400,328.47,631.97,1.0,1,FIX
28900,264.12,622.09,1.0,1,FIX
43000,257.2,617.05,1.0,1,FIX
64600,272.73,612.12,1.0,1,FIX
78600,240.73,622.04,1.0,1,FIX
92900,285.05,619.08,1.0,1,FIX
107600,299.03,629.86,1.0,1,FIX
128900,334.92,616.69,1.0,2,FIX
142800,287.22,624.05,1.0,2,FIX
156900,258.68,620.99,1.0,1,SACCADE
171800,302.73,614.03,1.0,1,FIX
193000,296.86,577.04,1.0,1,FIX
207100,270.85,572.67,1.0,1,FIX
221300,291.61,576.84,1.0,1,FIX
235200,280.34,577.81,1.0,1,FIX
256500,253.82,576.83,1.0,1,FIX
285600,291.09,571.49,1.0,1,FIX
300200,292.47,574.22,1.0,1,FIX
335300,264.01,580.04,1.0,2,FIX
350200,281.18,571.99,1.0,2,SACCADE
364400,288.29,569.64,1.0,2,SACCADE
379200,352.82,575.8,1.0,3,SP
400200,516.2,593.56,1.0,1,FIX
414300,698.57,595.85,1.0,1,FIX
428800,713.13,596.52,1.0,1,FIX
443000,724.91,586.93,1.0,1,FIX
464100,688.27,595.4,1.0,1,FIX
478600,657.63,586.23,1.0,1,FIX
492800,720.84,596.83,1.0,1,FIX
507300,686.63,592.81,1.0,1,FIX
529000,657.59,592.68,1.0,1,SACCADE
543100,654.47,581.8,1.0,2,SACCADE
557400,642.7,585.59,1.0,2,SACCADE
572200,719.95,585.88,1.0,3,FIX
593000,849.94,595.43,1.0,1,FIX
607100,988.74,588.99,1.0,1,FIX
621500,962.48,589.15,1.0,1,FIX
657200,936.05,576.52,1.0,1,FIX
671400,967.83,581.35,1.0,1,FIX
685700,948.26,585.46,1.0,1,FIX
721100,971.99,588.56,1.0,4,FIX
735200,938.37,583.46,1.0,4,NOISE
749200,997.46,582.96,1.0,4,NOISE
764300,946.0,594.88,1.0,4,NOISE
785100,860.13,620.52,1.0,4,NOISE
798900,788.86,695.95,1.0,4,NOISE
813200,1054.72,955.66,1.0,4,NOISE
827500,978.52,1268.71,1.0,4,NOISE
848500,991.72,1603.37,1.0,4,NOISE
862700,1041.85,1539.27,1.0,4,NOISE
877400,924.14,1102.29,1.0,4,NOISE
891400,547.28,717.44,1.0,4,NOISE
912400,437.46,652.62,1.0,4,NOISE
926900,294.1,582.43,1.0,4,NOISE
941000,294.1,582.43,1.0,4,NOISE
955400,335.88,577.6,1.0,4,FIX
976100,383.41,583.82,1.0,1,FIX
990200,393.35,574.7,1.0,1,FIX
1004100,393.35,574.7,1.0,1,FIX
1040400,372.78,568.7,1.0,1,FIX
1054800,398.27,563.91,1.0,1,FIX
1083400,415.04,568.32,1.0,1,FIX
1104500,390.4,561.67,1.0,1,FIX
1119000,460.2,579.33,1.0,1,FIX
1133200,433.42,561.51,1.0,1,FIX
1147200,421.94,571.07,1.0,1,FIX
