%@metadata width_px 1920.0
%@metadata height_px 1080.0
%@metadata width_mm 540.0
%@metadata height_mm 254.0
%@metadata distance_mm 620.0
% The number after speed, direction denotes the step size that was used for the calculation.
% Acceleration was calculated between two adjacent samples of the already low pass filtered velocity
@RELATION gaze_labels

@ATTRIBUTE time INTEGER
@ATTRIBUTE x NUMERIC
@ATTRIBUTE y NUMERIC
@ATTRIBUTE confidence NUMERIC
@ATTRIBUTE handlabeller_final INTEGER
@ATTRIBUTE EYE_MOVEMENT_TYPE {UNKNOWN, FIX, SACCADE, SP, NOISE, BLINK, NOISE_CLUSTER, PSO}

@DATA
0,781.07,371.53,1.0,1,FIX
14500,782.7,384.53,1.0,1,FIX
29200,815.13,388.26,1.0,1,FIX
44100,800.92,388.85,1.0,1,FIX
58500,784.25,410.58,1.0,1,FIX
73400,800.76,355.9,1.0,1,FIX
95500,760.93,376.68,1.0,1,FIX
110300,812.55,392.64,1.0,1,FIX
124900,752.76,391.23,1.0,1,FIX
154600,779.04,346.65,1.0,1,FIX
169300,778.07,385.64,1.0,1,FIX
206400,746.9,360.44,1.0,1,FIX
221100,852.33,431.42,1.0,1,FIX
235700,782.87,365.41,1.0,2,SACCADE
250400,822.19,409.7,1.0,2,SACCADE
265700,774.68,364.63,1.0,3,SACCADE
287400,816.44,464.97,1.0,1,SP
302100,1027.84,418.57,1.0,1,FIX
316300,1052.12,486.12,1.0,1,FIX
331000,996.63,420.88,1.0,1,FIX
345700,1042.64,468.28,1.0,1,FIX
368100,1040.83,397.91,1.0,1,FIX
382800,974.45,447.65,1.0,1,FIX
397500,1015.49,443.9,1.0,1,FIX
412400,1063.7,472.29,1.0,1,FIX
427100,1033.94,427.02,1.0,1,FIX
441900,1075.72,444.61,1.0,1,FIX
463600,982.41,395.09,1.0,1,FIX
478300,1082.18,500.43,1.0,1,FIX
493000,999.57,393.0,1.0,1,SACCADE
522500,1008.84,474.27,1.0,2,SACCADE
537300,1048.08,552.24,1.0,2,SACCADE
559300,943.39,630.67,1.0,2,SACCADE
588900,897.13,776.73,1.0,2,NOISE
603600,855.56,861.6,1.0,2,NOISE
618200,865.4,931.86,1.0,2,NOISE
640700,815.25,859.34,1.0,2,NOISE
654600,794.25,863.27,1.0,2,NOISE
669400,812.27,758.97,1.0,2,NOISE
684200,791.23,714.17,1.0,2,NOISE
698900,769.79,574.86,1.0,1,NOISE
713600,762.12,587.71,1.0,1,FIX
736000,799.18,549.33,1.0,1,FIX
750400,782.04,560.89,1.0,1,FIX
765200,807.85,480.93,1.0,1,FIX
779800,806.83,497.36,1.0,1,FIX
794400,833.77,466.94,1.0,1,FIX
809300,855.76,468.97,1.0,1,FIX
831600,861.01,421.79,1.0,1,SACCADE
846400,919.06,490.67,1.0,2,SACCADE
861000,816.18,394.43,1.0,2,SACCADE
875700,851.08,504.77,1.0,2,SP
905300,1309.63,688.0,1.0,1,FIX
927600,1422.08,666.4,1.0,1,FIX
956800,1353.92,611.89,1.0,1,FIX
971700,1369.83,551.85,1.0,1,FIX
986300,1347.06,602.2,1.0,1,FIX
1001300,1302.33,514.15,1.0,1,FIX
1023100,1298.04,563.45,1.0,1,FIX
1037700,1340.71,573.17,1.0,1,FIX
1052600,1347.9,555.06,1.0,1,FIX
1066900,1332.07,572.74,1.0,1,FIX
1081700,1318.13,585.21,1.0,1,FIX
1103900,1408.02,578.94,1.0,2,FIX
1119200,1400.22,595.39,1.0,2,SACCADE
1133900,1338.87,509.27,1.0,2,SACCADE
1148600,1273.91,534.93,1.0,3,SACCADE
1163200,1079.05,518.07,1.0,3,NOISE
1177900,915.97,527.77,1.0,1,FIX
1200000,822.16,415.16,1.0,1,FIX
1214900,900.57,518.74,1.0,1,FIX
1229600,856.64,457.88,1.0,1,FIX
1244400,858.23,541.59,1.0,1,FIX
1273800,834.88,455.17,1.0,1,FIX
1295900,811.58,466.48,1.0,1,FIX
1310500,848.39,474.25,1.0,1,FIX
1340400,857.61,440.38,1.0,1,FIX
1355100,851.87,464.09,1.0,1,FIX
1369900,872.05,423.21,1.0,1,FIX
1391800,835.39,499.95,1.0,1,FIX
1406500,883.69,393.82,1.0,1,FIX
1421300,883.73,458.41,1.0,1,FIX
1435900,878.55,431.47,1.0,1,FIX
1450600,821.39,435.91,1.0,1,FIX
1465500,833.27,410.28,1.0,1,FIX
1487600,828.64,453.27,1.0,1,FIX
1502200,836.42,429.75,1.0,1,FIX
1516900,850.12,472.38,1.0,1,FIX
1531600,831.51,403.74,1.0,1,FIX
1546400,866.93,459.59,1.0,1,FIX
1561400,856.72,454.99,1.0,1,FIX
1584300,848.33,401.99,1.0,1,FIX
1598300,859.55,391.23,1.0,1,FIX
1613100,816.57,403.46,1.0,1,FIX
1627900,874.03,431.0,1.0,1,FIX
1664500,874.69,446.86,1.0,1,FIX
1679100,811.98,400.61,1.0,1,FIX
1708500,850.53,394.78,1.0,1,FIX
1723200,862.62,428.61,1.0,1,FIX
1737900,880.72,411.67,1.0,1,FIX
1760100,864.4,428.74,1.0,1,SACCADE
1774500,873.08,399.19,1.0,2,SACCADE
1789500,894.67,442.11,1.0,2,FIX
1804300,861.14,339.7,1.0,2,FIX
