@RELATION gaze_labels

%@METADATA width_px 1920
%@METADATA height_px 1080
%@METADATA width_mm 540.00
%@METADATA height_mm 254.00
%@METADATA distance_mm 620.00


@ATTRIBUTE time INTEGER
@ATTRIBUTE x NUMERIC
@ATTRIBUTE y NUMERIC
@ATTRIBUTE confidence NUMERIC
@ATTRIBUTE handlabeller1 INTEGER
@ATTRIBUTE handlabeller2 INTEGER
@ATTRIBUTE handlabeller_final INTEGER
@ATTRIBUTE speed_1 numeric
@ATTRIBUTE direction_1 numeric
@ATTRIBUTE acceleration_1 numeric
@ATTRIBUTE speed_2 numeric
@ATTRIBUTE direction_2 numeric
@ATTRIBUTE acceleration_2 numeric
@ATTRIBUTE speed_4 numeric
@ATTRIBUTE direction_4 numeric
@ATTRIBUTE acceleration_4 numeric
@ATTRIBUTE speed_8 numeric
@ATTRIBUTE direction_8 numeric
@ATTRIBUTE acceleration_8 numeric
@ATTRIBUTE speed_16 numeric
@ATTRIBUTE direction_16 numeric
@ATTRIBUTE acceleration_16 numeric

%The number after speed, direction denotes the step size that was used for the calculation.
%Acceleration was calculated between two adjacent samples of the already low pass filtered velocity

@DATA
0,1174.41,929.33,1.00,1,1,1,0.00,0.00,0.00,4004.14,-0.23,0.00,2240.23,-0.28,0.00,423.20,-0.56,0.00,660.97,-0.22,0.00
15800,1236.08,915.19,1.00,1,1,1,4004.14,-0.23,253426.47,2240.23,-0.28,112124.92,554.41,-2.85,172351.20,436.13,-3.13,52191.49,122.62,-3.06,49295.05
31600,1242.44,909.74,1.00,1,1,1,530.18,-0.71,224249.85,554.41,-2.85,172351.20,423.20,-0.56,56428.89,68.39,0.64,31208.11,434.21,3.00,19979.57
47200,1219.40,910.20,1.00,1,1,1,1477.13,3.12,122844.85,1506.42,3.02,65554.87,436.13,-3.13,52860.61,506.05,0.03,28956.06,346.55,3.00,5619.92
62200,1196.68,915.29,1.00,1,1,1,1552.42,2.92,20835.59,372.64,2.70,77245.08,68.39,0.64,32872.54,660.97,-0.22,14018.89,121.32,-3.12,15176.81
77300,1209.26,914.98,1.00,1,1,1,833.27,-0.02,157302.52,1661.18,-0.06,133261.13,506.05,0.03,29914.87,122.62,-3.06,51580.25,176.55,-3.06,3696.53
91800,1245.75,912.19,1.00,1,1,1,2524.22,-0.08,116733.51,1060.63,-0.08,41438.67,880.91,-0.09,26394.68,434.21,3.00,21770.84,373.32,-3.13,13622.57
123300,1257.90,911.20,1.00,1,1,1,386.92,-0.08,67850.96,392.95,-0.16,21263.93,69.64,-0.20,25770.69,346.55,3.00,2783.20,482.19,3.10,3513.62
139000,1264.06,909.23,1.00,1,1,1,412.01,-0.31,5993.61,754.41,3.09,72990.97,719.35,3.04,50230.70,121.32,-3.12,14500.13,31.60,-1.16,31628.84
178700,1216.17,913.55,1.00,1,1,1,1211.19,3.05,40700.71,1673.38,3.03,23199.08,1093.86,3.07,9451.07,176.55,-3.06,1405.99,223.04,2.94,6105.41
194000,1172.59,919.40,1.00,1,1,1,2874.07,3.01,108815.02,1700.82,3.06,3308.82,1011.10,3.08,5438.74,373.32,-3.13,12910.28,258.14,2.83,2893.42
209700,1163.64,918.05,1.00,1,1,1,576.57,-2.99,148157.52,199.25,-0.81,118102.66,572.36,-3.12,28259.36,482.19,3.10,7049.63,233.03,2.77,1834.92
225400,1176.88,914.85,1.00,1,1,1,867.90,-0.24,90359.99,558.36,-0.31,25241.20,123.22,-0.95,41382.30,525.75,3.01,4090.28,159.99,2.71,4722.56
241200,1180.41,912.75,1.00,1,1,1,259.81,-0.54,39531.75,76.15,-1.19,32496.60,193.37,-0.26,7967.60,347.03,2.83,12303.95,116.91,2.54,3075.40
272700,1178.22,911.51,1.00,2,2,2,79.76,-2.63,9750.64,52.69,2.55,3915.15,74.22,1.34,6641.78,112.94,2.08,8735.60,135.46,2.66,751.41
288400,1178.35,914.14,1.00,2,2,2,167.54,1.52,14053.18,290.41,1.57,16850.45,243.19,2.17,12784.01,148.63,2.20,2469.40,160.98,2.70,1666.01
303700,1178.21,920.51,1.00,2,2,2,416.78,1.59,16332.19,539.73,2.12,21412.55,349.54,2.12,7014.23,219.98,2.45,5540.13,194.37,2.78,2355.34
319400,1169.67,928.44,1.00,3,3,3,742.29,2.39,34534.11,427.79,2.36,10214.42,465.01,2.47,11480.00,149.34,1.66,9969.80,148.09,2.74,2980.99
351100,1163.88,934.86,1.00,1,1,1,272.64,2.30,14868.30,454.11,2.74,5335.47,410.87,2.62,2673.40,251.88,0.63,6871.76,62.96,2.18,3159.58
366800,1149.89,936.92,1.00,1,1,1,901.10,3.00,45379.28,439.35,3.00,7561.29,145.80,0.73,30369.68,278.88,0.48,3023.42,63.16,1.28,3513.56
382700,1150.14,936.80,1.00,1,1,1,17.36,-0.44,57718.44,903.48,-0.03,84339.63,687.48,-0.06,37326.58,189.33,0.38,5806.53,59.24,1.31,281.41
398200,1178.24,936.09,1.00,1,1,1,1813.97,-0.03,116006.72,1823.96,-0.08,59521.11,1011.07,-0.07,20893.07,29.92,0.73,10424.76,131.18,0.24,7452.36
414000,1207.06,932.37,1.00,1,1,1,1838.56,-0.13,12005.39,1119.87,-0.11,44645.68,719.64,-0.09,18482.30,17.42,2.87,2652.81,314.46,-0.04,12112.84
429700,1213.32,932.30,1.00,1,1,1,398.82,-0.01,91921.84,33.78,-2.58,73026.80,67.11,-2.42,48857.02,124.34,0.01,8991.80,481.84,-0.13,10911.06
460300,1205.73,931.54,1.00,1,1,1,249.07,-3.04,21141.25,635.83,-3.13,19848.11,488.47,3.07,14511.01,184.24,-0.10,2019.78,606.07,-0.17,4117.87
492300,1173.51,931.91,1.00,1,1,1,1006.87,3.13,23745.17,936.37,3.05,9700.70,469.93,3.03,803.09,260.55,-0.28,2700.41,704.39,-0.19,3111.54
508000,1161.25,935.60,1.00,1,1,1,815.61,2.85,20226.04,209.35,2.25,51283.78,250.34,3.05,13989.79,423.28,-0.33,10414.58,710.67,-0.23,1637.21
523700,1169.40,937.03,1.00,1,1,1,526.77,0.17,83294.06,432.83,-0.09,38037.85,586.04,-0.18,53235.63,691.69,-0.31,17105.21,663.51,-0.25,3111.15
555900,1181.90,933.78,1.00,2,2,2,401.37,-0.25,7220.33,1012.07,-0.25,18304.63,1406.47,-0.23,25528.88,1031.16,-0.26,10629.85,626.70,-0.26,1153.24
578900,1223.49,923.07,1.00,2,2,2,1867.05,-0.25,63725.14,2630.88,-0.26,70385.60,1949.02,-0.26,23671.95,1423.48,-0.21,17253.66,568.17,-0.29,2707.78
594200,1279.25,907.77,1.00,3,3,3,3779.32,-0.27,125014.73,3612.09,-0.26,64131.90,2779.66,-0.24,54365.28,1402.59,-0.23,2159.84,408.97,-0.36,10601.69
610000,1331.99,893.95,1.00,3,3,3,3450.27,-0.26,20990.51,2961.43,-0.22,42194.55,2347.87,-0.22,27497.54,1179.72,-0.27,14534.44,436.56,-0.34,1779.44
625800,1370.62,887.55,1.00,1,1,1,2478.70,-0.16,63809.24,1523.44,-0.16,91367.13,1398.35,-0.23,60099.89,1147.07,-0.29,2262.28,478.02,-0.35,2626.12
657400,1403.30,882.59,1.00,1,1,1,1045.86,-0.15,45348.32,354.69,-0.28,37094.61,339.69,-0.36,33622.52,962.42,-0.29,5851.63,406.67,-0.34,2258.01
673100,1386.75,882.91,1.00,1,1,1,1054.51,3.12,133492.77,1468.25,3.10,115598.61,327.37,-3.08,41557.44,391.20,-0.39,36584.03,288.36,-0.42,7703.71
688900,1357.09,884.56,1.00,1,1,1,1879.82,3.09,52336.38,1349.01,3.07,8023.19,799.36,3.12,29994.80,114.71,-0.57,17668.72,120.36,-0.86,11819.88
704100,1345.04,885.97,1.00,1,1,1,798.28,3.03,71320.14,123.92,-2.91,81007.04,904.05,3.08,7309.62,197.31,-2.94,19102.27,206.67,-2.96,18856.64
719900,1353.35,883.69,1.00,1,1,1,545.54,-0.27,84815.47,466.30,3.10,22065.79,184.08,3.09,45569.92,808.96,3.08,39302.21,282.98,-3.13,5531.29
735600,1330.36,886.62,1.00,1,1,1,1475.94,3.01,128504.44,250.29,2.96,14091.35,69.71,-1.95,11121.94,1042.52,3.03,15175.14,366.04,3.05,5700.29
751400,1345.60,885.13,1.00,1,1,1,968.85,-0.10,154717.70,449.54,-0.34,44161.86,817.77,3.04,50726.35,1179.85,2.99,8994.28,476.79,2.99,7195.49
766500,1343.44,881.92,1.00,2,2,2,256.17,-2.16,73758.47,1207.09,3.05,108992.07,1155.57,2.99,22592.28,1606.06,2.98,28260.06,575.99,2.98,6569.81
797400,1290.28,889.96,1.00,2,2,2,1739.73,2.99,53277.52,2212.66,2.97,32869.00,1980.59,2.98,26703.03,1349.36,2.96,8328.29,658.49,2.98,2670.47
813200,1241.68,899.86,1.00,3,3,3,3139.67,2.94,88921.33,3106.11,2.95,56658.03,2887.89,2.96,57568.16,1016.49,2.95,21101.18,670.67,2.98,806.41
829200,1193.40,909.18,1.00,1,1,1,3073.05,2.95,4609.77,3911.96,2.95,50374.79,1837.78,2.93,65730.10,944.78,2.95,4484.32,540.33,2.97,8151.33
844000,1123.39,922.78,1.00,1,1,1,4818.90,2.95,117963.49,1078.63,2.91,191518.02,891.09,2.90,64048.99,890.49,2.92,3976.64,425.13,2.93,7887.30
882300,1137.64,922.26,1.00,1,1,1,372.29,-0.04,135431.42,847.16,-0.10,50177.12,139.27,2.49,19968.01,535.03,2.86,9355.58,439.29,2.92,397.54
897700,1168.65,918.21,1.00,1,1,1,2030.91,-0.13,107830.91,1000.17,-0.11,9944.94,683.03,-0.10,52281.81,351.11,2.85,11945.60,366.50,2.91,4726.58
927400,1182.48,917.42,1.00,1,1,1,466.56,-0.06,52724.93,486.74,-0.09,17290.67,925.85,-0.11,8186.92,30.40,0.78,12346.26,374.74,2.92,281.22
942600,1190.41,916.18,1.00,1,1,1,527.76,-0.16,5142.11,817.80,-0.13,21822.49,248.76,-0.10,44546.79,598.08,-0.10,38098.45,336.22,2.91,2548.45
958400,1207.64,914.23,1.00,1,1,1,1097.16,-0.11,36098.44,89.57,3.11,57406.30,243.02,-0.32,3444.19,623.76,-0.10,1627.00,205.91,2.87,8265.39
974200,1187.58,916.27,1.00,1,1,1,1275.81,3.04,150185.52,345.17,-2.99,16304.77,465.58,-0.11,14814.31,388.05,-0.12,14931.42,87.24,2.67,7708.80
989900,1196.89,912.60,1.00,1,1,1,637.23,-0.38,120829.81,1020.50,-0.10,86464.74,260.97,-0.05,13084.29,423.26,-0.14,2266.57,45.15,0.33,7824.92
1005800,1219.67,913.03,1.00,1,1,1,1432.84,0.02,55309.32,857.01,0.03,12726.14,556.21,-0.13,18664.24,351.90,-0.19,4666.17,380.76,-0.09,21398.41
1021700,1224.13,913.33,1.00,1,1,1,281.47,0.07,72439.14,101.06,-0.47,48408.10,606.79,-0.06,4123.34,166.45,-0.33,11868.78,529.67,-0.10,9366.76
1037600,1222.53,911.57,1.00,1,1,1,149.53,-2.31,25338.73,366.42,-0.27,16860.16,263.58,-0.30,22418.80,216.78,-0.14,3898.57,593.93,-0.12,4097.27
1053300,1235.28,910.22,1.00,1,1,1,816.88,-0.11,58172.36,374.90,-0.27,540.84,114.23,-0.86,11276.09,66.70,0.11,9756.83,526.88,-0.15,4421.46
1084500,1239.46,906.84,1.00,1,1,1,172.41,-0.68,21755.66,135.48,-2.52,15128.34,56.07,3.07,5095.81,133.38,-0.06,2202.98,469.76,-0.16,1832.01
1100800,1230.04,906.50,1.00,1,1,1,578.56,-3.11,44017.87,685.57,2.91,37111.52,369.73,3.02,19246.78,436.98,-0.10,18631.98,355.93,-0.16,6984.56
1116500,1218.12,911.91,1.00,2,2,2,833.82,2.72,25986.33,789.32,2.85,7193.57,79.97,1.75,22607.53,797.50,-0.12,22977.08,458.58,-0.13,6575.08
1132200,1206.32,913.67,1.00,2,2,2,760.10,2.99,14786.91,651.64,-0.00,90825.92,891.76,0.02,57824.52,606.06,-0.16,12335.92,418.25,-0.15,2591.94
1147900,1238.58,911.83,1.00,2,2,2,2058.34,-0.06,179369.77,2568.00,-0.08,122217.73,1873.26,-0.12,63453.70,571.68,-0.14,2333.71,379.56,-0.17,2533.13
1163200,1285.68,907.41,1.00,3,3,3,3091.83,-0.09,67817.36,3107.69,-0.14,37002.52,1501.08,-0.15,24618.65,523.19,-0.11,3298.70,399.12,-0.19,1376.79
1179100,1334.60,898.36,1.00,1,1,1,3129.01,-0.18,17586.72,909.32,-0.26,138890.84,946.83,-0.19,34975.52,668.39,-0.13,9155.99,552.56,-0.15,9714.88
1218200,1333.95,894.34,1.00,1,1,1,104.11,-1.73,80007.83,69.99,-1.99,23598.54,309.47,-0.34,16438.35,698.84,-0.16,983.46,640.88,-0.12,2301.99
1249000,1332.61,893.89,1.00,1,1,1,46.04,-2.82,2995.64,403.94,3.01,12665.88,77.19,-3.05,12368.56,575.03,-0.19,4047.55,645.29,-0.10,374.50
1264800,1315.30,896.87,1.00,1,1,1,1111.56,2.97,67798.80,219.69,2.57,14285.95,43.68,-2.83,2266.06,372.19,-0.27,13083.64,595.08,-0.11,3196.02
1280500,1326.80,897.66,1.00,1,1,1,734.51,0.07,116779.92,324.77,-0.25,34235.29,96.19,-0.18,8685.83,360.97,-0.21,1684.43,598.63,-0.13,663.78
1311700,1330.06,893.11,1.00,2,2,2,179.40,-0.95,21102.57,301.83,-0.37,1397.85,455.21,-0.21,11509.65,678.47,-0.09,10361.07,556.25,-0.15,1402.52
1327500,1340.04,892.56,1.00,2,2,2,632.64,-0.05,34107.70,649.95,-0.19,22601.39,922.30,-0.18,29601.67,731.56,-0.07,3394.92,440.02,-0.18,7431.14
1343200,1350.18,889.29,1.00,3,3,3,678.26,-0.31,11109.22,1855.26,-0.13,76874.66,1745.47,-0.07,53117.56,678.59,-0.11,3821.50,334.03,-0.21,6779.41
1359100,1398.17,884.91,1.00,1,1,1,3030.90,-0.09,149302.58,2846.38,-0.04,63559.50,1523.93,-0.07,13941.42,517.60,-0.13,10140.50,163.04,-0.27,10795.17
1374700,1439.75,885.26,1.00,1,1,1,2665.38,0.01,29604.64,1200.31,0.03,105921.70,961.90,-0.06,36036.76,375.74,-0.11,9107.69,143.68,-0.17,1588.17
1390500,1435.84,886.16,1.00,1,1,1,253.88,2.92,184361.59,935.00,3.12,135096.36,55.47,1.25,60043.58,268.57,-0.17,6877.62,211.75,-0.12,4349.43
1406000,1410.49,885.89,1.00,1,1,1,1635.53,-3.13,89676.76,1173.65,3.09,15569.55,724.62,3.11,47900.78,288.17,-0.10,1768.31,384.09,-0.09,11130.33
1421700,1399.28,888.20,1.00,1,1,1,729.11,2.94,59610.52,585.20,3.10,37484.20,744.36,3.14,1990.21,93.58,-3.10,24267.63,454.36,-0.10,4489.46
1453200,1382.89,887.16,1.00,1,1,1,521.08,-3.08,8406.77,463.77,-3.05,4481.15,251.64,-3.11,15649.04,454.69,3.11,11474.37,538.74,-0.08,2696.18
1468900,1377.48,886.19,1.00,1,1,1,350.54,-2.96,11304.06,256.72,-0.24,45302.97,189.03,-2.88,5127.21,311.52,3.12,9123.17,501.69,-0.09,2365.99
1484600,1390.72,885.23,1.00,1,1,1,845.59,-0.07,75691.19,249.14,-0.24,484.39,111.92,-3.13,5452.02,104.50,0.07,26478.48,413.70,-0.09,5604.32
1500000,1385.00,884.31,1.00,1,1,1,376.42,-2.98,78899.91,488.78,3.02,47841.39,232.70,0.05,22374.04,394.44,-0.07,18917.01,268.98,-0.10,9402.25
1515000,1375.98,887.09,1.00,2,2,2,629.17,2.84,22389.86,238.29,0.36,47227.39,508.34,0.05,18376.02,695.35,-0.07,20060.76,230.86,-0.22,3150.30
1531300,1391.98,886.92,1.00,2,2,2,981.78,-0.01,97851.16,1283.40,-0.00,65258.36,1040.51,-0.00,32728.28,705.43,-0.06,679.45,88.19,-0.70,9726.21
1553900,1425.90,887.01,1.00,2,2,2,1500.99,0.00,22984.42,1708.15,-0.04,18966.82,1277.26,-0.06,10942.65,522.82,-0.08,8103.69,166.85,2.59,11254.64
1569700,1457.52,884.26,1.00,1,1,1,2008.60,-0.09,33592.59,1275.80,-0.11,28201.42,1000.86,-0.08,17524.78,553.66,-0.08,1952.48,448.44,2.03,20215.20
1600700,1485.23,880.24,1.00,1,1,1,903.10,-0.14,35748.42,563.42,-0.15,22997.10,539.35,-0.18,15077.65,764.26,-0.13,6859.64,873.35,1.84,14253.98
1631500,1491.97,879.20,1.00,1,1,1,221.54,-0.15,22128.85,214.08,-2.92,24913.40,251.56,-0.30,9463.94,380.70,-0.28,12743.45,1178.52,1.85,9911.55
1647300,1475.48,878.09,1.00,1,1,1,1045.72,-3.07,79925.78,185.20,-2.77,2628.51,306.56,-0.38,3756.90,386.97,2.73,48481.06,1279.58,1.96,10644.84
1679000,1483.76,876.04,1.00,1,1,1,268.93,-0.24,41148.59,795.75,-0.23,30107.58,464.46,-2.83,22916.12,1048.11,2.32,22407.79,1224.12,2.23,10835.51
1694200,1511.80,869.50,1.00,2,2,2,1894.47,-0.23,106945.20,892.87,-2.84,107219.77,1478.85,2.83,74748.60,1900.37,2.14,58442.49,1222.06,2.55,26082.45
1710000,1457.30,867.91,1.00,2,2,2,3450.89,-3.11,335735.50,4851.86,2.85,262074.73,3269.75,2.38,128962.29,2732.91,2.10,52947.71,793.84,2.64,27677.66
1725800,1365.03,913.84,1.00,4,4,4,6523.24,2.68,243159.82,6103.76,2.26,215668.74,4449.95,2.19,88583.62,2902.67,2.12,11452.28,433.89,2.55,23038.61
1741500,1335.44,1016.62,1.00,4,4,4,6812.85,1.85,342337.62,5258.13,1.80,173144.27,5398.84,2.02,79962.55,3308.25,2.39,57649.48,200.40,2.43,15036.22
1773200,1309.08,1156.71,1.00,4,4,4,4496.73,1.76,74899.57,5134.72,1.83,6056.46,4802.83,1.92,24396.75,3674.57,2.67,33272.85,111.32,1.86,3873.64
1788100,1275.14,1248.18,1.00,4,4,4,6547.78,1.93,150810.86,4271.09,2.16,120333.93,3339.33,2.39,158690.66,2205.51,2.69,98647.30,98.13,1.58,2129.22
1803200,1237.60,1263.05,1.00,4,4,4,2674.32,2.76,341601.67,4520.05,-2.74,370942.25,4266.43,-2.94,237492.23,501.63,2.39,114677.95,113.11,1.09,3517.72
1819000,1146.59,1193.58,1.00,4,4,4,7246.57,-2.49,398693.20,7713.78,-2.44,231462.93,3758.09,-2.01,230314.01,790.20,-0.89,81568.09,228.36,0.18,11561.05
1835000,1050.70,1104.18,1.00,2,2,2,8193.66,-2.39,75826.90,4732.02,-1.47,396306.45,4368.91,-1.33,172428.95,2250.20,-0.97,91506.88,94.01,0.43,8699.84
1857800,1164.33,1010.84,1.00,2,2,2,6449.47,-0.69,485858.24,7648.82,-0.49,279468.79,5338.43,-0.80,119852.47,3053.15,-1.00,35416.58,44.14,1.94,4453.41
1873600,1310.71,964.30,1.00,2,2,2,9721.53,-0.31,280524.44,8245.25,-0.33,88541.99,6706.09,-0.42,164638.32,3287.94,-0.95,18099.28,82.93,-1.68,7830.72
1889200,1408.92,925.95,1.00,2,2,2,6758.36,-0.37,192873.62,5592.15,-0.30,170591.98,5491.75,-0.31,90304.15,3400.89,-0.65,65079.15,465.05,-2.29,25628.57
1904500,1475.61,912.67,1.00,2,2,2,4444.75,-0.20,163759.19,2725.27,-0.22,188611.78,3023.31,-0.31,161337.23,3274.04,-0.43,48874.38,858.23,-1.90,30333.37
1920300,1491.65,907.53,1.00,2,2,2,1065.66,-0.31,214432.59,504.08,-0.36,140959.27,1848.72,-0.27,74602.69,2019.34,-0.43,79414.09,1126.20,-1.58,26077.51
1936000,1490.49,907.10,1.00,1,1,1,79.22,-2.78,71909.87,1276.00,-0.33,49183.78,739.79,-0.47,72170.17,536.17,-0.98,101242.46,1201.30,-1.41,13562.87
1967500,1548.57,887.85,1.00,2,2,2,1942.59,-0.32,63649.67,860.29,-0.50,14281.50,506.80,-2.54,34250.60,1002.26,-3.02,42288.84,1155.43,-1.02,14390.59
1998600,1537.82,881.41,1.00,2,2,2,403.01,-2.60,71597.50,2056.33,-3.06,90599.16,1180.94,-2.99,24383.76,1447.48,-3.13,14941.69,1170.52,-0.61,15100.95
2014400,1452.42,880.42,1.00,2,2,2,5405.61,-3.13,320352.60,3709.81,3.11,106446.08,3306.18,3.09,136936.77,1260.90,-3.12,11815.02,650.17,-0.61,32933.88
2046000,1362.08,887.45,1.00,3,3,3,2867.44,3.06,81085.92,4567.96,3.03,28976.83,3977.77,3.05,21639.35,1109.19,-3.10,4864.10,209.89,-1.57,17575.32
2061800,1237.25,904.61,1.00,1,1,1,7974.82,3.00,323745.43,4400.10,2.98,17049.22,2277.00,3.01,107906.06,1375.10,3.12,17389.62,364.50,-2.95,24358.52
2077500,1225.22,909.38,1.00,1,1,1,824.26,2.76,457140.82,1100.25,-0.03,349846.78,1024.82,2.95,79967.61,1133.41,3.11,15425.92,663.23,-3.14,19909.14
2094000,1272.67,903.68,1.00,1,1,1,2896.09,-0.12,224182.61,2268.51,-0.13,71533.42,1495.47,-0.14,152695.32,766.97,3.04,22581.04,746.17,3.10,5491.60
2109800,1297.85,899.69,1.00,1,1,1,1613.88,-0.16,81315.31,1911.66,-0.20,24341.46,1702.23,-0.17,13462.14,366.21,2.93,25608.34,889.20,3.07,9167.97
2125400,1331.48,891.67,1.00,1,1,1,2216.05,-0.23,39715.51,1315.98,-0.21,38192.79,761.94,-0.18,60283.42,416.56,-0.01,49940.60,1131.21,3.01,15934.03
2156900,1358.48,886.82,1.00,1,1,1,871.00,-0.18,42772.11,24.81,1.43,41839.13,168.31,-0.11,18861.89,292.42,0.05,3994.74,1114.26,2.98,1092.94
2172700,1331.64,892.83,1.00,1,1,1,1740.90,2.92,165276.40,1544.77,2.91,97632.71,473.68,2.81,40440.08,151.59,2.40,26160.93,726.43,2.91,24909.49
2188500,1311.01,898.20,1.00,2,2,2,1349.08,2.89,25017.95,1187.39,2.84,23349.49,1517.42,2.88,66177.27,645.71,2.83,32409.67,415.68,2.78,20215.96
2203800,1296.40,903.85,1.00,2,2,2,1024.26,2.77,22971.72,1490.59,2.85,19863.19,1262.45,2.81,17713.71,896.72,2.83,16406.44,134.97,2.19,20412.90
2219500,1266.70,911.30,1.00,2,2,2,1950.03,2.90,59997.13,1337.43,2.79,11183.50,1662.20,2.86,25738.89,1115.37,2.83,13928.72,292.42,0.05,24377.90
2235200,1256.92,918.19,1.00,2,2,2,761.64,2.53,80833.40,1829.50,2.86,31961.99,1367.98,2.84,18833.57,695.59,2.74,27221.08,151.59,2.40,26327.56
2251300,1210.88,927.68,1.00,2,2,2,2920.21,2.94,139272.36,1394.30,2.87,27058.59,761.95,2.74,38093.30,477.90,2.65,13940.21,645.71,2.83,31805.76
2274200,1204.56,932.85,1.00,3,3,3,356.39,2.46,113960.63,202.54,0.60,66930.43,209.30,2.33,25177.36,649.79,2.77,8137.41,896.72,2.83,10961.51
2289800,1217.32,932.07,1.00,1,1,1,819.81,-0.06,72330.55,1375.25,-0.10,78602.37,639.29,0.01,51029.81,761.95,2.74,7326.80,1115.37,2.83,14018.01
2305100,1246.86,928.81,1.00,1,1,1,1942.27,-0.11,73473.14,1229.13,-0.10,9553.45,181.18,0.18,30159.04,209.30,2.33,37683.76,695.59,2.74,27932.74
2320900,1255.37,928.32,1.00,1,1,1,539.14,-0.06,88871.18,1000.58,2.95,140968.27,1229.13,-0.10,66830.19,639.29,0.01,50383.87,477.90,2.65,14204.89
2336800,1215.72,934.85,1.00,1,1,1,2526.80,2.98,192669.42,2526.80,2.98,96030.82,1000.58,2.95,140081.67,181.18,0.18,29020.96,649.79,2.77,11719.92
