@RELATION gaze_labels

%@METADATA width_px 1920
%@METADATA height_px 1080
%@METADATA width_mm 540.00
%@METADATA height_mm 254.00
%@METADATA distance_mm 620.00


@ATTRIBUTE time INTEGER
@ATTRIBUTE x NUMERIC
@ATTRIBUTE y NUMERIC
@ATTRIBUTE confidence NUMERIC
@ATTRIBUTE handlabeller1 INTEGER
@ATTRIBUTE handlabeller2 INTEGER
@ATTRIBUTE handlabeller_final INTEGER
@ATTRIBUTE speed_1 numeric
@ATTRIBUTE direction_1 numeric
@ATTRIBUTE acceleration_1 numeric
@ATTRIBUTE speed_2 numeric
@ATTRIBUTE direction_2 numeric
@ATTRIBUTE acceleration_2 numeric
@ATTRIBUTE speed_4 numeric
@ATTRIBUTE direction_4 numeric
@ATTRIBUTE acceleration_4 numeric
@ATTRIBUTE speed_8 numeric
@ATTRIBUTE direction_8 numeric
@ATTRIBUTE acceleration_8 numeric
@ATTRIBUTE speed_16 numeric
@ATTRIBUTE direction_16 numeric
@ATTRIBUTE acceleration_16 numeric

%The number after speed, direction denotes the step size that was used for the calculation.
%Acceleration was calculated between two adjacent samples of the already low pass filtered velocity

@DATA
0,1440.39,880.42,1.00,0,0,0,0.00,0.00,0.00,922.56,-2.12,0.00,647.85,-1.71,0.00,405.05,-1.98,0.00,467.70,-2.76,0.00
15900,1432.77,867.89,1.00,1,1,1,922.56,-2.12,58022.91,647.85,-1.71,26063.90,503.50,-0.80,32814.74,318.89,-2.69,16475.21,474.36,-3.00,7147.13
31600,1437.48,860.15,1.00,1,1,1,576.95,-1.02,53128.10,503.50,-0.80,33232.76,405.05,-1.98,32564.50,941.74,-3.14,42684.91,492.11,-3.11,3468.86
47300,1443.73,856.49,1.00,1,1,1,461.08,-0.53,17661.74,253.26,-2.73,40560.09,318.89,-2.69,16685.08,901.48,3.11,3166.23,586.80,3.08,6892.18
63300,1430.13,856.92,1.00,1,1,1,850.11,3.11,79642.86,925.23,3.05,44614.98,941.74,-3.14,41884.56,467.70,-2.76,31780.05,846.10,3.03,16354.01
78700,1414.79,859.06,1.00,1,1,1,1005.98,3.00,11998.44,1668.47,3.08,48313.22,901.48,3.11,3227.91,474.36,-3.00,7379.18,1083.68,2.96,16019.38
94400,1378.34,860.08,1.00,1,1,1,2322.53,3.11,84545.08,880.98,-3.11,50651.15,709.71,3.11,12217.41,492.11,-3.11,3468.86,1128.52,2.86,7295.50
110200,1387.05,858.22,1.00,1,1,1,563.81,-0.21,182201.84,239.91,-0.21,70602.82,615.83,-3.13,6256.87,586.80,3.08,6848.56,1363.73,2.84,15023.34
125900,1385.73,858.52,1.00,1,1,1,86.06,2.92,41392.88,439.89,3.13,43114.37,134.48,-2.93,30880.38,846.10,3.03,16666.51,883.33,2.95,31685.50
157600,1366.20,858.53,1.00,1,1,1,616.11,3.14,16797.82,377.66,-3.10,2074.48,377.81,3.02,8025.72,1083.68,2.96,7782.28,875.22,2.89,1862.43
172800,1368.03,857.86,1.00,2,2,2,128.30,-0.35,48545.76,320.78,2.88,7795.60,938.81,2.99,36932.81,1128.52,2.86,7535.49,961.59,2.87,5788.74
204500,1351.68,862.44,1.00,2,2,2,535.89,2.87,20942.24,1502.49,2.94,37302.37,1570.79,2.88,20349.14,1363.73,2.84,7487.97,1109.26,2.87,4660.17
220200,1298.25,872.07,1.00,3,3,3,3457.83,2.96,186290.65,3431.93,2.88,123189.72,2131.72,2.83,36172.66,1291.94,2.80,5651.13,1127.25,2.87,1145.63
236000,1247.20,890.21,1.00,1,1,1,3429.01,2.80,35551.85,3098.17,2.75,33683.62,2863.07,2.80,46574.93,1327.74,2.75,4555.68,1050.09,2.87,4900.80
251800,1207.59,909.02,1.00,1,1,1,2775.29,2.70,45907.13,2314.37,2.68,51348.01,1869.68,2.65,66417.66,1460.55,2.77,8565.71,935.73,2.85,7296.17
267000,1183.08,922.39,1.00,1,1,1,1837.03,2.64,62291.60,705.93,2.18,113479.23,1071.23,2.51,54304.86,1785.55,2.79,21508.85,881.08,2.86,3604.06
282700,1195.03,926.85,1.00,1,1,1,812.84,0.36,155904.09,407.34,0.63,51567.95,640.44,2.49,27445.83,1499.30,2.77,18411.06,919.20,2.86,2428.16
298400,1193.42,929.91,1.00,1,1,1,220.14,2.06,55331.10,644.69,2.83,60094.09,715.51,2.75,12125.12,1022.04,2.75,30412.09,877.23,2.82,3283.60
314200,1175.72,933.13,1.00,1,1,1,1138.83,2.96,64427.83,1678.18,2.96,65991.99,1163.29,2.95,30428.82,707.40,2.84,20383.67,886.14,2.82,563.51
329900,1141.43,939.45,1.00,1,1,1,2220.95,2.96,68925.29,1684.73,2.99,3193.48,1034.56,2.98,8614.08,374.66,2.94,21451.78,965.88,2.83,5120.35
345900,1122.93,941.21,1.00,1,1,1,1161.45,3.05,66795.94,514.64,3.04,73195.37,821.89,3.07,14189.94,533.23,3.01,10120.12,604.81,2.77,22801.62
368800,1121.51,941.43,1.00,1,1,1,62.82,2.99,47979.62,161.98,-2.47,18065.25,164.96,-2.73,29710.56,459.70,3.03,3235.96,189.46,2.56,18400.28
384600,1118.01,937.32,1.00,1,1,1,341.14,-2.28,19786.05,218.90,-0.84,17755.34,86.76,-2.57,5097.18,343.91,3.05,7351.90,162.59,0.06,21146.27
416000,1128.42,933.75,1.00,1,1,1,350.50,-0.33,18205.24,27.53,-3.05,7530.40,78.65,-0.70,4240.36,272.00,3.09,2316.31,433.52,-0.16,8824.46
430800,1116.74,937.21,1.00,1,1,1,822.87,2.85,79266.94,148.96,2.11,9401.74,97.32,0.05,4475.73,166.37,-0.38,29251.51,387.13,-0.22,3553.26
445700,1126.14,937.54,1.00,1,1,1,631.00,0.04,96325.53,288.29,0.05,25616.72,463.73,2.86,37358.33,538.49,-0.26,25093.80,270.47,-0.31,8043.12
461000,1125.44,937.66,1.00,1,1,1,46.53,2.97,44222.84,817.91,2.98,71973.02,478.59,-0.17,61488.15,898.00,-0.19,23723.57,340.32,-0.26,4655.26
475900,1101.77,941.60,1.00,2,2,2,1609.99,2.98,104929.74,675.78,-0.26,100123.98,1003.38,-0.22,35305.94,1301.45,-0.17,27088.60,330.15,-0.25,697.22
491700,1145.46,932.23,1.00,2,2,2,2827.83,-0.21,280804.79,2167.99,-0.21,94536.04,1685.95,-0.20,43253.13,1264.71,-0.19,2482.63,343.32,-0.23,977.89
523100,1201.85,920.25,1.00,3,3,3,1835.96,-0.21,31588.51,2344.13,-0.19,5864.29,2641.34,-0.19,30432.52,955.03,-0.22,9932.25,331.45,-0.27,543.83
538900,1254.19,911.72,1.00,1,1,1,3356.05,-0.16,96502.40,3349.72,-0.17,63713.92,1772.97,-0.19,54960.84,977.75,-0.20,1687.42,342.63,-0.22,1158.86
554700,1306.18,902.37,1.00,1,1,1,3343.63,-0.18,3597.28,1199.38,-0.19,136123.76,907.51,-0.21,54812.75,860.46,-0.20,7431.92,431.08,-0.21,5609.35
585900,1309.54,901.04,1.00,1,1,1,115.63,-0.38,103536.69,735.36,3.06,61921.74,278.73,-0.24,20157.94,502.47,-0.19,11476.96,734.97,-0.16,9778.91
601800,1271.66,905.14,1.00,1,1,1,2396.26,3.03,157731.61,1079.06,2.98,22067.49,773.42,2.97,66142.14,115.87,-0.31,24385.39,818.60,-0.16,5265.19
617800,1275.55,906.51,1.00,1,1,1,257.91,0.34,164461.53,827.21,2.87,17000.68,1204.82,2.95,26985.49,237.96,3.07,21980.67,973.71,-0.15,9694.90
640600,1240.71,913.65,1.00,1,1,1,1559.91,2.94,78338.41,1310.51,2.93,21367.24,783.36,2.96,18487.22,386.68,3.04,6532.52,1104.58,-0.17,5765.17
656000,1226.58,916.92,1.00,1,1,1,941.46,2.91,40206.97,737.09,3.08,38425.50,824.42,3.00,3544.36,121.04,0.15,32784.39,908.72,-0.17,12728.20
671200,1218.20,915.02,1.00,1,1,1,565.76,-2.92,32701.96,256.95,-2.81,33467.00,164.38,-0.57,64213.21,679.37,-0.06,36941.77,603.88,-0.18,20055.85
687000,1219.04,914.35,1.00,2,2,2,68.22,-0.67,38670.74,1013.95,-0.22,78529.11,1598.34,-0.14,91832.44,972.09,-0.10,18642.40,412.98,-0.15,12105.63
702600,1249.28,908.14,1.00,2,2,2,1978.89,-0.20,122958.85,3405.07,-0.10,153888.18,1974.17,-0.10,24369.27,1392.86,-0.14,27154.18,324.07,-0.13,5738.17
718400,1325.40,903.40,1.00,2,2,2,4826.87,-0.06,182325.92,2623.97,-0.07,49727.06,2561.49,-0.11,37190.11,1386.23,-0.17,2308.41,384.07,-0.11,3812.50
749400,1371.75,899.03,1.00,1,1,1,1501.67,-0.09,107299.76,1995.71,-0.12,20573.75,2383.01,-0.12,5801.02,1120.56,-0.16,8573.62,611.28,-0.11,7329.56
765200,1418.10,892.01,1.00,1,1,1,2967.37,-0.15,93071.40,2032.92,-0.21,11542.05,1216.70,-0.20,74367.82,1100.00,-0.14,2328.19,546.30,-0.15,4266.29
780500,1433.57,885.79,1.00,1,1,1,1089.45,-0.38,125708.62,253.38,-1.63,131464.07,155.10,-1.42,76560.01,1072.18,-0.12,2283.86,420.77,-0.18,8264.36
795800,1417.61,884.27,1.00,1,1,1,1047.87,-3.05,135738.74,1956.85,3.08,128936.90,746.40,3.11,51631.87,638.38,-0.16,28435.79,239.49,-0.25,11940.95
811400,1373.22,889.53,1.00,1,1,1,2865.49,3.02,118885.16,1486.78,2.94,33676.19,559.15,3.00,12808.39,537.62,-0.19,6589.64,183.94,-0.24,3562.70
827200,1371.85,893.52,1.00,1,1,1,266.98,1.90,174702.55,811.38,0.05,144456.72,109.10,2.25,30723.63,129.15,-0.49,26313.39,99.86,-0.27,5328.73
843100,1398.91,890.70,1.00,1,1,1,1711.21,-0.10,115692.32,1358.64,-0.10,35650.09,977.92,-0.06,66294.07,499.37,3.05,39021.49,55.21,-0.19,2837.66
857900,1413.37,889.55,1.00,1,1,1,980.05,-0.08,49449.93,1122.63,-0.12,16079.95,747.94,-0.16,16696.15,743.88,3.02,16579.78,100.51,3.12,10488.39
881100,1441.26,885.60,1.00,1,1,1,1214.37,-0.14,10511.05,410.89,-0.29,31079.63,456.62,3.10,51828.64,620.31,3.02,5326.33,294.79,3.06,8387.73
912700,1434.95,883.11,1.00,2,2,2,214.87,-2.77,44471.41,1721.33,3.06,67248.43,1152.99,3.06,22056.68,758.89,3.04,4403.08,479.17,3.03,5840.82
928500,1359.95,892.28,1.00,2,2,2,4782.07,3.02,290776.93,2987.17,3.03,80254.03,1805.80,3.05,41336.64,818.99,3.03,3813.21,480.69,3.01,755.69
959200,1296.96,899.02,1.00,3,3,3,2063.53,3.03,88565.18,1892.19,3.03,35671.76,2405.36,3.02,19620.22,725.45,3.02,3067.65,337.57,2.97,4697.75
975000,1272.47,901.70,1.00,3,3,3,1559.27,3.03,31916.43,1552.46,3.00,21900.47,1216.79,3.01,75236.35,995.25,3.01,17087.43,253.46,2.97,5323.58
990900,1248.27,906.16,1.00,1,1,1,1547.78,2.96,7202.10,236.58,2.68,83629.06,85.79,1.97,73923.64,1109.32,2.99,7287.57,246.61,2.99,560.86
1006600,1265.78,905.03,1.00,1,1,1,1117.67,-0.06,169485.81,1475.49,-0.05,107932.77,247.25,0.30,17180.55,462.03,2.96,41251.41,313.00,3.02,4260.81
1022500,1294.84,904.02,1.00,1,1,1,1829.11,-0.03,44822.82,698.46,0.06,49304.64,523.89,0.02,18510.18,144.05,0.16,37717.43,284.58,3.03,1798.36
1037300,1287.18,906.24,1.00,1,1,1,538.70,2.86,159126.63,463.13,2.95,77884.29,497.10,-0.03,2569.86,135.81,0.09,849.46,162.62,3.04,8243.31
1053200,1280.90,906.80,1.00,1,1,1,396.98,3.05,10556.88,306.82,-0.24,48414.87,288.56,-0.08,13167.09,294.08,-0.02,10043.44,59.17,-0.09,13948.49
1068300,1296.43,904.01,1.00,1,1,1,1045.11,-0.18,95425.54,791.20,-0.13,32278.02,73.47,-0.39,14552.75,219.33,-0.06,5011.81,409.80,-0.13,23223.54
1099000,1316.84,902.21,1.00,1,1,1,667.47,-0.09,12538.79,46.98,-3.01,27253.14,141.37,-0.10,2411.57,161.82,-0.15,1957.69,723.36,-0.12,10215.08
1130700,1293.52,903.62,1.00,1,1,1,736.90,3.08,44297.53,485.34,3.00,13890.03,37.91,-0.31,3298.86,632.64,-0.15,14852.33,849.47,-0.11,3981.34
1146500,1294.02,905.46,1.00,2,2,2,120.31,1.31,48741.18,201.58,-0.11,43470.98,53.21,-0.51,1122.70,1062.49,-0.15,27206.51,837.27,-0.11,772.49
1162100,1299.82,902.93,1.00,2,2,2,405.50,-0.41,28188.83,709.24,-0.20,32618.79,1379.65,-0.13,85276.36,1150.78,-0.15,5659.99,837.84,-0.11,250.52
1185100,1320.84,899.97,1.00,2,2,2,923.06,-0.14,23628.02,2333.09,-0.14,70699.80,2285.17,-0.15,39390.63,1270.73,-0.15,5215.29,677.94,-0.11,6953.16
1200900,1389.51,890.71,1.00,3,3,3,4385.68,-0.13,219154.69,4205.51,-0.14,118510.62,2630.05,-0.14,21852.16,1598.89,-0.13,20827.51,706.63,-0.11,1822.28
1216800,1452.86,881.44,1.00,1,1,1,4026.61,-0.15,22779.91,2992.56,-0.15,76330.85,2929.02,-0.14,18825.41,1406.24,-0.13,12119.09,661.41,-0.11,2844.61
1232700,1483.59,876.39,1.00,1,1,1,1958.71,-0.16,130093.98,1652.53,-0.13,84308.81,1794.46,-0.13,71374.37,1482.30,-0.11,5074.34,562.90,-0.11,6205.00
1248500,1504.77,874.39,1.00,1,1,1,1346.33,-0.09,39405.91,983.93,-0.08,42575.31,622.47,-0.07,74258.16,1209.94,-0.10,17258.32,395.08,-0.12,10633.10
1279600,1529.60,872.84,1.00,1,1,1,800.00,-0.06,17598.15,97.09,2.31,33969.10,459.06,0.04,5605.08,784.22,-0.08,13705.11,620.54,-0.12,7249.97
1295500,1501.71,877.78,1.00,1,1,1,1781.30,2.97,162124.97,348.26,2.68,16370.88,87.70,0.77,25022.39,246.80,0.03,33938.08,501.53,-0.15,7563.26
1311400,1519.69,877.79,1.00,1,1,1,1130.79,0.00,182480.10,196.71,0.26,32263.90,234.22,2.71,17528.34,44.76,1.42,15261.40,236.17,-0.21,16747.65
1342900,1510.73,880.14,1.00,1,1,1,293.96,2.89,44986.79,157.76,2.77,10705.80,142.28,2.70,2919.67,366.69,2.95,11670.15,177.66,-3.10,13035.66
1358600,1512.76,880.52,1.00,1,1,1,131.47,0.19,26536.30,621.47,3.02,29953.30,379.61,2.97,15608.86,310.06,2.97,3639.31,638.38,3.05,29471.32
1373900,1491.62,882.53,1.00,1,1,1,1388.28,3.05,99023.18,610.27,3.02,732.80,878.13,3.05,32722.14,360.34,3.05,3792.78,899.27,3.02,17111.08
1404800,1484.78,884.00,1.00,1,1,1,226.20,2.93,37667.25,1049.09,3.06,14237.04,399.47,3.12,15554.53,961.40,3.08,19455.84,858.94,3.00,1459.19
1420500,1442.91,886.68,1.00,2,2,2,2672.84,3.08,156008.20,130.52,-2.40,61518.98,590.12,3.14,12158.88,1739.82,3.07,49584.94,949.98,3.00,5801.57
1436200,1481.77,881.22,1.00,2,2,2,2499.84,-0.14,329234.69,152.29,-0.99,11681.26,1836.75,3.11,79426.37,2250.03,3.05,32540.83,1082.45,3.02,8492.82
1452000,1445.53,882.66,1.00,2,2,2,2295.65,3.10,303135.26,3604.12,3.08,233962.74,2813.54,3.08,62001.88,2122.46,3.04,8280.05,984.83,3.03,6262.82
1467200,1370.23,887.62,1.00,2,2,2,4964.79,3.08,175696.73,5785.76,3.06,143786.53,4582.41,3.05,116577.96,1983.08,3.03,9301.26,929.52,3.05,3741.87
1482800,1267.99,897.96,1.00,3,3,3,6587.39,3.04,104802.66,5577.47,3.02,17596.87,3865.64,3.02,46365.35,1712.79,3.02,17367.11,906.81,3.05,1459.44
1497800,1200.73,907.62,1.00,1,1,1,4529.54,3.00,138031.85,2316.04,2.96,217927.79,2124.21,2.97,116602.87,2004.22,3.03,19453.76,997.39,3.04,6062.35
1520800,1181.38,913.63,1.00,1,1,1,880.97,2.84,159228.73,648.41,0.22,127164.81,742.91,2.82,60563.40,1729.84,3.03,11929.71,988.76,3.03,574.03
1536500,1225.23,913.05,1.00,1,1,1,2793.24,-0.01,232264.31,1197.92,0.01,36880.23,285.10,0.17,63922.66,892.84,3.01,53327.70,1050.62,3.03,3940.00
1552200,1219.00,914.03,1.00,1,1,1,402.16,2.99,203301.18,171.69,-2.75,86551.19,625.26,-0.14,23247.37,42.19,2.13,55200.92,811.01,3.03,15261.96
1567500,1220.31,911.02,1.00,1,1,1,214.58,-1.16,35839.93,194.54,-1.40,14983.56,479.84,-0.35,12088.98,316.99,-0.00,22306.24,2004.22,3.03,77987.70
1583200,1220.00,908.08,1.00,1,1,1,188.18,-1.68,6758.60,1080.69,-0.25,64850.13,754.86,-0.24,18018.86,77.29,0.15,15344.62,1729.84,3.03,17476.64
1599100,1253.43,902.70,1.00,1,1,1,2129.57,-0.16,133808.31,1425.91,-0.12,23864.25,360.95,-0.15,24952.40,338.29,3.03,26000.97,892.84,3.01,52656.91
1615000,1265.03,902.69,1.00,1,1,1,729.11,-0.00,88952.55,370.80,2.71,112094.37,293.73,2.87,41101.33,122.77,3.13,13609.32,42.19,2.13,54506.57
1630600,1242.83,907.60,1.00,1,1,1,1457.19,2.92,139415.87,1166.91,2.96,52157.29,799.39,2.95,32509.48,360.95,-0.15,30952.31,316.99,-0.00,21877.28
1677400,1193.34,915.49,1.00,1,1,1,1070.75,2.98,8408.72,976.81,2.99,4093.64,622.18,2.97,3798.32,293.73,2.87,13963.91,77.29,0.15,5147.66
1708900,1167.26,919.37,1.00,2,2,2,837.28,2.99,7418.66,98.32,-0.26,34116.34,976.81,2.99,11265.96,799.39,2.95,16099.93,338.29,3.03,13124.30
1724600,1197.83,914.32,1.00,2,2,2,1973.98,-0.16,179056.14,1973.98,-0.16,119497.21,98.32,-0.26,68449.99,622.18,2.97,11322.39,122.77,3.13,13782.69
