@RELATION gaze_labels

%@METADATA width_px 1920
%@METADATA height_px 1080
%@METADATA width_mm 540.00
%@METADATA height_mm 254.00
%@METADATA distance_mm 620.00


@ATTRIBUTE time INTEGER
@ATTRIBUTE x NUMERIC
@ATTRIBUTE y NUMERIC
@ATTRIBUTE confidence NUMERIC
@ATTRIBUTE handlabeller1 INTEGER
@ATTRIBUTE handlabeller2 INTEGER
@ATTRIBUTE handlabeller_final INTEGER
@ATTRIBUTE speed_1 numeric
@ATTRIBUTE direction_1 numeric
@ATTRIBUTE acceleration_1 numeric
@ATTRIBUTE speed_2 numeric
@ATTRIBUTE direction_2 numeric
@ATTRIBUTE acceleration_2 numeric
@ATTRIBUTE speed_4 numeric
@ATTRIBUTE direction_4 numeric
@ATTRIBUTE acceleration_4 numeric
@ATTRIBUTE speed_8 numeric
@ATTRIBUTE direction_8 numeric
@ATTRIBUTE acceleration_8 numeric
@ATTRIBUTE speed_16 numeric
@ATTRIBUTE direction_16 numeric
@ATTRIBUTE acceleration_16 numeric

%The number after speed, direction denotes the step size that was used for the calculation.
%Acceleration was calculated between two adjacent samples of the already low pass filtered velocity

@DATA
0,1453.68,860.64,1.00,1,1,1,0.00,0.00,0.00,1696.30,-0.02,0.00,1319.44,-0.01,0.00,95.73,3.00,0.00,153.47,-0.13,0.00
32200,1508.29,859.40,1.00,1,1,1,1696.30,-0.02,52680.17,1319.44,-0.01,11716.39,387.90,3.00,52937.50,527.22,3.13,13430.62,495.65,3.08,20151.00
48100,1517.15,859.95,1.00,1,1,1,557.95,0.06,71779.51,387.90,3.00,107206.76,95.73,3.00,18375.35,612.28,-3.13,5464.17,1426.35,3.04,58567.95
64100,1496.05,861.21,1.00,1,1,1,1320.85,3.08,117244.72,1343.31,3.11,59947.94,527.22,3.13,27029.12,210.45,-2.92,25532.96,1958.36,3.00,33589.15
102600,1443.97,862.07,1.00,1,1,1,1353.00,3.13,1720.15,611.25,-3.11,19068.91,612.28,-3.13,2256.63,153.47,-0.13,9313.72,2332.04,2.94,10209.77
118700,1462.69,860.13,1.00,1,1,1,1169.33,-0.10,156521.10,233.28,-0.28,51947.12,210.45,-2.92,25374.37,495.65,3.08,40302.01,2531.61,2.92,12733.40
150200,1454.64,859.00,1.00,1,1,1,258.17,-3.00,45121.06,283.65,-0.28,1599.19,480.84,-0.13,21658.09,1426.35,3.04,29562.87,2440.15,2.89,3782.64
165000,1475.33,856.56,1.00,2,2,2,1407.77,-0.12,112079.09,872.81,-0.07,40399.37,461.79,3.03,63688.85,1958.36,3.00,36312.60,2472.07,2.90,2677.15
180700,1481.19,857.13,1.00,2,2,2,375.25,0.10,66508.69,1557.01,2.98,154629.10,2773.41,3.00,147246.24,2332.04,2.94,25036.70,1040.43,2.92,91202.28
196400,1427.05,864.26,1.00,2,2,2,3478.42,3.01,244897.69,6291.05,3.01,301587.78,4794.80,2.97,128939.64,2531.61,2.92,13057.82,1335.19,2.96,19012.54
212300,1284.04,882.65,1.00,2,2,2,9068.32,3.01,351567.75,8043.02,2.97,111697.15,5823.42,2.95,65224.31,2440.15,2.89,7493.90,1173.37,2.95,10213.35
227700,1178.92,906.76,1.00,2,2,2,7003.48,2.92,143253.38,5379.70,2.87,178007.05,5091.87,2.91,49353.42,2472.07,2.90,2572.84,1077.65,2.93,6302.94
243600,1121.69,927.30,1.00,3,3,3,3824.35,2.80,203669.34,2236.87,2.69,201558.66,2204.50,2.78,183656.48,2559.95,2.93,6680.02,1085.70,2.90,2301.70
259300,1115.25,937.47,1.00,1,1,1,766.24,2.14,207269.70,350.51,1.57,134342.05,699.38,2.50,98426.10,2313.56,2.93,15695.60,1153.64,2.93,4731.80
291000,1121.73,943.92,1.00,1,1,1,288.29,0.78,23903.87,410.26,0.13,15870.36,116.01,1.03,21995.34,926.65,2.79,44214.23,1095.84,2.93,1834.68
306900,1134.61,940.01,1.00,1,1,1,847.09,-0.29,47468.88,314.58,-1.08,26392.79,116.14,-2.76,13833.62,212.67,2.24,47373.52,1046.89,2.94,3125.94
322600,1126.42,935.15,1.00,1,1,1,606.81,-2.61,84983.53,913.15,-2.93,66586.82,366.33,-0.40,29066.82,95.14,0.96,13137.54,929.62,2.93,7505.33
338100,1106.74,934.10,1.00,1,1,1,1271.02,-3.09,50639.92,469.17,-0.11,88170.16,316.84,-0.29,3987.88,30.96,-0.48,6216.56,747.09,2.91,11831.63
368800,1147.96,932.79,1.00,1,1,1,1343.29,-0.03,85078.76,1106.59,-0.02,20861.55,74.55,0.86,9603.19,203.81,-0.69,5654.55,336.21,2.79,13508.95
384600,1158.19,932.91,1.00,1,1,1,647.16,0.01,44133.86,604.08,2.78,106838.51,153.56,0.08,7201.62,205.88,-0.62,898.67,29.41,1.87,20207.19
400300,1130.18,939.56,1.00,1,1,1,1833.49,2.91,157090.75,1002.83,3.08,29564.97,120.51,-1.92,14716.79,484.50,-0.23,19368.10,208.75,-0.24,14353.98
423000,1119.74,935.12,1.00,2,2,2,499.71,-2.74,64391.71,541.39,-0.78,64045.96,151.07,-1.27,4039.27,608.10,-0.17,5624.17,260.38,-0.31,2392.12
439000,1145.08,924.83,1.00,2,2,2,1709.33,-0.39,130751.97,944.60,-0.33,32081.50,893.71,-0.30,51119.39,228.31,-0.37,24192.07,268.97,-0.40,1584.86
470400,1162.08,920.54,1.00,1,1,1,558.20,-0.25,36912.01,1250.71,-0.13,11987.10,1102.38,-0.21,7218.80,152.37,-0.76,3352.50,212.68,-0.43,1806.22
486200,1203.62,917.20,1.00,1,1,1,2637.83,-0.08,132242.37,1361.68,-0.08,8302.78,407.79,-0.15,44034.12,385.90,-0.46,15481.87,314.41,-0.27,6938.82
502000,1204.98,917.27,1.00,1,1,1,86.31,0.06,161541.70,451.86,3.04,114775.44,192.40,-0.33,14012.40,502.55,-0.30,8643.88,552.91,-0.17,15319.23
532500,1182.80,919.25,1.00,1,1,1,730.15,3.05,26742.11,635.41,-3.09,6580.31,232.47,-2.82,13194.64,343.19,-0.24,5283.53,696.76,-0.17,4716.49
547500,1176.11,915.74,1.00,1,1,1,503.79,-2.66,27381.97,279.15,-1.12,52438.48,155.90,-2.68,5391.46,229.14,-0.24,7604.51,816.06,-0.17,7953.01
563600,1186.57,911.44,1.00,1,1,1,702.70,-0.39,68095.60,601.97,-0.20,30155.74,255.11,-0.48,22917.28,117.43,-0.49,7408.68,988.00,-0.18,10684.25
578400,1194.32,911.96,1.00,1,1,1,524.78,0.07,22147.87,333.85,0.06,19748.17,276.55,-0.16,5972.14,487.76,-0.18,25518.08,1115.91,-0.16,8771.45
594100,1196.74,912.00,1.00,1,1,1,154.00,0.02,23633.32,51.92,2.39,23672.60,511.93,-0.06,15159.70,1251.48,-0.13,48702.18,1051.57,-0.14,4273.76
609800,1193.13,913.07,1.00,2,2,2,239.74,2.85,24799.74,690.46,-0.12,46684.08,1242.92,-0.09,46579.81,1617.75,-0.11,23395.06,912.58,-0.15,8866.31
625100,1218.00,909.49,1.00,2,2,2,1641.94,-0.14,122841.44,2543.54,-0.10,121123.88,2049.41,-0.10,52725.60,1710.65,-0.11,6119.07,783.43,-0.16,8453.17
640800,1271.58,905.09,1.00,2,2,2,3424.18,-0.08,113890.77,2942.02,-0.10,25390.63,2685.09,-0.11,40519.82,1796.29,-0.12,5537.94,706.18,-0.16,4921.25
672300,1356.20,895.99,1.00,3,3,3,2702.04,-0.11,23054.00,2777.98,-0.12,5481.01,2645.49,-0.11,1287.31,1790.68,-0.12,364.51,844.46,-0.14,4419.11
688100,1402.09,889.86,1.00,1,1,1,2930.01,-0.13,15140.67,2205.76,-0.15,36531.00,2232.80,-0.13,26203.27,1551.63,-0.14,15226.12,972.19,-0.12,8194.38
704000,1425.37,885.77,1.00,1,1,1,1486.88,-0.17,90921.33,1425.45,-0.16,49098.68,1506.58,-0.15,45768.55,1407.45,-0.13,9081.26,1007.56,-0.11,2258.54
720000,1446.98,882.61,1.00,1,1,1,1364.68,-0.15,8051.49,941.28,-0.16,30262.33,312.88,-0.39,75312.98,908.45,-0.15,31209.66,1067.97,-0.12,3860.40
743200,1461.77,879.71,1.00,1,1,1,649.72,-0.19,30878.94,624.19,-3.09,67097.43,61.26,-1.19,11786.28,420.85,-0.15,21018.10,1037.07,-0.12,1333.76
759100,1422.61,881.34,1.00,1,1,1,2465.38,3.10,195546.67,1098.80,3.08,30395.58,574.89,3.08,37959.01,295.86,-0.12,7893.71,938.52,-0.13,6215.23
774900,1427.00,881.74,1.00,1,1,1,279.16,0.09,173567.30,525.31,2.93,37083.16,793.34,2.99,14398.18,341.94,-0.12,2917.78,775.71,-0.12,10307.56
790800,1406.34,884.92,1.00,1,1,1,1314.45,2.99,99800.75,502.95,2.79,4671.86,304.45,0.19,68235.04,367.05,-0.15,1718.35,541.91,-0.15,14758.58
806600,1412.05,887.27,1.00,1,1,1,390.52,0.39,105121.69,1115.98,0.00,101072.49,630.10,-0.04,21582.90,314.95,-0.11,3387.24,266.37,-0.26,17642.82
822300,1441.50,885.01,1.00,1,1,1,1881.33,-0.08,98276.31,1403.11,-0.12,20615.20,1239.81,-0.11,39029.36,350.26,-0.08,2327.88,239.81,-0.21,1887.16
852300,1475.73,879.79,1.00,1,1,1,1154.31,-0.15,24507.75,1334.63,-0.17,3483.91,1076.85,-0.13,5502.93,165.71,-0.05,6159.46,195.34,-0.12,1621.49
867100,1500.38,874.62,1.00,1,1,1,1701.66,-0.21,37357.63,756.64,-0.16,39067.04,393.60,-0.23,46361.00,186.80,-0.18,2121.44,268.73,-0.05,5082.38
898800,1510.47,874.21,1.00,1,1,1,318.58,-0.04,43800.95,496.78,3.05,39517.95,297.49,3.11,21700.05,140.38,-0.55,2408.74,333.28,0.01,2119.78
914600,1476.88,876.77,1.00,1,1,1,2132.06,3.07,155092.80,1870.10,3.03,86926.35,837.94,3.06,34234.74,193.69,-0.33,4087.77,467.77,-0.01,8536.77
929900,1452.66,880.58,1.00,1,1,1,1602.55,2.99,35938.13,1360.77,3.07,33518.01,1277.30,3.12,28989.60,40.73,-0.15,10050.70,406.21,-0.03,4062.48
945600,1434.81,879.81,1.00,1,1,1,1138.20,-3.10,34165.05,718.57,-2.93,44604.46,114.91,-2.92,74264.00,181.63,0.14,9114.46,486.28,-0.03,5100.18
961400,1430.53,875.84,1.00,2,2,2,369.67,-2.39,56309.90,1118.68,-0.13,114671.35,456.82,-0.06,35965.30,358.73,0.13,11209.07,402.59,-0.07,5394.52
977200,1469.86,875.21,1.00,2,2,2,2489.52,-0.02,175201.82,1617.67,0.06,35505.81,1191.41,-0.01,46539.17,598.21,0.03,15444.57,199.03,-0.07,12883.82
992900,1481.39,878.91,1.00,2,2,2,771.54,0.31,113119.48,1248.26,0.06,23532.44,1650.50,0.04,29621.13,655.91,-0.03,4428.98,324.58,3.03,33343.95
1024400,1528.68,878.53,1.00,1,1,1,1501.32,-0.01,25576.09,1672.66,0.03,13546.25,1160.43,0.05,15561.07,799.11,0.00,4607.43,882.91,3.05,17728.19
1040400,1560.81,880.96,1.00,1,1,1,2014.18,0.08,33311.33,1031.13,0.03,40096.64,801.43,-0.02,22773.93,694.38,0.03,6660.37,1277.50,3.05,24661.93
1056400,1561.66,879.48,1.00,1,1,1,106.44,-1.05,123167.21,278.19,-2.83,81285.53,362.08,0.06,27593.72,217.57,0.17,29988.58,1052.24,3.03,14126.14
1079200,1550.54,877.65,1.00,1,1,1,494.32,-2.98,23719.60,194.23,3.06,5458.63,378.91,-3.06,32498.29,669.73,3.03,38628.25,761.73,3.03,12743.89
1095000,1554.19,880.13,1.00,2,2,2,279.27,0.60,47908.05,517.82,3.07,20482.11,860.54,3.12,30686.58,2135.86,3.07,92856.80,659.59,2.97,6965.89
1110800,1534.22,878.85,1.00,2,2,2,1266.46,-3.08,95803.42,1690.83,3.13,74339.86,2697.97,3.07,116425.69,3011.08,3.08,55404.96,604.72,2.93,3771.57
1126000,1501.78,880.60,1.00,2,2,2,2137.57,3.09,58701.03,4927.52,3.07,213324.57,4954.20,3.08,148487.50,2811.02,3.07,13378.29,769.67,2.97,11014.43
1141700,1382.41,890.48,1.00,2,2,2,7629.29,3.06,349870.06,8168.38,3.07,206438.91,5975.87,3.07,65257.30,2256.86,3.05,35348.77,812.25,3.02,3441.47
1157500,1245.11,898.67,1.00,2,2,2,8705.12,3.08,69114.26,6997.79,3.07,74094.39,4964.30,3.05,64189.81,2197.24,3.04,4443.94,913.54,3.05,6594.27
1173400,1161.16,906.51,1.00,1,1,1,5303.05,3.05,214447.15,1777.04,2.98,329004.04,1907.78,3.04,192255.04,1829.74,3.02,23231.16,1077.02,3.06,10331.63
1189100,1189.73,907.94,1.00,1,1,1,1822.01,0.05,452940.63,1515.09,-0.01,209055.31,177.91,1.50,121681.15,1692.95,3.01,8721.41,1238.08,3.05,10305.83
1220600,1232.67,905.81,1.00,1,1,1,1364.82,-0.05,15347.56,1205.83,0.08,10585.49,938.56,0.09,29442.83,947.01,3.01,23680.96,1324.03,3.04,2749.26
1236000,1246.09,912.60,1.00,1,1,1,976.79,0.47,45936.07,396.40,0.47,55309.36,510.70,0.13,27861.07,128.74,0.27,69265.99,1269.02,3.05,3774.90
1267700,1249.33,914.24,1.00,1,1,1,114.44,0.47,27203.62,185.88,2.94,17484.51,57.43,1.12,15192.25,564.69,-0.01,13951.79,1068.58,3.07,6340.27
1283400,1237.46,914.36,1.00,1,1,1,756.07,3.13,54729.23,488.68,-2.85,21415.26,258.77,-0.43,16824.13,101.32,0.32,29928.04,1692.95,3.01,40021.91
1299100,1234.61,909.87,1.00,1,1,1,338.36,-2.14,41132.47,924.89,-0.36,85786.17,132.47,-1.53,14682.48,390.61,2.96,30697.36,947.01,3.01,47512.75
1314800,1264.62,904.09,1.00,1,1,1,1946.40,-0.19,133367.82,501.03,-0.25,27399.17,522.94,-3.10,34376.66,437.63,3.13,5432.25,128.74,0.27,67942.44
1330200,1249.70,905.97,1.00,1,1,1,976.61,3.02,189715.80,1944.42,2.99,158649.42,902.12,3.04,25465.28,245.74,-2.80,14504.89,564.69,-0.01,28718.94
1345900,1204.80,912.96,1.00,2,2,2,2894.06,2.99,122171.59,2283.05,3.01,21626.28,1120.67,3.04,13920.13,522.94,-3.10,18927.71,101.32,0.32,29928.04
1361700,1178.44,915.67,1.00,2,2,2,1677.34,3.04,77347.05,581.87,3.14,108081.82,422.41,-3.04,45084.88,902.12,3.04,24820.59,390.61,2.96,30503.08
1393100,1177.34,913.12,1.00,2,2,2,88.45,-1.98,52640.70,857.95,-0.33,45276.19,581.87,3.14,5357.55,1120.67,3.04,6960.07,437.63,3.13,2716.13
1408800,1216.67,902.58,1.00,2,2,2,2593.60,-0.26,166109.76,2593.60,-0.26,110739.84,857.95,-0.33,90552.37,422.41,-3.04,45372.04,245.74,-2.80,14227.72
