@RELATION gaze_labels

%@METADATA width_px 1920
%@METADATA height_px 1080
%@METADATA width_mm 540.00
%@METADATA height_mm 254.00
%@METADATA distance_mm 620.00


@ATTRIBUTE time INTEGER
@ATTRIBUTE x NUMERIC
@ATTRIBUTE y NUMERIC
@ATTRIBUTE confidence NUMERIC
@ATTRIBUTE handlabeller1 INTEGER
@ATTRIBUTE handlabeller2 INTEGER
@ATTRIBUTE handlabeller_final INTEGER
@ATTRIBUTE speed_1 numeric
@ATTRIBUTE direction_1 numeric
@ATTRIBUTE acceleration_1 numeric
@ATTRIBUTE speed_2 numeric
@ATTRIBUTE direction_2 numeric
@ATTRIBUTE acceleration_2 numeric
@ATTRIBUTE speed_4 numeric
@ATTRIBUTE direction_4 numeric
@ATTRIBUTE acceleration_4 numeric
@ATTRIBUTE speed_8 numeric
@ATTRIBUTE direction_8 numeric
@ATTRIBUTE acceleration_8 numeric
@ATTRIBUTE speed_16 numeric
@ATTRIBUTE direction_16 numeric
@ATTRIBUTE acceleration_16 numeric

%The number after speed, direction denotes the step size that was used for the calculation.
%Acceleration was calculated between two adjacent samples of the already low pass filtered velocity

@DATA
0,1305.81,869.41,1.00,1,1,1,0.00,0.00,0.00,3059.94,-3.13,0.00,2104.72,3.11,0.00,751.08,3.02,0.00,472.16,-3.14,0.00
15900,1257.16,868.97,1.00,1,1,1,3059.94,-3.13,192449.00,2104.72,3.11,60365.44,518.40,2.80,101851.10,91.53,0.86,50676.92,40.89,-2.76,27322.92
31600,1239.33,871.27,1.00,1,1,1,1145.18,3.01,123047.63,518.40,2.80,103148.56,751.08,3.02,17240.79,273.55,0.01,14234.97,59.24,-0.38,5934.19
46900,1242.01,874.35,1.00,1,1,1,267.22,0.85,85792.52,645.47,0.19,73463.93,91.53,0.86,52664.25,47.09,-1.05,16613.61,122.96,-0.37,4165.29
62700,1259.05,875.00,1.00,1,1,1,1079.02,0.04,58014.55,596.81,-0.05,9955.26,273.55,0.01,14144.88,472.16,-3.14,31454.48,51.37,-0.90,5258.19
78600,1260.91,873.32,1.00,1,1,1,157.54,-0.74,61181.07,80.84,-1.10,35248.57,47.09,-1.05,15986.68,40.89,-2.76,27322.92,38.92,-2.50,4096.67
110100,1260.80,871.59,1.00,1,1,1,54.93,-1.63,4141.85,363.38,-3.01,12637.01,264.76,-2.85,8862.96,59.24,-0.38,2957.68,18.97,-2.19,685.78
125900,1243.86,871.12,1.00,1,1,1,1072.50,-3.11,67655.75,701.18,-3.02,21382.80,142.67,-2.52,8720.76,122.96,-0.37,4033.47,151.02,3.14,8919.80
141200,1239.14,869.04,1.00,1,1,1,337.00,-2.73,50396.01,290.81,-0.50,62332.18,225.67,-2.90,6980.94,51.37,-0.90,5430.03,513.78,3.04,23769.23
157000,1251.81,866.81,1.00,1,1,1,814.13,-0.17,70263.82,253.85,-0.11,7039.15,235.50,-0.21,28451.74,38.92,-2.50,4122.60,458.87,2.73,10104.94
172700,1247.09,868.18,1.00,1,1,1,312.92,2.86,71703.55,209.75,0.20,5319.32,387.99,0.01,10565.40,18.97,-2.19,1375.93,570.40,2.04,23197.61
188300,1258.24,868.12,1.00,1,1,1,714.96,-0.01,65357.61,525.22,0.07,20416.51,56.27,0.59,21942.19,151.02,3.14,9034.15,911.53,1.68,27497.95
204100,1263.54,869.30,1.00,1,1,1,343.69,0.22,24526.28,51.59,2.63,36016.00,141.67,0.09,6077.70,553.20,2.97,25637.65,1303.53,1.61,25340.88
242500,1255.81,869.49,1.00,1,1,1,201.55,3.12,14100.85,80.80,3.14,1140.11,386.35,3.06,13710.12,828.19,2.70,8542.14,1373.90,1.78,6492.84
258300,1259.16,869.31,1.00,1,1,1,212.84,-0.05,26224.02,774.15,3.09,43888.88,1132.73,3.01,47293.42,1098.39,2.07,41167.73,1255.95,2.06,23650.45
290000,1219.08,871.25,1.00,2,2,2,1266.08,3.09,46653.42,2336.40,3.00,49433.70,1756.79,2.73,23133.09,1674.08,1.73,23271.98,955.38,2.40,15301.38
305700,1149.49,884.65,1.00,4,4,4,4513.90,2.95,207990.85,3338.69,2.61,94224.96,2355.46,2.13,85608.77,2360.20,1.62,46101.10,792.70,2.77,22865.85
321500,1128.40,924.51,1.00,4,4,4,2854.31,2.06,222688.75,4515.85,1.50,270292.55,3760.60,1.60,133066.31,2820.80,1.77,38678.71,700.58,2.96,10375.00
337200,1160.04,1026.51,1.00,4,4,4,6802.08,1.27,331070.53,5437.71,1.24,98731.12,5356.44,1.34,125650.79,2445.07,2.05,52060.04,525.51,2.88,11502.84
368300,1209.99,1165.56,1.00,4,4,4,4750.88,1.23,66443.86,5975.06,1.26,17670.08,4870.31,1.47,25975.22,1935.92,2.34,26304.08,427.43,2.91,3178.47
384100,1244.51,1293.71,1.00,4,4,4,8399.45,1.31,233220.20,4596.02,1.87,215686.20,2551.20,1.97,183840.79,1090.63,2.66,60816.88,237.46,2.81,12185.33
400000,1167.27,1304.85,1.00,4,4,4,4908.47,3.00,642931.93,5729.24,-2.67,498768.86,3272.01,-2.65,272578.23,630.23,-2.93,45681.13,76.62,1.07,16454.26
415900,1081.94,1211.48,1.00,2,2,2,7955.64,-2.31,414682.62,8717.25,-2.10,312973.99,6499.39,-2.17,244699.49,885.23,-2.15,39163.62,170.32,0.33,7870.90
431600,1027.60,1067.42,1.00,2,2,2,9806.50,-1.93,242888.08,8479.57,-1.84,146785.88,6752.92,-1.88,125787.07,1987.21,-1.88,73818.27,312.19,0.14,9427.92
447100,1012.82,956.10,1.00,2,2,2,7244.90,-1.70,206654.28,5344.56,-1.48,253160.60,3890.36,-1.56,211436.16,2869.82,-1.70,63178.03,497.49,-0.01,12536.96
461900,1041.85,906.11,1.00,3,3,3,3905.99,-1.04,323803.89,1835.47,-0.56,302681.46,2512.55,-1.05,142708.38,3042.02,-1.34,73754.84,469.53,-0.26,8467.18
493100,1084.29,911.15,1.00,1,1,1,1370.00,0.12,115069.93,1776.82,-0.08,27787.76,2441.52,-0.33,55286.65,2681.22,-0.96,35847.20,459.05,-1.08,11915.77
508800,1124.93,899.63,1.00,1,1,1,2690.16,-0.28,96778.73,3448.47,-0.16,107235.15,2873.14,-0.07,51771.09,2266.64,-0.58,65595.47,837.12,-1.64,32395.14
524600,1191.56,893.99,1.00,1,1,1,4232.02,-0.08,105793.65,4500.31,-0.07,70042.68,3190.50,-0.11,21373.33,1812.52,-0.25,51281.49,1253.28,-1.76,27418.89
540400,1266.78,889.51,1.00,1,1,1,4769.29,-0.06,34739.49,2989.05,-0.07,95651.21,2602.98,-0.08,37522.75,1367.44,-0.08,32560.36,1239.86,-1.57,14879.79
563800,1308.45,885.98,1.00,1,1,1,1787.37,-0.08,127470.25,1074.83,-0.13,81931.81,1273.76,-0.09,56807.82,881.15,-0.10,20804.84,924.50,-1.22,20745.17
579600,1308.57,884.13,1.00,1,1,1,117.71,-1.51,112289.99,153.18,-2.83,76926.27,20.87,-1.37,80246.52,414.52,0.15,31112.13,632.60,-0.69,31375.83
611300,1301.52,883.78,1.00,2,2,2,222.59,-3.09,7981.55,873.63,3.05,23172.26,844.96,3.01,26875.07,176.38,2.22,16475.44,519.72,-0.10,11129.86
627200,1267.14,887.73,1.00,2,2,2,2176.53,3.03,123096.35,1558.48,2.97,43514.60,1257.33,2.92,26607.96,634.09,2.79,31082.18,396.04,0.29,13421.02
658400,1229.18,896.28,1.00,2,2,2,1246.89,2.92,30328.75,1658.98,2.85,7030.70,1680.69,2.89,13665.56,767.79,2.79,4285.58,260.20,0.32,4371.55
674100,1192.63,910.16,1.00,3,3,3,2490.31,2.78,80769.81,1882.75,2.78,16193.55,1347.52,2.77,23812.61,791.35,2.73,3046.07,160.47,0.77,8575.90
689800,1173.87,917.15,1.00,1,1,1,1275.21,2.79,77398.21,911.72,2.57,64369.58,737.36,2.47,43312.55,862.90,2.72,4638.60,143.11,2.15,12318.12
705700,1168.46,925.83,1.00,1,1,1,643.47,2.13,54109.27,382.38,1.00,62094.91,381.33,1.88,29642.18,746.28,2.66,7911.51,400.44,2.74,18441.27
737200,1183.67,932.40,1.00,1,1,1,526.07,0.41,28255.50,427.77,0.69,4216.60,293.86,1.36,6110.09,574.65,2.62,5508.12,626.07,2.84,7315.41
751700,1183.63,938.35,1.00,1,1,1,410.65,1.58,36262.63,286.89,2.19,34276.82,216.47,1.84,9802.63,287.31,2.51,20028.21,757.39,2.84,9061.29
767700,1178.62,939.54,1.00,1,1,1,322.18,2.91,28625.13,630.37,2.96,29307.45,400.18,2.97,22866.56,110.43,2.03,12294.04,829.53,2.84,4519.23
783400,1164.00,942.05,1.00,1,1,1,944.94,2.97,39729.12,630.84,-2.98,13813.14,384.72,-2.95,8990.04,164.48,2.57,5766.29,623.56,2.79,13321.37
798300,1159.56,936.47,1.00,1,1,1,478.00,-2.24,55594.19,298.37,-2.01,35102.45,168.44,-2.67,15253.86,461.24,2.94,21041.06,410.60,2.67,14846.35
814100,1160.07,933.77,1.00,2,2,2,174.06,-1.39,24509.07,136.19,-0.47,20537.42,214.79,-3.04,5239.43,730.80,2.99,17140.64,222.84,2.51,12245.74
851500,1166.02,933.18,1.00,3,3,3,159.81,-0.10,5364.27,289.21,2.71,11372.06,505.53,2.92,8276.79,808.66,2.98,2090.46,183.50,2.46,1086.00
867300,1146.07,940.16,1.00,1,1,1,1337.27,2.81,94495.97,1583.10,2.89,82225.28,1007.66,2.89,31813.48,510.33,2.99,18890.93,364.26,2.83,12909.57
883000,1117.77,945.79,1.00,1,1,1,1838.15,2.95,34845.68,2234.21,2.93,41785.36,1708.65,2.90,44656.19,256.92,2.78,16873.53,549.85,2.97,12442.25
898700,1077.50,954.98,1.00,1,1,1,2630.71,2.92,50637.73,1834.46,2.91,25563.48,916.64,2.91,50457.32,167.32,2.52,6673.72,457.40,3.02,6152.54
914500,1061.51,958.99,1.00,1,1,1,1043.42,2.90,100485.39,398.09,-0.14,141213.44,122.66,0.57,63667.12,284.39,2.65,7655.58,404.00,3.02,3380.19
930200,1089.92,953.25,1.00,1,1,1,1846.19,-0.20,184006.41,2043.79,-0.14,104821.94,778.91,-0.09,43691.71,601.87,2.91,21330.25,188.61,3.00,13725.21
945500,1124.22,949.93,1.00,1,1,1,2251.99,-0.10,29847.17,1037.34,-0.07,66119.69,890.06,-0.10,7310.19,632.52,2.99,3594.11,79.79,2.74,7422.44
976700,1138.03,949.72,1.00,1,1,1,442.75,-0.02,58046.95,141.93,0.31,29072.23,347.72,2.91,39608.77,203.92,-3.13,13868.28,92.11,2.69,414.87
992500,1130.58,951.94,1.00,1,1,1,492.17,2.85,58617.34,2392.26,3.01,159598.70,1113.86,3.04,48725.74,44.65,-2.34,11111.55,114.71,2.85,1777.14
1008100,1063.53,959.37,1.00,1,1,1,4323.87,3.03,246191.38,2350.53,3.06,7582.46,1170.61,3.09,5325.72,113.25,-0.18,9154.58,4.97,2.29,7084.88
1039800,1019.77,961.06,1.00,1,1,1,1381.57,3.10,92981.23,391.13,-2.89,62642.83,933.77,3.11,7520.81,71.77,-0.28,1336.30,16.70,0.69,554.72
1055900,1045.45,954.63,1.00,1,1,1,1643.97,-0.25,186928.03,1177.45,-0.19,95618.87,569.96,-0.21,93033.86,34.41,-2.54,6047.35,103.45,0.11,5585.27
1071700,1056.65,953.93,1.00,1,1,1,710.34,-0.06,60385.44,2015.48,-0.07,54256.17,1499.44,-0.12,59039.11,60.29,-1.27,3783.33,108.86,0.05,555.22
1086700,1107.35,950.06,1.00,1,1,1,3390.28,-0.08,178667.32,1723.97,-0.09,19573.08,1134.50,-0.09,24505.68,534.17,-0.22,33804.56,42.12,0.78,5489.84
1118000,1136.13,946.55,1.00,1,1,1,926.01,-0.12,78771.73,560.22,-0.13,37198.19,1006.29,-0.14,4462.48,730.37,-0.12,6577.61,23.64,2.48,1627.78
1133900,1133.58,946.65,1.00,1,1,1,160.46,3.10,68302.70,148.30,-2.23,40727.56,498.07,-0.23,32195.49,412.46,0.06,20936.85,5.10,2.80,1187.67
1148700,1133.35,942.94,1.00,2,2,2,250.98,-1.63,19924.31,415.47,-0.44,31787.12,236.74,2.98,49625.85,246.03,0.17,11470.86,9.23,-0.85,939.12
1164500,1145.09,941.27,1.00,2,2,2,750.82,-0.14,48875.80,418.93,2.67,52802.24,341.80,2.68,8568.93,90.36,2.12,18492.30,210.01,-0.13,12858.89
1180200,1121.60,948.94,1.00,3,3,3,1574.50,2.83,147620.29,829.57,2.69,26162.80,470.49,2.69,8209.21,131.82,2.72,4865.15,349.68,-0.08,8938.97
1212000,1109.71,958.61,1.00,1,1,1,481.76,2.46,35787.03,499.86,2.71,10376.69,581.05,2.70,3478.36,31.36,0.88,4509.81,273.28,-0.02,2464.60
1235700,1096.44,960.63,1.00,1,1,1,566.53,2.99,12117.38,279.68,2.76,9323.96,76.03,2.11,21932.20,41.17,1.69,1268.96,174.78,-0.11,4229.30
1251100,1099.57,962.71,1.00,1,1,1,244.52,0.59,49703.79,724.62,-0.27,65127.63,397.76,-0.30,29684.18,104.52,2.57,5485.37,60.50,-0.55,7972.60
1266900,1118.23,954.61,1.00,1,1,1,1287.22,-0.41,74196.76,1235.14,-0.33,32482.38,480.41,-0.29,5235.88,58.79,0.31,9440.68,103.94,-2.85,9571.80
1282700,1136.56,950.24,1.00,1,1,1,1192.65,-0.23,15027.49,319.68,-0.33,57941.25,422.00,-0.37,4327.24,146.55,-0.25,6422.54,290.43,2.89,13171.22
1314200,1132.53,949.71,1.00,1,1,1,128.93,-3.01,41710.18,127.66,3.08,14095.67,145.91,-0.18,8893.83,132.08,-0.61,1639.47,463.50,2.36,8284.72
1329900,1130.54,950.60,1.00,1,1,1,138.86,2.72,4703.43,54.65,1.89,7573.43,44.73,2.54,11950.73,198.44,-0.75,4456.50,582.43,1.56,26669.00
1361000,1131.73,952.14,1.00,1,1,1,62.47,0.91,5307.84,69.48,0.67,2317.12,186.23,-3.02,5000.76,130.68,-2.25,7394.25,974.68,1.01,18284.01
1376700,1133.09,952.62,1.00,2,2,2,91.87,0.34,3297.41,363.81,-2.87,27298.91,133.65,-2.05,9975.79,552.10,2.94,32231.69,1509.40,0.76,39246.45
1408300,1115.14,947.59,1.00,1,1,1,590.09,-2.87,21575.21,329.75,-2.13,8009.39,398.76,-2.64,9412.06,917.16,2.38,16883.45,1660.41,0.76,4800.77
1424000,1124.77,939.43,1.00,0,0,0,804.50,-0.70,78720.79,481.86,-2.38,11490.20,1158.63,2.96,56506.43,1139.77,1.48,58629.98,1342.81,1.07,35504.26
1440200,1104.04,936.95,1.00,2,2,2,1288.88,-3.02,119070.64,2734.64,2.79,158038.66,2114.56,2.28,86875.16,2159.14,1.03,76297.24,1017.16,1.67,47129.21
1455900,1042.90,969.55,1.00,4,4,4,4412.90,2.65,218809.29,4315.80,2.17,167065.90,3019.09,1.46,141708.62,3171.23,0.80,74979.06,725.19,2.10,29537.22
1471600,1027.60,1048.86,1.00,4,4,4,5144.72,1.76,265531.12,6066.99,0.99,378305.75,5322.21,0.98,189192.27,3667.55,0.81,31651.57,348.62,2.48,26957.66
1487300,1146.73,1129.27,1.00,4,4,4,9154.47,0.59,545364.65,9874.35,0.57,320490.39,8061.53,0.65,222894.97,3066.81,1.15,82169.62,131.13,-1.01,30193.61
1503000,1289.28,1215.16,1.00,4,4,4,10600.77,0.54,97635.66,10605.42,0.46,85948.42,6722.43,0.55,97304.38,2325.82,1.63,93066.47,439.82,-0.53,20926.62
1518800,1446.77,1276.15,1.00,4,4,4,10689.13,0.37,116359.04,4577.87,0.52,382724.25,3306.39,0.92,242868.14,1249.52,1.69,68501.11,556.10,-0.40,8514.60
1549100,1471.91,1320.92,1.00,4,4,4,1694.33,1.06,311670.39,3442.97,2.78,239438.49,2531.92,2.84,158312.88,276.85,-1.01,49675.86,644.08,-0.32,3274.98
1564300,1300.48,1332.19,1.00,4,4,4,11302.68,3.08,798049.18,10132.39,-3.03,476374.31,5345.67,-2.86,232489.36,1454.43,-1.55,80528.63,618.69,-0.28,2239.61
1587500,1085.09,1279.02,1.00,4,4,4,9562.77,-2.90,156474.41,8871.68,-2.57,197042.61,7624.26,-2.51,135408.94,2057.88,-1.70,28347.31,724.17,-0.24,4754.41
1601900,1020.66,1150.61,1.00,2,2,2,9976.96,-2.04,568549.32,8868.50,-1.71,513249.13,6391.53,-1.91,299069.10,2588.87,-1.96,55306.02,1036.57,-0.27,21780.40
1617600,1048.96,1014.54,1.00,2,2,2,8852.82,-1.37,400150.22,8532.82,-1.06,353098.86,5493.19,-1.18,276371.04,3168.32,-1.97,36958.43,1118.36,-0.47,14899.30
1633300,1151.82,916.99,1.00,3,3,3,9029.56,-0.76,340478.84,4980.79,-0.58,299332.97,4760.49,-0.78,139403.89,2726.21,-1.56,80596.15,978.25,-0.90,29366.20
1665200,1246.92,884.07,1.00,1,1,1,3154.61,-0.33,197265.86,2951.19,-0.21,77435.89,3447.71,-0.48,55869.81,2937.16,-1.04,46320.04,1053.04,-1.41,16440.51
1680900,1289.11,887.24,1.00,1,1,1,2695.15,0.07,80777.16,1420.29,0.11,106310.56,1655.37,-0.19,121936.04,2668.59,-0.68,65259.90,1281.53,-1.84,34408.70
1696800,1291.51,889.12,1.00,1,1,1,191.95,0.67,159620.02,342.54,-0.03,68073.54,904.18,0.02,50118.82,1872.05,-0.41,63245.96,1473.33,-1.88,12543.29
1727700,1305.14,886.75,1.00,1,1,1,447.50,-0.17,11311.66,561.87,-0.13,7244.17,726.33,-0.02,5846.17,1116.59,-0.16,27071.56,1445.33,-1.47,18907.61
1743000,1317.24,885.70,1.00,1,1,1,794.40,-0.09,22916.70,1302.10,-0.01,48860.56,567.86,-0.03,10384.44,612.33,0.01,34164.84,1559.42,-0.98,48144.87
1758900,1345.76,886.34,1.00,1,1,1,1793.84,0.02,63391.86,579.24,0.06,45633.19,465.10,0.00,6568.28,327.29,-0.07,18062.04,1486.70,-0.63,33990.38
1789200,1343.95,887.35,1.00,1,1,1,68.37,2.63,61154.71,103.14,3.03,22479.64,320.09,-0.03,4806.10,263.36,-0.10,2135.83,1351.67,-0.33,14850.05
1804900,1341.04,886.84,1.00,1,1,1,188.30,-2.97,9054.80,98.40,-2.23,6283.90,84.04,-2.73,25318.14,262.89,-0.07,648.68,1121.11,-0.11,22166.81
1820600,1342.07,884.90,1.00,1,1,1,139.81,-1.08,17004.87,107.47,-1.94,1936.26,144.23,-2.88,3975.36,199.11,-0.01,4132.92,918.59,-0.04,13736.79
1836200,1339.82,883.71,1.00,1,1,1,163.42,-2.65,13787.78,202.96,-3.11,12118.15,55.43,-0.73,11562.29,274.91,-0.07,4928.65,609.11,-0.04,19838.84
1859600,1334.16,884.68,1.00,2,2,2,245.42,2.97,6543.96,105.66,0.12,13176.00,65.41,0.09,2101.44,714.22,-0.05,18775.86,502.49,-0.04,4557.60
1875700,1343.96,884.22,1.00,2,2,2,609.53,-0.05,53020.81,402.86,0.05,18481.96,660.94,-0.00,37008.91,1128.93,-0.07,25768.04,454.40,-0.03,3009.57
1890600,1346.63,885.32,1.00,2,2,2,193.75,0.39,29645.10,1376.54,-0.01,65431.02,1673.76,-0.02,67988.38,1240.54,-0.07,7493.34,442.22,-0.04,905.94
1906400,1386.22,883.59,1.00,2,2,2,2507.79,-0.04,147685.01,2925.68,-0.03,98070.90,2121.98,-0.05,28569.17,902.28,-0.03,21575.33,450.35,-0.10,1607.11
1922100,1438.74,882.36,1.00,1,1,1,3346.53,-0.02,53554.75,2612.79,-0.06,20652.06,2290.51,-0.07,11140.94,779.76,-0.02,7816.79,457.13,-0.12,805.88
1953100,1507.99,875.93,1.00,1,1,1,2243.50,-0.09,36105.35,1867.08,-0.11,24324.65,1116.49,-0.04,37905.16,656.51,-0.02,3976.38,399.77,-0.11,1852.83
1969000,1525.74,872.45,1.00,1,1,1,1137.77,-0.19,70279.70,1035.95,3.02,182579.62,66.26,0.04,66064.70,696.30,-0.05,2949.60,459.62,-0.10,3797.67
1985600,1474.57,879.97,1.00,1,1,1,3116.11,3.00,256200.51,2625.43,3.02,95752.10,1145.88,3.05,72988.91,634.45,-0.11,4395.26,499.16,-0.08,2421.25
2000400,1443.93,882.55,1.00,1,1,1,2077.60,3.06,70977.08,1263.72,3.07,92224.12,1291.37,3.05,9830.55,220.94,-0.33,28489.95,604.62,-0.07,7128.33
2016100,1436.12,882.73,1.00,1,1,1,497.23,3.12,100737.53,82.96,-1.20,82902.43,102.36,-1.51,83492.37,463.59,-3.11,42990.14,665.12,-0.07,3857.71
2031900,1444.88,880.12,1.00,1,1,1,578.40,-0.29,67475.72,1285.43,-0.23,78501.80,421.30,-0.40,24483.33,367.69,-3.14,6099.50,544.85,-0.05,7652.70
2047100,1474.93,873.69,1.00,1,1,1,2021.82,-0.21,95128.83,792.66,-0.33,33062.33,255.85,-0.55,11333.72,83.77,-0.74,28497.39,345.21,-0.03,13147.16
2062900,1468.15,872.23,1.00,1,1,1,438.82,-2.93,153718.64,796.05,3.11,99426.12,391.65,-0.26,10326.96,456.27,-0.16,24619.64,178.05,-0.04,10581.85
2078700,1449.79,874.37,1.00,1,1,1,1170.34,3.03,48604.56,129.41,0.00,58569.70,108.44,-0.18,17953.52,674.03,-0.12,13857.59,63.58,2.88,15220.74
2109300,1474.16,872.26,1.00,1,1,1,799.45,-0.09,64365.36,733.53,-0.07,19755.43,489.90,-0.03,12522.22,413.88,-0.05,8588.69,44.15,2.64,753.81
2124300,1483.16,872.15,1.00,1,1,1,600.29,-0.01,13718.88,796.87,-0.03,4587.59,950.75,-0.05,30735.07,127.17,0.30,19814.82,251.79,-0.06,19487.41
2163800,1517.57,870.91,1.00,2,2,2,871.58,-0.04,6882.78,1130.39,-0.03,8443.80,448.65,0.13,13019.93,159.53,0.28,823.49,351.32,-0.07,2520.98
2179500,1545.52,870.01,1.00,1,1,1,1781.54,-0.03,57960.49,254.56,2.26,83667.35,155.28,0.54,19953.71,223.58,0.17,4288.05,360.50,-0.09,856.61
2195300,1512.44,877.07,1.00,1,1,1,2141.00,2.93,247285.05,1053.72,2.93,54946.86,303.37,2.75,26241.41,245.38,0.16,1379.94,406.78,-0.07,2985.46
2226800,1496.78,880.40,1.00,1,1,1,508.36,2.93,51830.03,364.90,2.97,21880.02,731.72,2.95,13924.80,411.09,0.05,5381.65,385.16,0.01,1174.77
2242000,1495.65,879.99,1.00,1,1,1,78.74,-2.79,29175.98,242.35,3.07,8287.03,29.80,0.88,49108.52,236.96,0.14,11585.26,474.62,0.04,5977.53
2257800,1489.28,880.96,1.00,1,1,1,407.58,2.99,21549.80,579.48,-0.06,52013.91,868.51,-0.09,53918.81,17.04,1.57,14890.66,537.17,0.04,3959.75
2273600,1513.93,878.87,1.00,1,1,1,1565.34,-0.08,124824.25,1958.26,-0.09,87279.75,875.98,-0.08,535.10,399.62,-0.10,25421.28,462.96,0.06,4721.21
2289400,1550.94,875.68,1.00,1,1,1,2351.18,-0.09,49736.85,1173.61,-0.09,49666.66,901.42,-0.15,4170.87,725.26,-0.06,20651.48,264.20,0.15,12741.65
2305100,1550.74,875.45,1.00,1,1,1,19.78,-2.28,150494.01,200.97,-2.60,85394.46,787.90,-0.13,7320.61,883.56,-0.01,10388.94,62.50,2.07,18579.45
2320900,1545.52,872.42,1.00,2,2,2,382.06,-2.62,23003.32,524.01,-0.19,43489.05,609.67,-0.03,12131.25,940.67,0.00,3688.53,374.97,2.97,21497.60
2350900,1574.32,871.01,1.00,1,1,1,961.33,-0.05,43289.73,1148.96,0.04,21615.25,893.11,0.05,9626.37,720.52,0.01,7342.97,541.63,3.05,5701.85
2366600,1597.99,874.39,1.00,1,1,1,1522.55,0.14,38628.30,1462.91,0.17,22734.66,987.88,0.12,7319.23,104.06,0.60,40560.36,695.22,3.10,9929.06
2382300,1619.61,878.73,1.00,1,1,1,1404.43,0.20,9169.99,770.11,0.29,44873.90,661.43,0.22,21455.25,307.61,2.89,24441.15,794.45,3.09,6328.13
2398000,1621.17,881.29,1.00,1,1,1,190.98,1.02,81705.75,156.90,2.87,57747.50,576.54,2.87,76542.86,713.87,2.99,26066.09,742.71,3.06,3673.74
2413700,1614.87,880.06,1.00,1,1,1,408.85,-2.95,35393.83,1844.15,3.10,107750.60,1771.26,3.07,77154.11,1578.85,3.05,55249.08,739.24,3.05,474.13
2429600,1562.95,883.96,1.00,2,2,2,3274.20,3.07,181253.84,3404.68,3.08,98169.16,2371.06,3.10,37880.29,1903.82,3.09,20928.44,728.82,3.05,655.62
2444800,1509.17,886.33,1.00,2,2,2,3542.01,3.10,18952.41,2728.37,3.10,44658.77,3352.12,3.10,64543.56,2235.73,3.11,21896.91,702.77,3.07,1963.80
2476200,1435.91,889.06,1.00,2,2,2,2334.53,3.10,38459.57,3318.14,3.11,18809.13,2738.90,3.12,19639.46,2188.76,3.09,1833.47,756.33,3.06,1731.58
2492100,1352.29,890.98,1.00,3,3,3,5260.87,3.12,184073.86,2748.74,3.14,36166.48,2524.54,3.12,13486.96,1990.86,3.08,12494.36,1106.16,3.05,22002.74
2530900,1285.56,889.52,1.00,1,1,1,1720.24,-3.12,91319.36,1823.12,3.13,23859.93,2020.86,3.08,13182.01,1367.88,3.09,16058.30,1423.70,3.03,8227.40
2545600,1254.76,891.99,1.00,1,1,1,2102.10,3.06,29125.89,764.77,2.69,80201.91,733.51,3.01,87793.21,1017.43,3.11,23926.83,1699.07,2.95,20305.64
2561000,1264.87,899.62,1.00,1,1,1,822.44,0.65,179966.38,1177.57,0.20,119680.56,464.14,0.21,76656.81,799.62,3.11,14143.34,1973.11,2.89,19497.21
2576800,1290.74,899.43,1.00,1,1,1,1637.15,-0.01,69856.61,1197.04,-0.05,18901.83,942.94,-0.01,31655.04,694.68,3.06,7145.06,2183.19,2.86,13625.97
2607300,1320.23,896.96,1.00,1,1,1,970.36,-0.08,22086.45,819.58,-0.21,13474.47,532.02,-0.17,13974.12,873.49,2.86,7760.83,2171.80,2.91,3047.42
2623100,1327.83,891.44,1.00,1,1,1,594.86,-0.63,35147.86,475.07,-2.85,79581.63,654.71,3.12,74905.88,1216.08,2.66,25294.41,1017.43,3.11,75606.41
2639000,1305.79,892.70,1.00,1,1,1,1388.76,3.08,120522.48,2829.60,3.04,150742.98,2452.90,2.97,113755.87,1853.67,2.63,40161.04,799.62,3.11,13698.58
2654300,1240.00,900.41,1.00,2,2,2,4328.88,3.02,192401.54,4537.88,2.92,115090.61,3277.43,2.79,63267.54,2474.38,2.68,41086.39,694.68,3.06,7378.55
2669900,1168.98,923.45,1.00,2,2,2,4786.47,2.83,64438.01,3662.27,2.66,87706.75,4206.71,2.68,65285.42,3229.20,2.81,53676.21,873.49,2.86,15173.41
2701400,1086.98,980.03,1.00,4,4,4,3162.49,2.54,62724.28,4140.15,2.50,24775.05,4336.71,2.62,9009.37,3277.43,2.79,2608.51,1216.08,2.66,12687.35
2717200,1011.71,1040.14,1.00,4,4,4,6096.86,2.47,186734.31,5352.69,2.57,79491.97,3886.84,2.73,40708.81,4206.71,2.68,64459.03,1853.67,2.63,40415.22
2733000,944.47,1071.13,1.00,2,2,2,4686.08,2.71,121031.61,3927.10,3.10,175963.39,5352.69,2.57,103232.56,4336.71,2.62,17961.72,2474.38,2.68,39786.18
2748200,890.08,1045.27,1.00,2,2,2,3962.11,-2.70,245057.12,3962.11,-2.70,124900.08,3927.10,3.10,182909.32,3886.84,2.73,42315.74,3229.20,2.81,55088.74
