@RELATION gaze_labels

%@METADATA width_px 1920
%@METADATA height_px 1080
%@METADATA width_mm 540.00
%@METADATA height_mm 254.00
%@METADATA distance_mm 620.00


@ATTRIBUTE time INTEGER
@ATTRIBUTE x NUMERIC
@ATTRIBUTE y NUMERIC
@ATTRIBUTE confidence NUMERIC
@ATTRIBUTE handlabeller1 INTEGER
@ATTRIBUTE handlabeller2 INTEGER
@ATTRIBUTE handlabeller_final INTEGER
@ATTRIBUTE speed_1 numeric
@ATTRIBUTE direction_1 numeric
@ATTRIBUTE acceleration_1 numeric
@ATTRIBUTE speed_2 numeric
@ATTRIBUTE direction_2 numeric
@ATTRIBUTE acceleration_2 numeric
@ATTRIBUTE speed_4 numeric
@ATTRIBUTE direction_4 numeric
@ATTRIBUTE acceleration_4 numeric
@ATTRIBUTE speed_8 numeric
@ATTRIBUTE direction_8 numeric
@ATTRIBUTE acceleration_8 numeric
@ATTRIBUTE speed_16 numeric
@ATTRIBUTE direction_16 numeric
@ATTRIBUTE acceleration_16 numeric

%The number after speed, direction denotes the step size that was used for the calculation.
%Acceleration was calculated between two adjacent samples of the already low pass filtered velocity

@DATA
0,998.75,1015.54,1.00,1,1,1,0.00,0.00,0.00,1887.00,-0.37,0.00,2316.68,-0.28,0.00,2220.97,-0.20,0.00,1455.17,-0.41,0.00
22300,1037.95,1000.23,1.00,1,1,1,1887.00,-0.37,84618.83,2316.68,-0.28,21129.05,2818.49,-0.16,26543.54,1760.77,-0.17,20806.58,1421.33,-0.45,2878.91
38100,1083.58,991.16,1.00,1,1,1,2944.81,-0.20,71911.05,2818.49,-0.16,37463.36,2220.97,-0.20,38475.88,519.74,-0.37,79447.06,1338.75,-0.48,6195.62
53800,1125.64,986.36,1.00,1,1,1,2696.16,-0.11,21676.00,2125.60,-0.10,45040.62,1760.77,-0.17,29553.30,643.79,-0.85,19246.04,979.01,-0.61,24587.39
69800,1150.63,984.49,1.00,1,1,1,1566.48,-0.07,70783.15,714.55,-0.23,88761.65,519.74,-0.37,78453.97,1455.17,-0.41,57237.44,619.31,-0.78,24067.53
85600,1147.76,981.18,1.00,2,2,2,277.01,-2.29,110513.19,1162.51,-3.00,116873.15,643.79,-0.85,19124.23,1421.33,-0.45,4063.27,720.15,-0.65,8391.61
101400,1114.26,979.29,1.00,2,2,2,2123.48,-3.09,122824.77,821.71,-1.39,91927.64,909.97,-0.87,16870.11,1338.75,-0.48,6195.62,740.25,-0.64,1423.98
117100,1152.53,955.74,1.00,2,2,2,2862.05,-0.55,303314.66,2052.46,-0.54,103771.02,1260.19,-0.76,23580.89,979.01,-0.61,24587.39,294.48,-1.09,31340.12
148200,1196.73,930.04,1.00,2,2,2,1644.01,-0.53,39204.38,1692.91,-0.56,11651.11,2004.20,-0.51,27065.33,619.31,-0.78,12382.01,632.48,-0.54,13189.06
163900,1219.55,913.49,1.00,2,2,2,1795.69,-0.63,14667.78,1936.18,-0.46,19529.74,1274.72,-0.51,46463.79,720.15,-0.65,8445.06,447.39,-0.58,11838.29
179700,1251.40,903.00,1.00,1,1,1,2122.09,-0.32,43316.02,657.48,-0.28,81892.61,337.85,-0.55,59321.28,740.25,-0.64,1423.98,215.69,-0.87,15781.78
194600,1238.93,907.83,1.00,1,1,1,897.59,2.77,202606.54,760.61,2.75,95034.14,223.35,-0.03,12120.83,294.48,-1.09,33022.81,148.85,-1.14,5532.58
225700,1219.07,916.39,1.00,1,1,1,695.17,2.73,6575.58,116.34,1.96,21990.92,583.79,2.98,25908.97,231.34,-2.73,12462.23,131.46,-1.62,2187.57
241500,1236.87,912.89,1.00,1,1,1,1148.18,-0.19,116048.23,434.28,-2.69,28919.07,668.86,3.09,7077.02,455.49,2.94,18754.94,121.71,-1.62,617.31
257200,1206.77,910.41,1.00,1,1,1,1924.13,-3.06,193946.38,1286.44,-3.11,57778.58,704.24,-3.13,3481.60,847.29,2.84,25261.00,140.78,-0.85,6354.59
288900,1175.93,910.89,1.00,2,2,2,972.89,3.13,30300.65,919.33,3.02,12734.51,1121.60,2.97,14088.53,649.44,2.76,6541.26,42.16,-2.12,4239.04
304600,1163.51,915.70,1.00,2,2,2,848.30,2.77,21902.54,989.36,2.58,27170.42,1114.15,2.78,14204.04,508.12,2.76,9001.90,251.37,2.93,15337.16
320300,1149.72,927.56,1.00,3,3,3,1158.66,2.43,29110.17,1488.12,2.55,31840.69,750.13,2.31,35480.96,643.72,2.81,8815.40,437.85,2.86,11965.39
336000,1124.80,941.87,1.00,1,1,1,1830.18,2.62,46203.26,605.01,1.87,69024.46,460.55,2.05,20892.84,433.36,2.63,14660.96,503.20,2.89,4257.63
352100,1144.00,945.93,1.00,1,1,1,1218.89,0.21,177435.08,619.41,0.11,58750.76,240.51,1.79,14658.38,301.59,2.31,10898.21,429.60,2.97,5098.53
374800,1148.70,944.44,1.00,1,1,1,217.07,-0.31,45623.17,71.19,-0.74,25306.77,226.10,0.18,14851.92,346.85,2.51,3491.24,273.26,3.13,7310.64
390700,1146.04,944.09,1.00,1,1,1,168.59,-3.01,23682.78,97.60,2.96,10227.22,26.54,-0.87,13464.58,422.78,2.77,7787.28,222.95,-3.02,3730.01
422700,1144.10,945.30,1.00,1,1,1,71.41,2.58,3821.15,11.94,2.99,2677.20,342.75,3.08,11300.74,150.91,-3.11,9067.43,57.48,-2.40,5610.72
438500,1145.48,944.17,1.00,1,1,1,112.36,-0.69,11608.84,715.64,3.10,44542.94,702.23,3.02,22806.72,255.96,-2.72,8185.48,26.07,-1.78,2486.08
454300,1121.51,946.22,1.00,1,1,1,1522.55,3.06,102309.39,1753.06,3.03,65876.90,668.01,-3.04,9568.30,202.32,-1.90,12027.06,176.99,-0.42,10975.82
469900,1090.80,950.57,1.00,2,2,2,1987.84,3.00,30452.82,635.05,-2.88,75940.95,618.63,-2.78,11248.50,330.79,-0.97,16941.23,217.09,-0.53,2917.05
485700,1102.22,941.15,1.00,2,2,2,936.65,-0.69,179077.30,863.55,-0.83,81422.37,541.86,-1.02,56716.50,543.67,-0.74,14828.34,304.12,-0.57,5544.56
501400,1109.08,930.42,1.00,2,2,2,811.33,-1.00,19071.87,1400.28,-0.57,38734.53,1488.82,-0.51,66927.74,395.22,-0.95,11219.70,211.07,-0.84,7339.26
517300,1139.39,917.15,1.00,3,3,3,2081.34,-0.41,92945.28,2184.50,-0.38,53788.38,1616.67,-0.43,11118.11,796.96,-0.53,29250.46,259.38,-0.63,4288.42
532600,1172.42,905.26,1.00,3,3,3,2294.21,-0.35,16892.43,1862.99,-0.32,22494.85,1125.30,-0.39,32329.71,890.39,-0.45,7418.43,258.33,-0.63,91.26
548400,1194.44,899.08,1.00,1,1,1,1447.67,-0.27,54214.84,78.11,-0.60,113178.40,1147.76,-0.30,6297.06,764.64,-0.45,7959.01,301.46,-0.61,2756.99
564100,1174.45,903.87,1.00,1,1,1,1309.66,2.91,175593.41,442.91,-0.23,23647.27,421.96,-0.29,46230.39,539.54,-0.39,14516.75,205.34,-0.86,7305.84
579900,1208.02,895.88,1.00,1,1,1,2184.39,-0.23,221142.75,653.18,-0.27,13364.94,87.13,-0.77,21959.82,473.92,-0.25,6154.12,186.23,-0.98,1898.65
611500,1204.30,895.67,1.00,1,1,1,117.91,-3.09,72710.41,188.55,-2.96,26182.99,150.20,-0.43,2338.71,232.33,-0.19,7670.67,296.10,-0.63,4333.34
626700,1199.34,894.33,1.00,1,1,1,338.49,-2.88,14766.30,365.61,3.01,12801.26,46.27,0.68,8969.70,125.13,-0.15,7072.38,329.36,-0.49,3683.45
658400,1187.30,897.93,1.00,1,1,1,396.15,2.85,6581.11,269.82,0.34,19497.50,60.74,0.58,485.69,60.88,-0.42,2164.22,398.75,-0.37,2547.92
674200,1211.41,898.63,1.00,1,1,1,1526.27,0.03,120658.81,667.88,0.02,26650.92,186.10,0.13,8491.04,365.70,3.03,26841.39,212.62,-0.46,11881.24
689800,1208.27,898.29,1.00,1,1,1,202.24,-3.03,110765.86,110.14,-0.76,38101.88,72.43,2.69,16003.96,325.48,3.03,2578.47,73.14,-2.60,16631.96
705800,1213.93,896.24,1.00,1,1,1,376.37,-0.35,35310.21,790.29,3.08,54862.17,960.03,3.08,55851.70,64.47,3.08,16320.82,169.55,3.13,7146.03
721600,1183.20,899.94,1.00,1,1,1,1959.48,3.02,147318.69,2002.35,3.05,76751.03,785.71,3.09,11042.62,243.46,-0.33,19370.95,113.33,-3.08,3616.49
737500,1150.75,902.34,1.00,1,1,1,2046.02,3.07,7978.56,781.25,3.10,76929.39,314.35,-3.09,29830.08,125.80,-2.57,21174.63,126.78,3.12,1018.14
753300,1158.45,900.91,1.00,2,2,2,495.40,-0.18,160698.92,828.93,-0.19,101617.21,496.39,-0.34,50357.00,369.56,-3.06,16758.80,42.85,-3.01,5354.42
784700,1189.17,894.91,1.00,2,2,2,996.77,-0.19,15969.14,1341.44,-0.23,16363.17,604.46,-0.28,3594.14,479.42,3.09,3939.99,89.05,3.03,1542.85
800400,1220.03,886.78,1.00,3,3,3,2032.86,-0.26,66250.65,295.92,-0.69,69056.53,103.85,-2.20,41193.19,291.38,3.10,11978.35,197.48,3.08,6919.99
816100,1196.36,889.03,1.00,1,1,1,1514.32,3.05,225203.12,1726.66,3.04,126147.51,667.40,3.03,39647.66,128.78,-0.30,26570.52,339.04,3.06,9021.26
839300,1153.22,893.67,1.00,1,1,1,1870.41,3.03,15375.52,1410.30,2.94,15103.76,1158.88,2.96,21393.77,230.12,-0.20,4435.11,379.64,2.96,2436.34
855100,1142.45,899.92,1.00,1,1,1,787.96,2.62,75585.46,499.31,2.60,60499.83,399.40,2.87,48204.87,118.42,3.00,22051.80,285.56,2.74,7403.31
870900,1139.74,901.87,1.00,1,1,1,211.43,2.52,36573.73,844.94,-0.13,83325.29,618.92,0.01,63845.13,614.69,2.98,31410.63,175.01,2.26,9753.56
886900,1169.11,896.57,1.00,1,1,1,1865.50,-0.18,128654.82,1703.22,-0.15,53669.85,499.22,-0.09,8237.63,549.82,2.95,4265.29,154.71,1.30,9554.62
901900,1191.96,894.10,1.00,1,1,1,1532.27,-0.11,23593.68,146.40,0.13,104201.85,124.32,-3.08,41494.81,413.03,2.72,11492.48,157.01,1.35,567.69
917700,1173.58,897.17,1.00,1,1,1,1179.41,2.98,171555.84,1333.64,3.03,93419.02,665.79,2.98,34511.34,201.12,1.86,20352.62,245.28,2.37,13349.89
948600,1130.09,901.27,1.00,1,1,1,1413.57,3.05,8140.76,1066.35,3.00,8713.80,1079.64,2.88,13642.45,245.85,1.38,3675.82,345.43,2.54,3609.22
979700,1108.14,906.57,1.00,2,2,2,726.20,2.91,22582.64,860.68,2.66,12188.70,554.03,2.45,19956.74,314.31,1.67,3341.52,271.57,2.35,3021.20
995500,1094.23,919.79,1.00,2,2,2,1214.86,2.38,43627.48,1097.56,0.75,101865.88,484.88,1.18,39340.27,352.38,1.96,6554.20,264.57,2.31,924.26
1011200,1133.53,930.03,1.00,2,2,2,2587.13,0.25,215872.57,1239.89,0.42,26036.56,902.07,0.66,34137.49,365.63,2.23,6183.27,167.94,2.07,6892.81
1042500,1147.54,943.33,1.00,1,1,1,617.09,0.76,66095.35,775.93,0.59,15741.46,1043.01,0.38,9779.50,283.17,1.54,7378.34,114.54,1.02,4766.25
1058200,1163.94,950.17,1.00,1,1,1,1131.74,0.39,38050.63,743.46,0.30,14097.17,216.78,1.45,60955.41,348.95,0.97,12041.96,92.61,1.95,6034.42
1073000,1169.23,949.94,1.00,1,1,1,357.72,-0.04,55526.10,952.46,-3.02,114179.54,242.45,2.90,20691.30,230.73,1.41,11516.20,59.51,1.26,4073.58
1088200,1135.59,946.59,1.00,1,1,1,2224.02,-3.04,169647.96,998.09,-3.07,4593.13,396.68,-3.09,11733.38,146.32,2.36,12413.85,170.26,0.15,10063.92
1111000,1131.40,947.24,1.00,1,1,1,186.07,2.99,89667.02,68.13,0.99,45641.66,1021.83,3.10,27547.59,104.82,-0.75,11013.71,364.94,0.02,8669.84
1126200,1137.00,948.76,1.00,1,1,1,382.02,0.26,36656.31,1069.73,2.96,72236.67,223.33,3.14,52549.22,183.85,-1.78,10417.16,673.75,-0.05,20446.14
1141100,1099.70,952.94,1.00,2,2,2,2518.69,3.03,193114.43,439.53,-3.04,44239.26,398.34,-0.48,40616.73,322.35,-0.92,16495.53,763.01,-0.12,6771.59
1172500,1116.76,946.63,1.00,2,2,2,579.17,-0.35,98217.64,1315.10,-0.33,54906.55,418.24,-0.86,4955.63,681.67,-0.42,13626.06,510.23,-0.21,8233.96
1188500,1158.73,932.89,1.00,3,3,3,2759.95,-0.32,136331.71,1482.93,-0.50,18439.48,1345.10,-0.39,61895.49,840.52,-0.39,10087.26,318.36,-0.41,13049.51
1204400,1158.25,923.90,1.00,1,1,1,566.78,-1.62,167898.55,1400.78,-0.49,5288.07,1874.32,-0.36,33485.68,1227.29,-0.31,24784.50,264.27,-0.57,4433.08
1220100,1197.81,912.11,1.00,1,1,1,2629.50,-0.29,162877.03,2304.60,-0.26,63111.44,1392.04,-0.35,30727.03,1557.16,-0.27,21267.17,368.91,-0.42,7273.19
1235300,1227.02,905.42,1.00,1,1,1,1971.41,-0.22,44367.43,1410.63,-0.21,59137.65,2335.52,-0.19,64825.46,1326.01,-0.28,15240.96,717.40,-0.23,23825.91
1251000,1240.44,903.01,1.00,1,1,1,868.37,-0.18,70364.84,2376.49,-0.13,62285.09,1849.94,-0.16,31192.08,546.80,-0.35,49744.95,906.28,-0.22,12045.31
1266800,1301.28,895.96,1.00,1,1,1,3876.46,-0.12,190524.90,2284.82,-0.13,5878.60,796.32,-0.11,66798.78,480.22,-0.22,5768.00,962.56,-0.23,3607.93
1282400,1311.55,893.48,1.00,1,1,1,677.03,-0.24,205478.76,784.41,2.98,196734.19,126.24,2.76,58879.30,467.98,-0.12,3318.71,1030.16,-0.22,4342.93
1298300,1276.88,899.84,1.00,1,1,1,2216.82,2.96,181953.11,1727.79,2.98,59333.81,758.80,2.98,40023.53,764.55,-0.09,18685.14,756.72,-0.25,17277.68
1329500,1231.25,906.72,1.00,1,1,1,1478.90,2.99,23722.38,745.79,2.98,31474.83,385.76,2.89,12055.26,972.46,-0.11,6680.97,241.30,0.01,16896.38
1360300,1231.23,907.21,1.00,2,2,2,15.69,1.62,47918.94,789.74,-0.09,49820.85,747.58,-0.08,36675.22,763.54,-0.12,6800.52,305.66,1.27,10594.45
1383500,1273.74,903.06,1.00,2,2,2,1841.08,-0.10,79457.51,2435.24,-0.11,70935.91,1815.32,-0.12,46078.29,622.81,-0.13,6065.99,762.50,1.74,21989.44
1415100,1363.94,893.17,1.00,3,3,3,2871.52,-0.11,32620.00,2972.22,-0.13,17141.98,2403.06,-0.14,18624.63,360.21,-0.17,8342.14,1110.02,1.87,11615.14
1431400,1414.87,884.34,1.00,1,1,1,3171.41,-0.17,21734.38,2353.38,-0.19,39132.64,1899.46,-0.16,31016.80,162.13,1.53,25383.34,1052.09,1.79,6270.65
1447100,1437.89,878.92,1.00,1,1,1,1505.90,-0.23,106404.52,306.27,-0.53,131679.16,375.28,-2.95,143671.49,719.51,1.95,36645.62,832.69,2.01,19260.02
1463200,1423.27,879.40,1.00,1,1,1,908.62,3.11,149276.54,3140.52,3.04,212484.04,3022.73,2.88,167131.96,1756.45,2.01,64550.24,432.17,2.15,25413.49
1478200,1340.70,888.62,1.00,2,2,2,5538.68,3.03,308895.43,6460.10,2.87,227518.20,3675.46,2.64,69216.21,3025.79,2.17,88192.24,105.53,0.33,31290.18
1493900,1232.42,933.35,1.00,4,4,4,7462.06,2.75,167681.81,4281.94,2.44,197745.12,4931.02,2.34,112508.92,3041.55,2.19,3808.81,538.51,-0.07,28259.41
1524900,1187.67,1017.34,1.00,4,4,4,3069.84,2.06,175963.33,4966.69,1.90,82212.83,5351.71,2.12,39496.80,2568.23,2.34,20514.99,552.62,-0.06,562.85
1540700,1156.52,1153.05,1.00,4,4,4,8812.81,1.80,373662.39,7533.20,1.85,163795.20,3922.67,1.79,131769.51,1632.88,2.54,64351.66,575.67,-0.08,1652.25
1556500,1122.27,1246.23,1.00,4,4,4,6282.95,1.92,170832.53,2561.19,1.44,333975.55,1918.88,1.58,131929.40,276.55,2.53,85844.58,330.94,-0.07,15491.21
1572000,1166.66,1232.57,1.00,4,4,4,2995.96,-0.30,544597.79,4118.18,-1.04,408890.31,2628.11,-1.07,284652.69,1191.02,-0.23,93662.00,191.76,-0.09,8985.93
1587300,1186.88,1137.07,1.00,2,2,2,6380.08,-1.36,364574.59,7513.21,-1.27,237864.85,6148.86,-1.06,230121.18,1872.82,-0.53,52934.09,118.08,-0.12,4826.70
1603100,1235.30,1009.22,1.00,2,2,2,8652.87,-1.21,160894.95,8130.26,-1.08,104583.28,6567.42,-0.98,43551.88,2754.56,-0.74,63469.71,153.84,-0.09,2284.80
1618900,1308.83,910.95,1.00,2,2,2,7768.20,-0.93,155418.26,6337.87,-0.62,233417.28,4938.02,-0.86,111145.61,3463.72,-0.82,47610.00,323.15,-0.15,10749.47
1634100,1394.83,894.53,1.00,2,2,2,5759.71,-0.19,344538.66,2609.25,-0.15,275310.97,3040.18,-0.52,152470.45,2980.34,-0.86,32818.48,590.68,-0.29,18080.03
1651000,1391.63,898.29,1.00,3,3,3,291.77,2.28,354446.56,1047.54,-0.09,92580.72,1894.31,-0.16,84390.29,2470.14,-0.74,35460.07,579.36,-0.74,15401.69
1682600,1445.41,889.76,1.00,1,1,1,1723.21,-0.16,61842.96,1410.32,-0.17,11876.53,828.68,-0.20,33750.57,1568.22,-0.52,31819.84,883.09,-1.11,12710.93
1698400,1457.48,886.77,1.00,1,1,1,786.93,-0.24,59597.60,614.04,-0.38,51845.90,904.52,-0.28,6793.58,772.79,-0.27,53147.13,1151.22,-1.19,17760.96
1728600,1471.64,879.28,1.00,1,1,1,530.41,-0.49,9950.00,423.75,-0.67,7989.86,316.66,-0.51,19878.02,156.63,-0.61,20763.61,1090.89,-1.25,3100.14
1744400,1472.73,874.63,1.00,1,1,1,302.37,-1.34,25477.87,84.96,-1.67,24344.21,190.02,-2.38,26232.72,335.26,-3.04,29445.42,826.05,-1.14,18068.90
1776100,1471.23,875.27,1.00,2,2,2,51.52,2.74,10579.23,527.71,-3.10,16483.88,549.44,-3.11,13460.15,894.67,3.09,17849.06,395.05,-1.09,13632.71
1799800,1443.52,873.48,1.00,2,2,2,1171.56,-3.08,47499.90,1086.14,3.10,23711.88,1428.23,3.03,37482.56,1091.85,3.07,8369.82,163.17,-3.01,20133.03
1824000,1419.25,877.56,1.00,2,2,2,1016.78,2.98,12185.45,2476.43,2.99,57908.36,2160.46,3.02,30261.39,1175.62,3.05,3587.49,402.42,3.07,10108.92
1847800,1326.01,891.41,1.00,1,1,1,3960.76,2.99,123706.65,3468.55,2.99,41686.28,2326.84,2.99,7510.50,1054.44,3.03,5155.49,428.81,3.07,1110.34
1863500,1283.77,897.97,1.00,1,1,1,2722.45,2.99,78886.05,2099.62,2.99,87194.70,2021.35,3.00,19520.72,1185.97,3.02,8401.08,475.24,3.07,2957.99
1879400,1260.37,901.10,1.00,1,1,1,1484.84,3.01,77883.02,229.15,-3.07,118031.99,442.99,3.05,99309.27,1334.17,2.98,9955.00,464.72,3.06,722.87
1895300,1276.51,897.43,1.00,1,1,1,1040.63,-0.22,158676.05,1216.09,-0.19,90480.13,176.83,-0.15,38968.80,1171.96,2.97,10212.44,587.16,3.03,7787.47
1911000,1298.12,893.92,1.00,1,1,1,1394.97,-0.16,23079.16,593.80,-0.06,40234.51,78.78,2.45,15778.79,590.40,2.92,37148.13,659.64,3.00,4694.83
1926000,1294.70,896.33,1.00,1,1,1,279.11,2.53,110028.30,1389.80,2.90,131776.61,211.51,2.63,8982.00,131.54,0.12,47705.81,680.22,3.01,1383.57
1941800,1256.58,904.23,1.00,1,1,1,2464.17,2.94,139937.43,972.02,2.89,26444.56,746.44,2.84,34256.68,338.73,-0.05,13311.86,614.54,2.97,4494.91
1957500,1265.02,903.84,1.00,1,1,1,538.29,-0.05,190884.82,141.89,2.25,54966.88,104.22,0.59,51970.10,114.19,0.17,14553.03,590.63,2.98,1568.46
1973200,1253.79,907.70,1.00,1,1,1,756.42,2.81,81651.41,1122.15,-0.11,78130.06,657.66,-0.11,37040.41,195.56,2.83,19209.68,455.75,2.97,8596.21
1989000,1300.16,899.99,1.00,1,1,1,2975.07,-0.16,235645.92,1160.43,-0.16,4567.27,351.43,-0.14,19404.34,145.67,2.89,3209.99,524.54,2.98,4378.74
2020700,1308.18,898.76,1.00,1,1,1,255.98,-0.15,85776.23,166.10,3.13,41794.77,240.97,-0.29,3750.29,38.20,0.21,5697.79,538.08,2.99,429.78
2036000,1292.35,900.09,1.00,1,1,1,1038.11,3.06,84549.82,1175.07,3.04,65991.56,324.09,3.08,36701.98,97.34,3.01,8757.41,565.55,2.96,1975.71
2051700,1271.93,902.33,1.00,1,1,1,1308.73,3.03,17341.30,560.24,3.06,39168.51,590.25,3.00,17113.42,349.26,3.03,16047.80,497.99,2.94,4384.41
2067500,1274.76,901.56,1.00,1,1,1,186.12,-0.26,94486.98,211.05,2.82,22691.21,544.39,3.01,2937.33,998.17,3.01,41079.12,383.45,2.91,7277.32
2099000,1262.45,905.48,1.00,2,2,2,410.15,2.83,18925.46,534.61,2.97,10399.66,938.90,2.99,12534.02,1330.41,3.01,10547.21,177.06,2.79,6638.53
2114800,1249.83,905.79,1.00,2,2,2,798.89,3.12,26639.55,2058.17,3.01,96461.90,1561.29,3.00,39399.51,1171.12,2.99,10179.83,264.00,2.89,5688.04
2129900,1199.38,913.66,1.00,3,3,3,3381.48,2.99,171615.43,2599.11,3.00,35860.91,2075.40,3.01,34108.01,771.11,2.96,26558.44,231.44,2.99,2712.82
2161600,1129.38,922.73,1.00,1,1,1,2226.76,3.01,36496.29,2086.75,3.02,16192.76,1806.81,2.99,8630.31,598.51,2.92,5515.03,386.84,3.00,4902.46
2176800,1102.29,925.99,1.00,1,1,1,1794.81,3.02,28441.10,609.96,2.89,97579.87,604.26,2.92,79235.46,411.06,2.84,12606.32,422.64,3.01,2376.76
2192500,1111.11,927.36,1.00,1,1,1,568.33,0.15,149486.76,1622.17,-0.04,141568.44,865.22,-0.01,93121.19,450.56,2.86,2576.06,362.50,2.98,3884.94
2208200,1153.19,923.89,1.00,1,1,1,2689.14,-0.08,136358.64,2299.98,-0.07,43352.50,1659.03,-0.03,50582.43,108.89,2.85,21762.53,263.46,2.95,6339.20
2224000,1183.37,922.05,1.00,1,1,1,1913.54,-0.06,49186.48,1695.55,-0.02,38767.46,1220.84,-0.05,27785.93,404.30,-0.11,32392.17,291.62,2.95,1782.92
2240000,1207.09,922.63,1.00,1,1,1,1483.34,0.02,28361.27,170.19,0.25,95778.75,440.61,-0.18,49125.35,636.42,-0.13,14526.62,240.90,3.01,3304.84
2256100,1188.66,923.41,1.00,1,1,1,1146.07,3.10,163228.15,608.33,-2.96,48336.64,72.59,-1.64,27245.05,586.19,-0.14,3130.69,224.76,2.99,1062.21
2278900,1183.83,918.28,1.00,1,1,1,308.68,-2.33,42651.89,221.57,-2.29,19995.48,309.21,-2.78,12548.34,332.18,-0.16,11151.44,103.58,3.01,5316.72
2295000,1183.00,916.90,1.00,1,1,1,100.04,-2.11,13163.80,142.32,-0.88,15106.06,98.03,-1.58,17862.94,71.63,-0.52,16532.53,181.63,-0.07,17707.44
2310600,1186.71,914.81,1.00,1,1,1,273.19,-0.51,18826.35,180.33,-0.06,8519.25,210.16,-0.12,14238.24,107.74,-2.62,10035.03,411.48,-0.12,14757.42
2325900,1188.56,916.57,1.00,1,1,1,166.62,0.76,17975.76,334.49,0.18,10796.38,138.93,0.05,5020.24,55.19,-1.99,4622.11,584.42,-0.14,11330.23
2341600,1196.91,916.68,1.00,1,1,1,531.87,0.01,27051.97,101.25,0.23,14868.70,83.07,-0.03,3600.67,100.91,-3.10,5784.43,674.37,-0.16,5761.69
2357500,1191.67,917.31,1.00,1,1,1,331.75,3.02,54202.15,89.83,-2.63,11900.17,42.09,-2.94,7821.40,32.32,2.64,4725.02,648.17,-0.18,1796.04
2388900,1193.21,914.59,1.00,1,1,1,99.49,-1.06,12702.03,136.43,-2.92,1811.22,347.58,3.10,9773.16,197.58,-0.09,7246.06,466.46,-0.24,5893.41
2405500,1185.28,915.89,1.00,1,1,1,484.11,2.98,33247.11,759.21,3.01,38117.17,163.68,3.00,11176.43,582.93,-0.15,23251.24,378.74,-0.26,5309.39
2420300,1169.57,917.69,1.00,2,2,2,1068.19,3.03,39532.92,233.81,2.67,36800.39,341.68,-0.10,34140.84,965.31,-0.16,25840.08,387.24,-0.22,1317.32
2435600,1179.01,919.09,1.00,2,2,2,623.74,0.15,109704.13,1460.25,-0.12,109895.83,1224.77,-0.14,57738.04,1098.49,-0.16,8705.02,457.41,-0.18,4703.95
2451200,1214.39,912.42,1.00,3,3,3,2307.47,-0.19,110913.58,2149.18,-0.16,44444.23,2284.36,-0.14,67923.07,986.67,-0.17,7189.60,616.14,-0.13,10279.63
2482700,1278.93,902.87,1.00,3,3,3,2071.35,-0.15,7975.99,2823.09,-0.15,21415.50,2146.02,-0.16,4582.21,752.42,-0.19,7463.07,725.51,-0.13,3472.09
2498500,1346.45,892.64,1.00,1,1,1,4321.82,-0.15,142435.66,2142.86,-0.16,43074.89,1413.83,-0.18,46395.73,825.33,-0.19,4619.71,691.41,-0.15,2266.42
2529700,1378.40,887.06,1.00,1,1,1,1039.59,-0.17,105210.71,88.57,-1.82,68996.59,296.81,-0.41,36124.38,894.52,-0.19,2217.71,681.14,-0.16,441.31
2545400,1345.43,888.62,1.00,2,2,2,2102.51,3.09,199782.96,2488.44,3.06,157666.84,636.50,3.12,58454.13,990.98,-0.14,6700.80,805.54,-0.15,7948.95
2561200,1300.28,893.53,1.00,2,2,2,2874.21,3.03,49768.94,1559.49,3.04,58840.83,980.76,3.05,22108.81,883.65,-0.12,6903.12,1023.73,-0.13,13880.49
2576900,1296.55,893.59,1.00,3,3,3,237.36,3.13,168025.19,532.30,-0.04,133188.77,367.28,0.07,85639.82,403.93,-0.13,30555.18,1129.46,-0.11,6818.27
2592600,1316.98,892.85,1.00,1,1,1,1301.89,-0.04,98038.26,2293.02,-0.05,112148.27,1633.67,-0.06,80900.23,144.46,-0.19,16555.13,1081.15,-0.11,3077.49
2608300,1368.47,890.18,1.00,1,1,1,3284.25,-0.05,126281.74,2728.16,-0.06,27805.20,1550.61,-0.08,5647.78,594.62,-0.11,28707.56,930.33,-0.11,9606.73
2624200,1403.03,887.57,1.00,1,1,1,2179.43,-0.08,69600.58,964.32,-0.13,111183.65,1140.38,-0.12,26006.25,1342.42,-0.08,47062.42,654.17,-0.12,17383.83
2647900,1406.32,885.07,1.00,2,2,2,174.38,-0.65,85878.27,177.31,-2.51,46362.26,803.12,-0.19,14497.05,1488.34,-0.06,6299.82,400.39,-0.13,10708.51
2663600,1397.40,883.43,1.00,2,2,2,577.50,-2.96,45020.03,605.17,-0.29,46265.17,1084.60,-0.11,18415.46,1306.22,-0.05,11652.41,364.85,-0.10,2370.08
2679400,1424.60,879.67,1.00,2,2,2,1738.05,-0.14,145167.78,2608.16,-0.06,128082.90,1419.32,-0.04,22015.78,860.78,-0.06,28205.27,412.60,-0.08,3047.96
2695100,1479.42,878.80,1.00,2,2,2,3492.41,-0.02,113353.78,2243.91,0.03,26556.41,1500.08,0.01,6958.40,436.83,-0.12,27114.34,551.65,-0.09,8859.79
2711400,1496.38,881.64,1.00,1,1,1,1054.66,0.17,151080.69,424.87,0.45,114450.30,940.28,0.06,34525.60,396.66,-0.13,2473.50,682.86,-0.09,8052.89
2726200,1491.30,884.60,1.00,1,1,1,397.37,2.61,93499.48,428.98,3.02,55295.53,148.43,3.08,73491.26,574.08,-0.08,12108.27,657.74,-0.10,1855.46
2742000,1483.35,883.27,1.00,1,1,1,509.80,-2.97,20635.83,506.95,-2.93,11002.51,445.15,-3.03,19005.15,241.14,-0.02,21124.29,405.03,-0.11,15996.47
2773600,1467.80,879.57,1.00,1,1,1,505.90,-2.91,1074.20,467.93,-2.89,1393.44,189.45,-2.61,8932.63,124.01,3.13,11555.57,271.15,-0.05,4289.74
2789300,1461.92,877.73,1.00,1,1,1,392.23,-2.84,7513.02,345.20,-0.23,50314.39,315.84,-2.98,9812.58,34.39,-1.95,7399.59,281.89,0.03,1571.41
2805100,1478.38,877.07,1.00,1,1,1,1042.54,-0.04,89746.87,109.87,2.72,28708.72,100.17,-3.06,13684.98,122.13,-0.62,7496.28,316.45,0.04,2190.33
2821000,1458.74,879.15,1.00,1,1,1,1242.03,3.04,143606.89,395.25,3.04,18423.11,414.57,-0.03,32341.37,58.83,-0.71,4008.23,339.54,0.06,1525.76
2851900,1459.98,878.95,1.00,1,1,1,40.54,-0.16,41505.41,765.57,-0.07,37562.53,369.22,-0.13,1891.46,116.76,0.24,3088.73,209.59,0.02,4226.37
2867700,1494.41,876.64,1.00,1,1,1,2183.82,-0.07,135661.25,1530.70,-0.12,48534.71,352.94,-0.08,1573.29,191.69,0.35,4863.97,111.88,-0.06,6231.45
2882700,1506.80,873.42,1.00,1,1,1,853.63,-0.25,90294.42,77.29,3.12,107175.60,339.05,0.19,6178.94,112.14,0.60,5841.87,46.62,0.10,4423.85
2912500,1490.95,876.71,1.00,2,2,2,543.36,2.94,46865.04,526.90,2.69,15364.15,160.02,1.96,13496.93,426.58,0.10,11161.10,84.85,0.06,1286.46
2928000,1485.32,883.83,1.00,3,3,3,585.38,2.24,25015.66,357.44,1.67,29390.45,230.13,2.34,6514.73,566.38,0.01,9491.57,209.22,0.04,8025.42
2944200,1489.79,887.98,1.00,1,1,1,376.79,0.75,41389.93,224.71,0.42,22116.53,535.82,0.26,41907.07,245.56,0.08,19868.83,271.02,0.05,3822.88
2967000,1493.33,887.38,1.00,1,1,1,157.34,-0.17,13483.93,973.91,-0.05,34186.69,820.33,-0.07,15646.30,86.86,1.69,11554.26,175.56,0.05,4186.87
2982900,1527.44,886.25,1.00,1,1,1,2146.69,-0.03,125212.28,1595.62,-0.15,39978.58,593.90,-0.21,15462.93,141.92,0.39,9091.04,128.35,0.13,3065.49
2998500,1543.01,879.76,1.00,1,1,1,1081.12,-0.39,76809.37,237.13,-1.19,95514.08,195.17,-0.11,25645.82,309.25,-0.04,12192.55,28.34,1.60,8232.26
3013600,1530.12,879.48,1.00,1,1,1,853.65,-3.12,125399.21,1256.39,2.98,92293.36,221.26,-3.06,27445.64,368.15,-0.11,4171.69,162.97,2.99,10626.02
3028900,1505.33,886.04,1.00,1,1,1,1675.85,2.88,58008.44,436.85,2.88,53770.63,158.76,2.96,5234.62,276.32,-0.19,6271.96,167.47,2.99,294.22
3060500,1510.33,884.79,1.00,1,1,1,163.07,-0.24,58193.29,554.30,-0.16,31322.41,177.74,0.20,10454.99,216.85,-3.08,15480.26,72.04,3.10,3043.92
3075700,1530.96,881.99,1.00,1,1,1,1369.27,-0.14,79428.42,1082.21,-0.08,34968.16,341.24,-0.23,12793.05,596.46,3.05,25226.48,110.47,-2.95,2864.64
3091400,1543.67,882.22,1.00,1,1,1,810.19,0.02,37063.48,66.88,-1.39,67956.63,211.53,-3.11,34915.91,582.83,3.09,1649.76,128.66,-2.94,1160.37
3107200,1531.34,879.92,1.00,2,2,2,794.05,-2.96,101182.86,1478.77,3.10,94645.28,1134.71,3.07,58520.42,328.92,-3.02,16725.17,108.26,-2.95,1293.27
3122900,1497.14,884.34,1.00,3,3,3,2196.51,3.01,93105.03,2290.89,3.04,52116.46,1517.70,3.13,24853.45,317.12,-2.96,1576.04,193.93,-3.05,5533.97
3138600,1459.77,887.08,1.00,1,1,1,2387.03,3.07,14583.14,1558.15,-3.13,48667.41,1146.86,3.13,23624.16,598.64,-3.09,18307.53,318.37,3.03,8536.68
3154300,1448.22,883.61,1.00,1,1,1,767.85,-2.85,107784.39,206.08,-1.66,98788.97,425.41,-2.88,47465.47,638.27,-3.12,2860.41,475.42,2.93,10301.26
3170100,1459.21,880.61,1.00,1,1,1,720.75,-0.27,90571.35,757.00,-0.26,47440.71,156.38,-2.00,21980.53,481.06,3.12,10064.13,784.68,2.82,20001.43
3185800,1471.27,877.50,1.00,1,1,1,793.52,-0.25,4683.60,138.03,-2.53,54323.43,75.41,-0.52,10686.74,173.65,-3.02,19755.76,1271.14,2.67,32431.28
3201700,1455.63,878.12,1.00,1,1,1,984.72,3.10,111214.83,385.96,2.97,19129.04,55.08,0.25,3295.54,72.19,2.85,6997.04,1718.14,2.63,28366.91
3232900,1453.37,880.68,1.00,1,1,1,109.21,2.29,29253.39,182.53,0.43,17499.93,40.92,1.90,2278.75,398.54,2.73,10480.07,1973.83,2.61,8259.07
3248500,1463.39,881.68,1.00,1,1,1,645.46,0.10,45813.15,353.05,0.03,12711.43,148.21,2.07,6932.49,1207.04,2.73,51827.12,2110.88,2.69,13075.19
3280100,1470.03,881.15,1.00,2,2,2,210.75,-0.08,13914.95,355.84,2.60,21533.93,826.88,2.72,22601.30,2050.43,2.60,27388.98,2140.59,2.92,15675.56
3296000,1448.89,890.36,1.00,4,4,4,1450.30,2.73,103836.09,2195.56,2.80,116245.60,2340.47,2.74,95206.88,2654.78,2.54,39051.09,72.19,2.85,130101.03
3319800,1387.79,910.04,1.00,4,4,4,2696.95,2.83,53025.32,4762.01,2.75,108075.75,4743.78,2.61,102589.32,3340.70,2.52,28922.39,398.54,2.73,13738.58
3335000,1277.19,961.14,1.00,4,4,4,8015.75,2.71,351875.74,8078.75,2.54,234252.67,6024.60,2.56,86356.41,3695.83,2.64,35710.81,1207.04,2.73,53190.99
3350800,1181.12,1051.49,1.00,4,4,4,8346.66,2.39,167276.04,7778.97,2.41,69588.86,6862.53,2.49,59701.05,4226.49,2.91,75186.99,2050.43,2.60,54777.95
3366600,1094.62,1125.75,1.00,4,4,4,7215.25,2.43,74989.32,5693.04,2.41,132036.85,5579.25,2.58,88919.85,6024.60,2.56,159663.96,2654.78,2.54,39298.25
3382300,1047.35,1170.92,1.00,4,4,4,4164.88,2.38,195176.44,3736.05,2.95,198851.72,4145.46,-3.07,212313.75,6862.53,2.49,60081.31,3340.70,2.52,43844.13
3398100,979.17,1148.56,1.00,2,2,2,4541.08,-2.82,283922.40,5089.25,-2.49,241522.97,3736.05,2.95,71895.57,5579.25,2.58,88919.85,3695.83,2.64,34354.71
3429100,857.44,1027.17,1.00,2,2,2,5545.55,-2.36,81633.66,5545.55,-2.36,27560.08,5089.25,-2.49,123098.80,4145.46,-3.07,107526.64,4226.49,2.91,38321.11
