@RELATION gaze_labels

%@METADATA width_px 1920
%@METADATA height_px 1080
%@METADATA width_mm 540.00
%@METADATA height_mm 254.00
%@METADATA distance_mm 620.00


@ATTRIBUTE time INTEGER
@ATTRIBUTE x NUMERIC
@ATTRIBUTE y NUMERIC
@ATTRIBUTE confidence NUMERIC
@ATTRIBUTE handlabeller1 INTEGER
@ATTRIBUTE handlabeller2 INTEGER
@ATTRIBUTE handlabeller_final INTEGER
@ATTRIBUTE speed_1 numeric
@ATTRIBUTE direction_1 numeric
@ATTRIBUTE acceleration_1 numeric
@ATTRIBUTE speed_2 numeric
@ATTRIBUTE direction_2 numeric
@ATTRIBUTE acceleration_2 numeric
@ATTRIBUTE speed_4 numeric
@ATTRIBUTE direction_4 numeric
@ATTRIBUTE acceleration_4 numeric
@ATTRIBUTE speed_8 numeric
@ATTRIBUTE direction_8 numeric
@ATTRIBUTE acceleration_8 numeric
@ATTRIBUTE speed_16 numeric
@ATTRIBUTE direction_16 numeric
@ATTRIBUTE acceleration_16 numeric

%The number after speed, direction denotes the step size that was used for the calculation.
%Acceleration was calculated between two adjacent samples of the already low pass filtered velocity

@DATA
0,223.09,646.29,1.00,1,1,1,0.00,0.00,0.00,1127.20,0.25,0.00,649.24,-0.28,0.00,173.53,-0.72,0.00,543.79,-0.21,0.00
30300,256.20,654.67,1.00,1,1,1,1127.20,0.25,37201.30,649.24,-0.28,21510.91,1685.53,-0.17,34394.03,1006.95,-0.56,27596.08,102.99,-2.42,20147.76
44600,250.95,638.40,1.00,1,1,1,1195.77,-1.88,142155.65,1685.53,-0.17,72876.87,173.53,-0.72,107741.75,289.49,2.64,90627.34,1299.26,-0.16,95582.22
59200,304.20,646.41,1.00,1,1,1,3688.54,0.15,298249.58,621.06,-3.11,157334.96,1006.95,-0.56,57271.31,190.74,-2.33,20762.07,2095.64,-0.13,54691.05
74000,232.70,637.77,1.00,1,1,1,4866.32,-3.02,577971.19,765.73,-1.28,74354.74,289.49,2.64,87565.61,543.79,-0.21,44797.26,3321.34,-0.12,82830.98
96100,312.24,619.32,1.00,1,1,1,3694.37,-0.23,381616.56,268.94,1.43,45981.81,190.74,-2.33,13716.12,102.99,-2.42,27623.41,2966.72,-0.03,20274.98
110800,234.12,647.57,1.00,1,1,1,5650.57,2.79,634634.66,836.30,2.32,47628.24,989.10,-0.12,75764.56,1299.26,-0.16,92981.34,3402.53,-0.06,30387.58
125400,295.52,637.24,1.00,1,1,1,4264.59,-0.17,676415.33,2256.43,-0.27,205525.60,968.21,2.77,133000.10,2095.64,-0.13,54691.05,2972.06,-0.02,31178.49
139900,297.44,630.18,1.00,2,2,2,504.72,-1.31,281328.72,1135.09,2.99,233574.15,2583.97,-0.19,244218.72,3321.34,-0.12,84544.73,1617.00,-0.11,94631.80
170100,245.40,645.15,1.00,3,3,3,1792.91,2.86,69518.24,2772.61,-0.16,129393.97,3897.99,-0.09,44701.85,2966.72,-0.03,14836.99,1783.26,-0.16,6206.53
191900,439.84,607.63,1.00,1,1,1,9083.67,-0.19,498651.45,10059.48,-0.10,334519.27,5209.49,-0.12,60366.51,3402.53,-0.06,20490.71,1901.47,-0.13,6174.52
206600,610.64,607.48,1.00,1,1,1,11618.82,-0.00,217425.58,9525.21,-0.10,36465.12,7339.34,-0.08,145780.01,2972.06,-0.02,30966.39,1613.39,-0.02,23384.25
221300,718.53,580.13,1.00,1,1,1,7571.62,-0.25,317145.66,3964.28,-0.01,380173.03,4587.06,0.04,193071.60,2637.98,-0.09,27264.79,2413.56,-0.11,55561.55
235900,726.79,606.55,1.00,1,1,1,1895.58,1.27,527667.76,1341.94,1.82,307890.18,1886.29,0.19,187354.52,3741.69,-0.14,76293.39,2927.00,0.01,41289.72
250600,708.89,618.25,1.00,1,1,1,1454.67,2.56,139502.89,677.43,1.32,55387.18,549.09,2.76,161088.32,2612.35,-0.11,77108.16,2918.59,-0.09,19813.35
272600,732.96,630.63,1.00,1,1,1,1230.26,0.48,105601.74,936.78,-2.34,70951.96,486.51,-1.33,41830.03,1141.33,0.18,70605.30,2649.37,-0.11,12598.64
287400,684.82,593.58,1.00,1,1,1,4104.85,-2.49,359434.85,1878.32,-1.55,94316.60,1094.84,-0.70,51315.14,1461.40,-0.08,30961.10,2640.54,-0.11,963.22
302100,734.33,575.24,1.00,1,1,1,3592.16,-0.35,458473.49,2799.25,-0.27,195932.98,478.95,0.15,58392.88,2894.94,0.06,99241.33,3014.51,-0.09,25614.83
316900,764.37,571.45,1.00,2,2,2,2045.83,-0.13,112570.08,1554.23,1.06,193664.64,3233.33,-0.12,187491.93,2504.18,-0.12,40784.29,2307.57,-0.02,49324.55
346800,768.10,635.96,1.00,2,2,2,2161.01,1.51,102837.06,3551.45,-0.04,106196.57,5170.42,0.13,73308.49,2371.09,-0.22,9844.22,1626.59,-0.06,22909.31
361600,922.98,564.64,1.00,3,3,3,11521.11,-0.43,842816.38,10337.67,-0.01,458682.76,3625.31,0.00,111140.21,2643.30,-0.12,25696.68,1245.41,0.03,27152.10
384300,1155.72,630.59,1.00,1,1,1,10656.81,0.28,340410.11,3694.67,0.04,292960.14,4137.68,-0.26,49928.90,2407.11,-0.02,14811.47,1655.01,-0.03,18425.76
413100,1113.13,571.53,1.00,1,1,1,2528.51,-2.20,442222.93,2376.72,-2.24,192206.28,2102.85,-0.11,72317.51,2088.90,0.07,12964.71,1721.65,-0.05,2631.41
427800,1091.85,549.29,1.00,1,1,1,2093.48,-2.33,36687.60,1122.91,-2.25,85310.97,1079.47,-2.21,190890.06,2136.04,-0.18,35313.55,1396.86,-0.08,22331.84
442600,1092.26,545.80,1.00,1,1,1,237.82,-1.45,131808.99,818.35,0.82,131080.92,367.40,2.01,87545.13,1057.10,0.17,81019.11,1481.93,0.03,12296.45
457600,1108.55,567.07,1.00,1,1,1,1785.83,0.92,130893.74,1333.97,1.35,50398.67,515.67,2.03,9909.06,430.67,-0.68,55973.16,793.50,0.09,46116.39
479300,1102.89,593.59,1.00,1,1,1,1249.75,1.78,62709.72,947.01,2.76,69418.06,728.64,1.92,10300.53,740.97,0.24,27227.39,320.18,0.45,23311.08
493700,1076.81,579.77,1.00,1,1,1,2049.67,-2.65,185875.88,931.23,-3.04,31084.43,1478.52,0.27,118014.41,484.10,0.86,31205.72,158.61,-0.86,22127.41
508400,1075.93,590.87,1.00,1,1,1,757.94,1.65,166747.20,4269.01,0.10,353757.79,1706.61,-0.00,33029.15,480.71,1.27,13258.25,216.42,-3.10,23041.64
523200,1202.07,592.77,1.00,1,1,1,8524.35,0.02,581511.74,4296.09,0.02,24369.43,894.66,0.31,60775.56,938.35,2.92,73451.27,1269.82,-3.01,71248.21
538000,1203.07,593.35,1.00,1,1,1,77.59,0.52,571396.57,1853.38,3.06,415098.37,577.56,0.42,22084.61,1794.63,3.06,59200.12,1080.63,3.04,22361.16
560300,1133.51,598.06,1.00,2,2,2,3126.04,3.07,143082.57,2497.67,3.00,29607.64,2793.14,3.12,149062.18,1990.35,3.06,8778.59,926.11,2.99,7305.62
575200,1111.12,606.69,1.00,2,2,2,1610.94,2.77,111197.03,3576.56,-3.14,78183.27,4307.62,3.08,101995.38,1476.10,-3.01,42011.07,1064.56,2.97,9383.61
605000,973.64,597.57,1.00,1,1,1,4623.28,-3.08,108498.61,5831.30,3.12,75796.87,4536.91,3.13,10441.51,2757.09,-3.12,43621.85,1206.07,2.98,4785.28
619700,851.71,613.54,1.00,1,1,1,8365.37,3.01,267738.05,6002.88,3.12,11836.70,3146.47,-2.97,105775.34,2592.28,3.12,13821.90,1041.98,-3.07,20942.66
634300,797.80,601.36,1.00,1,1,1,3785.76,-2.92,341535.17,1408.74,-1.43,437611.57,2719.61,-3.07,35271.08,2077.98,-3.11,36331.63,929.21,3.09,11534.52
656500,859.20,562.24,1.00,1,1,1,3279.39,-0.57,293908.32,482.73,-1.75,43384.46,509.89,-2.79,100567.53,2069.29,-3.12,960.03,934.45,3.06,1133.13
671000,794.67,583.92,1.00,1,1,1,4694.81,2.82,546014.97,1906.27,2.35,153129.47,700.84,-0.28,79479.58,1477.38,3.02,44320.34,1275.08,3.06,23495.57
685800,820.03,602.05,1.00,1,1,1,2106.28,0.62,416862.19,1623.12,0.09,215568.06,1054.84,2.65,117987.84,471.97,-2.54,78633.40,1453.13,3.13,13627.14
700500,842.34,588.38,1.00,1,1,1,1780.40,-0.55,147213.80,659.75,-3.04,155295.31,666.05,2.32,32271.57,41.69,-1.86,29956.23,1182.72,3.08,18751.73
729900,791.09,599.05,1.00,1,1,1,1780.82,2.94,119338.59,1772.67,2.75,41954.59,464.96,-2.36,28091.21,536.83,2.48,18823.33,751.57,-3.05,15439.68
752100,757.87,623.46,1.00,1,1,1,1856.82,2.51,34989.01,552.35,-1.66,90407.85,489.00,3.00,19187.41,308.13,1.07,25811.06,632.44,2.93,10980.59
781900,788.43,570.45,1.00,1,1,1,2053.31,-1.05,128417.66,1070.58,-0.65,30581.24,181.34,1.38,17794.24,415.45,-3.12,21088.12,147.79,-3.06,16537.55
796500,795.85,594.88,1.00,1,1,1,1748.65,1.28,239080.90,1481.84,1.45,151869.47,808.95,0.04,53944.31,446.91,2.71,13299.83,129.97,-0.08,18969.01
811200,793.88,613.53,1.00,1,1,1,1275.49,1.68,51633.06,1284.85,0.96,47044.60,707.89,2.44,96237.21,644.25,-0.14,73511.13,137.56,2.14,16276.14
825900,817.52,625.82,1.00,1,1,1,1812.64,0.48,122102.94,1174.02,-2.84,158367.74,461.29,2.26,18141.11,290.32,0.33,27699.88,116.56,1.00,9394.69
848000,752.66,600.61,1.00,1,1,1,3149.09,-2.77,224204.29,1134.39,-2.96,6809.39,1443.53,-0.30,83571.59,313.99,1.13,10721.73,117.11,-2.52,10388.44
862800,776.32,618.42,1.00,1,1,1,2001.39,0.65,344898.55,4548.74,-0.11,381388.83,358.48,2.68,121489.05,286.47,0.08,20340.24,140.05,3.03,6416.87
877300,885.07,585.42,1.00,1,1,1,7837.19,-0.29,472397.19,923.03,0.73,275736.23,752.59,0.17,73263.02,312.11,-0.36,9222.27,285.85,-0.00,29335.17
892000,796.35,636.46,1.00,1,1,1,6962.73,2.62,1000316.89,1843.15,2.83,166228.24,799.83,-0.32,25681.33,87.39,-1.87,21697.25,160.00,-1.09,17325.53
921600,807.23,610.09,1.00,1,1,1,963.81,-1.18,261759.52,1089.10,-0.74,96877.98,611.01,2.90,47631.36,309.09,-0.46,10385.10,253.24,-0.10,7212.86
943800,837.91,598.31,1.00,1,1,1,1480.32,-0.37,48491.94,875.54,-0.41,17542.20,354.65,-0.92,41182.43,249.80,-0.81,5125.84,144.02,-2.66,17208.05
958500,836.89,597.28,1.00,1,1,1,98.50,-2.35,103581.47,975.54,2.58,125550.85,495.86,-2.08,32562.48,111.11,2.19,24504.69,318.69,-0.35,29170.57
973100,813.72,613.53,1.00,1,1,1,1938.61,2.53,131813.18,1646.73,-2.81,88275.73,646.74,-3.00,36197.06,383.36,-1.88,31379.29,176.41,-0.89,12957.63
987800,791.34,581.36,1.00,1,1,1,2665.86,-2.18,224656.48,832.11,-2.15,75439.92,579.69,0.04,83325.65,513.39,-0.75,33572.58,106.27,0.45,12513.97
1002500,800.31,593.07,1.00,1,1,1,1003.33,0.92,249552.75,2303.05,0.20,200679.78,700.13,-2.41,81985.20,637.14,-2.87,68369.86,86.08,-0.01,3304.79
1025100,875.47,598.75,1.00,1,1,1,3335.16,0.08,122570.23,641.44,-2.69,129586.66,1025.84,-0.26,67564.24,325.61,-0.35,40780.86,389.27,3.02,21015.20
1039400,779.05,582.66,1.00,1,1,1,6835.71,-2.98,710616.43,1363.49,-2.06,64768.56,638.59,-2.75,110518.86,312.69,-0.65,6838.04,190.80,-2.74,16979.85
1054100,857.04,563.76,1.00,1,1,1,5459.01,-0.24,819663.67,638.30,-2.82,68437.98,238.29,-1.32,44105.85,213.83,1.86,34105.60,26.69,0.24,14775.80
1069100,761.06,576.70,1.00,1,1,1,6456.91,3.01,793332.80,652.06,0.67,84712.58,878.41,0.04,57406.74,154.60,1.49,5928.16,223.83,-3.00,16693.03
1098600,879.79,581.77,1.00,1,1,1,4028.61,0.04,354129.50,1740.08,0.10,42120.28,946.81,2.55,58797.65,693.89,3.13,24470.09,182.13,-2.91,1544.98
1120700,850.41,585.53,1.00,1,1,1,1340.39,3.01,242284.01,2004.48,2.82,165701.98,610.16,0.79,55187.79,307.46,2.42,22754.18,43.11,2.05,7991.06
1150300,781.53,614.69,1.00,1,1,1,2526.96,2.74,43514.05,1313.82,2.55,27666.92,1393.29,2.98,61464.91,395.52,2.29,3364.12,184.51,0.61,6220.23
1164900,802.33,618.10,1.00,1,1,1,1443.53,0.16,262069.75,687.12,-2.29,96193.82,1505.42,2.88,12714.57,112.36,0.76,27874.29,136.91,1.38,8811.31
1179700,768.20,599.51,1.00,1,1,1,2625.72,-2.64,271399.57,2009.53,-3.07,107903.95,508.16,-0.08,135642.50,637.71,3.11,48713.29,331.57,2.19,17378.05
1194400,743.18,614.04,1.00,1,1,1,1967.76,2.62,158089.92,1326.85,0.26,225955.25,609.28,-2.34,68819.96,412.37,2.40,28604.39,457.13,0.12,46342.84
1216100,814.85,611.99,1.00,1,1,1,3304.18,-0.03,235954.80,1087.32,-0.67,51115.48,345.52,-0.68,33532.44,398.52,-0.03,35004.35,331.94,2.90,35782.69
1231000,774.27,589.20,1.00,1,1,1,3123.64,-2.63,415762.75,1326.45,-2.39,123172.99,994.72,0.16,54076.79,119.99,1.22,25338.55,216.12,0.71,32899.74
1245800,785.98,585.19,1.00,1,1,1,836.33,-0.33,252240.12,1660.92,0.81,201758.63,302.36,0.05,46954.34,643.14,1.02,35533.18,321.01,3.11,33929.14
1260400,807.99,624.52,1.00,1,1,1,3087.17,1.06,208940.72,1321.89,0.50,38879.76,704.25,0.93,38391.83,1180.54,-0.09,72867.08,315.56,2.27,17762.53
1289900,837.14,613.14,1.00,1,1,1,1060.64,-0.37,105875.37,197.03,1.53,41744.61,1235.84,1.25,20721.40,429.47,-2.73,53261.44,209.44,-0.72,17744.74
1311700,808.44,634.62,1.00,1,1,1,1644.33,2.50,123003.36,1891.71,1.86,78274.83,1370.76,-0.23,80872.41,336.59,0.69,34813.86,159.03,1.28,14257.90
1326900,817.51,680.32,1.00,1,1,1,3065.72,1.37,183136.11,3808.42,-0.32,337155.66,1231.88,-2.83,164887.28,3.90,-2.83,22383.51,185.13,0.41,9700.88
1341500,916.19,598.96,1.00,1,1,1,8759.52,-0.69,723481.41,3754.84,-2.13,407324.59,267.18,-1.43,83170.71,232.59,2.05,15890.16,198.62,0.27,1994.89
1355900,759.83,587.97,1.00,1,1,1,10884.85,-3.07,1268123.38,3679.14,2.95,291565.77,1528.38,-1.90,89936.21,267.34,-1.84,32349.72,97.75,-0.04,7611.06
1370700,810.64,619.01,1.00,1,1,1,4023.12,0.55,984782.00,700.51,-0.12,295817.40,2057.14,2.72,181211.12,196.46,1.31,31337.56,71.42,2.56,11023.73
1392700,785.44,585.01,1.00,1,1,1,1923.71,-2.21,265956.24,1093.48,2.04,72389.48,841.13,-0.19,130984.10,361.46,-1.52,25080.37,11.09,-1.94,3389.85
1407600,792.26,654.93,1.00,1,1,1,4714.72,1.47,432255.49,960.69,-0.23,125211.03,474.39,1.45,66623.54,730.74,2.87,61256.15,72.23,-1.56,4164.72
1436900,826.76,575.23,1.00,1,1,1,2963.82,-1.16,254169.65,435.82,0.36,22097.08,534.44,0.81,10998.24,502.31,0.26,40670.49,573.27,-3.02,19449.04
1466200,816.14,663.98,1.00,1,1,1,3050.38,1.69,203117.26,916.29,1.70,31361.83,276.96,-1.18,23726.47,327.48,-2.84,28313.25,436.55,-2.98,4716.34
1488400,820.72,622.04,1.00,1,1,1,1900.51,-1.46,223010.31,981.07,-1.96,82600.31,419.83,1.08,28527.67,18.75,-1.80,14342.86,575.57,-2.70,8853.99
1503200,802.29,630.42,1.00,1,1,1,1368.25,2.71,192770.00,616.29,-0.42,77232.04,1068.70,-2.34,99775.68,317.24,-1.28,20341.16,896.75,-3.13,30067.21
1533000,845.81,610.80,1.00,2,2,2,1601.90,-0.42,99669.05,1237.79,-2.59,55871.41,728.45,-2.30,11483.00,1025.77,3.04,39689.35,349.26,2.76,19774.50
1547700,755.35,601.60,1.00,3,3,3,6185.07,-3.04,517936.84,2298.25,-2.70,73213.55,367.59,-1.37,40036.79,994.53,-2.79,30759.59,562.07,3.02,16510.28
1562400,784.73,581.91,1.00,1,1,1,2405.64,-0.59,556646.28,1433.70,-0.01,247790.35,2807.99,-3.04,195042.94,1091.62,-3.03,18053.49,410.80,3.01,10294.78
1584600,808.26,601.10,1.00,1,1,1,1367.74,0.68,107908.27,3376.58,3.06,216570.40,1178.46,2.99,76304.29,1118.96,-2.95,4235.38,577.11,-3.01,9392.96
1599100,661.19,591.64,1.00,1,1,1,10163.33,-3.08,779613.70,4457.30,3.05,74648.32,1651.95,2.98,32658.39,1304.27,3.04,27833.86,676.52,3.06,11380.58
1613900,678.24,613.38,1.00,1,1,1,1866.64,0.91,776454.87,316.79,2.22,287118.39,2396.94,-3.12,55925.75,893.89,2.84,31334.94,856.05,-2.88,21418.20
1643300,652.73,602.79,1.00,1,1,1,939.35,-2.75,92670.58,1105.99,-2.79,35921.18,484.73,1.73,80923.74,881.63,2.99,4524.84,1091.62,-3.03,9402.34
1658000,632.37,596.78,1.00,1,1,1,1443.87,-2.85,35337.25,751.13,1.50,106900.15,688.00,2.63,36642.84,1428.16,2.99,37179.03,1118.96,-2.95,6396.29
1680200,654.83,630.43,1.00,1,1,1,1822.18,0.98,138442.35,1193.54,1.63,20764.52,54.52,-0.28,33385.22,273.72,3.14,52165.09,1304.27,3.04,18179.77
1695000,629.67,640.86,1.00,1,1,1,1839.65,2.75,191178.28,965.70,-1.52,145891.88,611.28,2.13,44106.75,720.18,-3.01,30460.52,893.89,2.84,31334.94
1709900,656.22,601.78,1.00,1,1,1,3170.33,-0.97,323163.10,716.13,-2.67,62646.02,847.31,-2.26,79998.26,54.52,-0.28,51699.64,881.63,2.99,8928.20
1724300,611.03,631.23,1.00,1,1,1,3745.59,2.56,470928.84,1182.26,-2.85,34504.80,1114.37,-2.47,23086.93,611.28,2.13,45331.94,1428.16,2.99,37953.59
1739400,622.79,591.83,1.00,1,1,1,2723.06,-1.28,402858.65,1524.46,-2.38,47577.89,1182.26,-2.85,29401.58,847.31,-2.26,78938.68,273.72,3.14,76693.04
1754200,578.13,599.69,1.00,1,1,1,3064.09,2.97,332898.30,3064.09,2.97,168119.21,1524.46,-2.38,48542.31,1114.37,-2.47,22462.96,720.18,-3.01,30460.52
