@RELATION gaze_labels

%@METADATA width_px 1920
%@METADATA height_px 1080
%@METADATA width_mm 540.00
%@METADATA height_mm 254.00
%@METADATA distance_mm 620.00


@ATTRIBUTE time INTEGER
@ATTRIBUTE x NUMERIC
@ATTRIBUTE y NUMERIC
@ATTRIBUTE confidence NUMERIC
@ATTRIBUTE handlabeller1 INTEGER
@ATTRIBUTE handlabeller2 INTEGER
@ATTRIBUTE handlabeller_final INTEGER
@ATTRIBUTE speed_1 numeric
@ATTRIBUTE direction_1 numeric
@ATTRIBUTE acceleration_1 numeric
@ATTRIBUTE speed_2 numeric
@ATTRIBUTE direction_2 numeric
@ATTRIBUTE acceleration_2 numeric
@ATTRIBUTE speed_4 numeric
@ATTRIBUTE direction_4 numeric
@ATTRIBUTE acceleration_4 numeric
@ATTRIBUTE speed_8 numeric
@ATTRIBUTE direction_8 numeric
@ATTRIBUTE acceleration_8 numeric
@ATTRIBUTE speed_16 numeric
@ATTRIBUTE direction_16 numeric
@ATTRIBUTE acceleration_16 numeric

%The number after speed, direction denotes the step size that was used for the calculation.
%Acceleration was calculated between two adjacent samples of the already low pass filtered velocity

@DATA
0,338.48,631.12,1.00,1,1,1,0.00,0.00,0.00,3767.68,-3.11,0.00,2569.47,-3.08,0.00,973.88,3.00,0.00,542.82,2.95,0.00
14700,283.13,629.24,1.00,1,1,1,3767.68,-3.11,256304.64,2569.47,-3.08,81737.28,990.31,-3.03,107538.95,211.66,2.37,55238.36,251.66,2.74,20496.87
29400,263.09,626.39,1.00,1,1,1,1377.09,-3.00,163474.57,990.31,-3.03,107538.95,973.88,3.00,16850.18,594.99,1.81,29299.64,79.63,1.60,15663.79
44000,254.28,626.12,1.00,1,1,1,603.42,-3.11,53432.36,749.81,0.62,115374.72,211.66,2.37,55616.70,323.04,0.32,44860.36,1928.62,0.01,132302.19
59300,281.33,639.42,1.00,1,1,1,1970.30,0.46,165500.31,608.95,0.61,9228.29,594.99,1.81,28150.63,542.82,2.95,54917.02,4079.61,-0.05,141108.92
81400,273.00,639.08,1.00,1,1,1,377.08,-3.10,104985.80,1020.98,2.39,58697.21,323.04,0.32,29636.26,251.66,2.74,13633.66,4356.03,-0.08,13759.46
96200,253.68,665.01,1.00,1,1,1,2184.92,2.21,134898.23,179.66,-0.64,81069.30,230.19,2.81,35514.62,79.63,1.60,15557.95,4316.92,-0.10,4399.84
125700,279.37,634.31,1.00,1,1,1,1357.10,-0.87,120023.67,498.38,-1.10,11731.53,309.07,2.97,3026.40,1928.62,0.01,65478.37,4609.35,-0.05,12363.66
140300,263.68,645.44,1.00,2,2,2,1317.59,2.52,181689.21,1028.22,2.85,97236.12,349.88,-1.25,38811.58,4079.61,-0.05,147874.41,2271.91,-0.06,160114.37
154900,250.62,642.96,1.00,2,2,2,910.56,-2.95,65028.59,198.99,-1.70,73885.45,3930.12,-0.02,262086.40,4356.03,-0.08,20827.67,2336.76,-0.07,4920.48
177200,262.74,638.16,1.00,2,2,2,584.70,-0.38,64524.29,7815.92,-0.05,351335.16,9334.75,-0.06,242654.21,4316.92,-0.10,2920.07,2445.26,-0.04,6037.60
191900,539.50,629.61,1.00,1,1,1,18836.16,-0.03,1244033.73,21068.86,-0.05,901567.01,9518.70,-0.09,20354.97,4609.35,-0.05,24811.43,2356.55,-0.06,7013.61
206600,881.39,607.09,1.00,1,1,1,23307.91,-0.07,308247.55,11676.78,-0.12,643427.55,10085.94,-0.05,45035.04,5243.42,-0.07,43918.60,1995.97,-0.04,24643.00
221300,880.27,588.01,1.00,1,1,1,1299.67,-1.63,1587393.67,935.40,3.14,857580.84,5380.07,-0.07,320265.62,5074.48,-0.09,12797.01,2134.69,-0.09,11584.99
235900,853.98,607.26,1.00,1,1,1,2231.59,2.51,214592.36,1115.79,2.51,44803.04,1162.23,-0.15,289208.70,5053.54,-0.05,11752.72,2131.99,-0.09,877.91
250500,853.98,607.26,1.00,1,1,1,0.00,0.00,152848.38,2813.24,-0.11,261789.02,569.24,-0.10,40709.61,2821.63,-0.11,153586.14,2479.93,-0.12,24443.00
273000,957.69,595.56,1.00,1,1,1,4638.71,-0.11,206165.07,1857.41,-0.35,48727.74,1370.31,-0.06,35630.87,99.18,0.36,121505.61,3347.21,-0.06,39261.24
286800,917.37,584.28,1.00,1,1,1,3034.43,-2.87,546201.77,174.63,0.66,128262.47,968.62,-0.28,34037.72,208.77,-0.22,9977.26,3224.89,-0.06,8872.49
316100,963.65,600.16,1.00,1,1,1,1670.05,0.33,160501.24,261.69,0.16,4684.97,673.21,2.87,56034.96,267.07,0.06,3032.71,3228.26,-0.10,4432.68
330700,928.72,586.07,1.00,1,1,1,2580.25,-2.76,291018.97,1327.74,2.96,107997.87,59.09,-2.43,44009.10,900.89,-0.41,46142.17,2550.94,-0.01,49565.67
367700,896.31,612.79,1.00,2,2,2,1135.18,2.45,61334.52,319.69,-2.80,28725.55,803.35,2.99,20706.33,1730.92,-0.04,25680.40,1149.92,-0.03,37870.30
382500,913.09,580.58,1.00,2,2,2,2453.88,-1.09,238309.34,97.17,-1.16,23024.60,852.47,-0.55,109608.16,1670.67,0.00,5729.83,1248.05,-0.03,6630.81
399300,897.54,609.97,1.00,2,2,2,1979.49,2.06,263889.68,2617.69,-0.39,151701.64,5445.33,-0.08,279849.51,1553.13,-0.25,25173.58,1420.56,-0.02,10273.51
414000,989.21,548.88,1.00,1,1,1,7494.37,-0.59,631501.14,11269.15,-0.07,600360.05,4371.08,0.01,79514.91,2325.74,0.09,68992.75,1012.13,-0.03,27798.52
428600,1226.86,586.13,1.00,1,1,1,16475.94,0.16,827044.50,6583.40,0.18,354755.81,4514.86,-0.23,74472.80,2488.61,-0.05,25853.11,690.05,-0.04,22063.64
443300,1178.83,584.30,1.00,1,1,1,3269.91,-3.10,1341978.71,1591.60,-2.29,537255.87,4442.71,0.24,141863.43,2431.99,-0.01,7559.99,1015.07,-0.00,22209.08
465400,1188.16,542.16,1.00,1,1,1,1952.71,-1.35,185411.58,2766.46,0.35,191449.84,273.13,2.44,208515.87,2768.11,-0.03,15478.66,78.67,1.54,45975.39
480200,1274.86,618.91,1.00,1,1,1,7823.68,0.72,603769.31,2054.16,1.15,135096.84,985.31,-0.08,82278.79,1258.47,0.26,108433.39,1076.76,2.84,71515.37
495100,1213.01,597.88,1.00,1,1,1,4384.39,-2.81,804547.68,996.15,-1.95,204673.63,1506.47,0.52,59662.31,408.07,3.13,111062.85,610.81,2.78,31427.13
524600,1258.67,577.76,1.00,1,1,1,1691.26,-0.42,194745.73,1625.70,-0.01,74249.15,1338.75,-2.93,95285.11,320.96,-0.02,24712.55,397.40,2.73,7288.67
539300,1284.87,597.32,1.00,1,1,1,2224.38,0.64,137868.65,2503.73,2.94,279600.46,587.35,-2.91,51132.75,1693.70,2.80,136105.01,332.84,-3.14,11123.27
561400,1168.47,596.58,1.00,2,2,2,5266.77,-3.14,324876.83,3223.66,-3.06,49617.13,494.11,2.98,10418.65,4279.96,3.04,120883.07,709.74,2.71,19492.61
576100,1166.68,587.08,1.00,2,2,2,657.60,-1.76,352444.27,1997.40,-0.23,351019.69,4828.18,3.06,294968.79,3015.94,2.98,87268.35,1369.96,3.00,48861.68
591100,1226.25,583.13,1.00,2,2,2,3980.27,-0.07,274100.61,6895.96,2.97,592744.69,7610.00,2.99,187946.27,2839.12,3.03,14875.10,1163.31,3.07,14940.71
605900,964.33,622.95,1.00,1,1,1,17900.53,2.99,1477644.19,14121.31,2.98,488277.49,5495.50,2.94,144109.77,3015.65,3.12,20856.85,1104.12,3.02,5754.46
634900,615.87,683.10,1.00,1,1,1,12193.66,2.97,197053.49,4680.77,2.92,325912.51,4477.70,3.03,38389.80,2439.01,3.03,21399.52,1512.26,-3.07,16637.09
657000,730.82,674.73,1.00,1,1,1,5215.02,-0.07,786925.47,3779.95,-0.28,382639.62,1762.46,-3.06,125150.67,2175.93,2.98,12988.96,1329.93,3.12,10119.49
686300,802.43,628.85,1.00,1,1,1,2902.72,-0.57,102447.21,2108.54,-0.78,74018.43,2279.64,-0.25,136122.91,2406.67,3.08,10729.03,1741.52,3.11,14056.53
701100,797.09,609.50,1.00,1,1,1,1356.65,-1.84,190359.79,407.54,2.31,169967.20,649.53,-0.44,111275.84,729.79,-2.85,117709.63,1912.97,3.09,12110.77
715700,794.39,637.73,1.00,1,1,1,1942.71,1.67,222355.91,771.80,1.82,30963.48,217.73,-1.56,40251.15,1274.23,-0.50,127374.40,1556.24,3.07,24556.81
752800,787.07,648.12,1.00,1,1,1,342.60,2.18,44580.89,536.91,-1.27,35265.64,616.04,-0.49,14699.62,599.97,-0.85,19895.46,1216.51,-3.12,9816.27
767500,802.64,611.17,1.00,1,1,1,2727.67,-1.17,208384.07,2803.53,-0.86,157963.97,667.69,-1.52,43193.78,560.83,-2.65,62016.30,1142.78,-3.09,5584.27
782200,841.12,585.90,1.00,1,1,1,3131.90,-0.58,118973.70,956.45,-1.77,159791.61,735.98,-1.45,5744.58,712.23,2.94,30720.06,236.62,-2.30,67363.50
797100,796.94,583.44,1.00,1,1,1,2969.90,-3.09,388956.12,1789.69,2.77,145540.62,1223.59,-2.87,89245.08,640.36,-3.09,12466.06,1274.23,-0.50,90471.37
811600,792.15,605.15,1.00,1,1,1,1532.72,1.79,214846.84,2189.35,3.01,42948.39,2312.72,2.85,98877.94,488.99,-1.66,51675.27,599.97,-0.85,50904.95
826600,732.92,591.98,1.00,1,1,1,4045.09,-2.92,288532.26,2735.48,2.89,41187.54,1640.92,2.67,50241.94,551.78,-0.64,34076.92,560.83,-2.65,60775.98
848600,694.10,630.26,1.00,2,2,2,2477.84,2.36,154953.82,1422.18,2.25,82013.75,338.88,-1.98,77085.30,537.48,-0.25,9525.51,712.23,2.94,20526.59
863300,700.02,632.50,1.00,2,2,2,430.37,0.36,182709.55,2267.56,-0.52,247076.77,1660.31,-0.20,119827.17,1640.92,2.67,147530.31,640.36,-3.09,12635.66
893000,781.23,579.81,1.00,0,0,0,3259.57,-0.58,101853.75,4010.41,-0.39,60316.13,3097.78,-0.28,48771.16,338.88,-1.98,57100.22,488.99,-1.66,25228.67
907700,864.89,565.24,1.00,0,0,0,5776.50,-0.17,208037.99,4527.20,-0.09,91746.59,4010.41,-0.39,67326.23,1660.31,-0.20,119827.17,551.78,-0.64,34772.37
922500,914.20,567.29,1.00,0,0,0,3334.53,0.04,176726.17,3334.53,0.04,88063.55,4527.20,-0.09,91126.68,3097.78,-0.28,97871.86,537.48,-0.25,14159.54
