@RELATION gaze_labels

%@METADATA width_px 1920
%@METADATA height_px 1080
%@METADATA width_mm 540.00
%@METADATA height_mm 254.00
%@METADATA distance_mm 620.00


@ATTRIBUTE time INTEGER
@ATTRIBUTE x NUMERIC
@ATTRIBUTE y NUMERIC
@ATTRIBUTE confidence NUMERIC
@ATTRIBUTE handlabeller1 INTEGER
@ATTRIBUTE handlabeller2 INTEGER
@ATTRIBUTE handlabeller_final INTEGER
@ATTRIBUTE speed_1 numeric
@ATTRIBUTE direction_1 numeric
@ATTRIBUTE acceleration_1 numeric
@ATTRIBUTE speed_2 numeric
@ATTRIBUTE direction_2 numeric
@ATTRIBUTE acceleration_2 numeric
@ATTRIBUTE speed_4 numeric
@ATTRIBUTE direction_4 numeric
@ATTRIBUTE acceleration_4 numeric
@ATTRIBUTE speed_8 numeric
@ATTRIBUTE direction_8 numeric
@ATTRIBUTE acceleration_8 numeric
@ATTRIBUTE speed_16 numeric
@ATTRIBUTE direction_16 numeric
@ATTRIBUTE acceleration_16 numeric

%The number after speed, direction denotes the step size that was used for the calculation.
%Acceleration was calculated between two adjacent samples of the already low pass filtered velocity

@DATA
0,281.80,633.02,1.00,1,1,1,0.00,0.00,0.00,1186.21,-2.71,0.00,1627.57,-0.24,0.00,519.39,-0.27,0.00,24.82,-0.70,0.00
14700,265.93,625.78,1.00,1,1,1,1186.21,-2.71,80694.30,1627.57,-0.24,181128.24,330.08,-0.69,91042.27,493.58,2.78,68843.51,147.44,-0.45,8405.72
29400,328.29,621.69,1.00,1,1,1,4250.84,-0.07,362256.49,330.08,-0.69,91042.27,519.39,-0.27,17436.96,258.11,-2.15,34344.19,125.81,-2.82,17227.87
44200,273.44,619.58,1.00,1,1,1,3708.56,-3.10,537073.99,362.76,2.98,45176.90,493.58,2.78,68378.35,220.27,0.87,32260.45,2584.49,-0.09,182438.21
66400,315.04,623.82,1.00,1,1,1,1883.34,0.10,251775.36,1140.86,2.71,35931.35,258.11,-2.15,22741.42,24.82,-0.70,9983.12,2141.66,-0.13,20288.75
81100,235.24,637.26,1.00,1,1,1,5505.00,2.97,499178.11,450.40,-1.47,96772.31,220.27,0.87,32479.91,147.44,-0.45,8405.72,4942.39,-0.05,191309.60
110100,316.93,604.23,1.00,1,1,1,3038.51,-0.38,293010.49,1135.69,-0.08,39486.33,427.35,2.92,19434.82,125.81,-2.82,8732.75,4466.44,-0.07,16770.59
125000,284.93,633.18,1.00,1,1,1,2896.10,2.41,392178.48,1412.51,2.46,163387.90,673.57,-0.39,73634.64,2584.49,-0.09,181213.79,4724.53,-0.07,17356.90
139800,284.45,630.79,1.00,1,1,1,164.69,-1.77,201626.42,455.21,-1.54,118001.96,197.30,2.06,56461.05,2141.66,-0.13,30433.13,2289.56,-0.04,164675.10
161900,285.50,616.39,1.00,2,2,2,653.15,-1.50,22455.93,824.98,-0.52,31787.96,5593.63,-0.13,258401.34,4942.39,-0.05,127251.18,2241.40,-0.05,2363.71
176500,310.75,615.79,1.00,2,2,2,1729.93,-0.02,122543.30,12581.19,-0.08,810801.67,4987.99,-0.13,41519.58,4466.44,-0.07,33311.45,2003.57,-0.07,16650.55
191100,651.56,585.33,1.00,2,2,2,23435.86,-0.09,1486978.72,10248.93,-0.10,160039.18,9650.41,-0.02,323852.53,4724.53,-0.07,17713.55,2384.46,-0.06,26118.54
206000,611.67,586.46,1.00,3,3,3,2678.10,3.11,1752316.27,7774.00,0.05,186787.67,8178.14,-0.09,105866.73,4237.64,-0.04,34298.21,1959.19,-0.07,28564.59
235900,999.47,601.20,1.00,1,1,1,12979.31,0.04,523496.37,7010.88,-0.08,39207.16,4039.05,-0.01,139232.12,4234.86,-0.04,143.19,2176.11,-0.05,7378.07
258300,977.31,558.98,1.00,1,1,1,2129.09,-2.05,632166.63,676.12,-2.32,332714.37,3754.81,0.05,16274.58,4007.59,-0.06,11141.30,2700.01,-0.06,23411.63
273000,982.34,582.87,1.00,1,1,1,1661.58,1.36,255462.86,1039.72,1.64,107569.63,694.32,-2.98,302437.57,2205.76,-0.04,122669.18,3167.33,-0.13,34313.98
302700,974.28,605.04,1.00,1,1,1,794.12,1.92,36121.14,898.67,2.90,38795.70,648.39,2.75,12430.19,1808.23,-0.02,13442.26,3225.65,-0.07,6253.19
317400,943.58,592.33,1.00,1,1,1,2260.29,-2.75,165176.38,1685.33,-2.55,86193.88,376.96,-0.37,69746.76,715.90,3.13,171708.19,3301.47,-0.05,7016.02
332100,933.15,577.41,1.00,1,1,1,1238.47,-2.18,94362.15,1916.17,-0.30,221361.40,1079.45,-2.80,94303.84,835.96,-0.03,105563.08,3418.12,-0.01,12021.41
354100,1010.84,571.80,1.00,1,1,1,3540.57,-0.07,195841.72,718.29,3.01,119409.22,767.31,2.95,26226.10,1707.86,-0.28,41783.59,1965.93,-0.10,66905.31
369200,906.72,580.80,1.00,2,2,2,6921.26,3.06,692821.38,4056.02,2.89,221503.27,2446.95,-0.14,212796.39,2118.07,-0.15,31376.27,2260.10,-0.08,19842.49
384000,893.45,602.25,1.00,2,2,2,1704.24,2.12,409428.03,6427.61,-0.13,707159.17,3166.61,-0.26,54160.90,2320.16,-0.08,17330.82,1095.01,-0.12,78860.18
398700,1094.62,555.37,1.00,3,3,3,14051.66,-0.23,1040914.54,8052.44,-0.26,126333.12,4652.82,-0.06,114081.49,2810.74,0.06,41546.22,903.10,-0.01,15231.22
428200,1237.44,510.89,1.00,1,1,1,5070.82,-0.30,305150.26,3658.68,0.02,157232.28,4851.92,-0.09,8715.85,1701.91,-0.20,42488.63,825.90,-0.17,5615.16
450300,1283.38,558.22,1.00,1,1,1,2984.75,0.80,207114.16,1961.42,0.85,124749.62,3173.76,0.19,90971.93,2742.26,-0.12,47833.23,1097.36,-0.27,12914.45
465100,1285.20,565.28,1.00,1,1,1,491.96,1.32,173587.90,2663.84,0.62,59618.13,217.90,1.02,204841.80,2746.44,-0.09,4274.36,1076.56,-0.09,12865.77
479900,1347.74,603.78,1.00,1,1,1,4962.55,0.55,312229.84,1972.08,-2.33,311837.64,710.25,-0.55,50197.94,961.64,0.01,121185.80,1180.78,-0.13,7612.70
494600,1244.98,523.24,1.00,1,1,1,8881.92,-2.48,940422.76,1713.85,-1.84,64177.41,638.37,-0.10,20968.91,202.25,1.87,70583.79,1007.69,0.00,15487.30
523900,1328.01,531.00,1.00,1,1,1,2846.30,0.09,388410.03,1919.15,0.38,111060.85,1328.14,-2.70,64968.45,263.80,-1.70,15542.89,1308.63,-0.08,10847.23
546100,1336.65,560.17,1.00,1,1,1,1370.51,1.28,119833.91,2212.72,2.81,174454.14,283.95,2.37,56704.24,115.66,-2.96,11425.16,725.13,-0.05,26339.89
560900,1250.58,557.59,1.00,1,1,1,5818.41,-3.11,431155.11,3719.97,-2.95,142629.65,756.75,-2.95,43160.92,561.92,-2.19,32836.18,266.88,2.76,66299.08
575700,1228.53,539.36,1.00,1,1,1,1933.46,-2.45,300895.75,1552.69,-0.91,313317.57,938.40,3.11,17332.28,559.28,0.53,74068.35,969.76,2.74,47495.30
590300,1278.65,521.60,1.00,1,1,1,3642.31,-0.34,337202.40,1027.05,0.53,119261.15,654.89,-0.56,105421.94,108.56,2.13,39193.14,1130.32,2.95,18414.33
619700,1267.61,562.04,1.00,1,1,1,1426.02,1.84,156703.90,361.70,0.45,22688.26,1124.97,0.32,29598.63,1408.98,2.99,45624.30,993.58,3.07,6402.65
641500,1295.34,529.62,1.00,2,2,2,1956.98,-0.86,151517.96,1240.81,0.18,41166.15,494.08,0.54,29909.50,1475.78,3.02,3385.14,1546.91,3.14,25625.08
670600,1329.77,573.23,1.00,2,2,2,1909.43,0.90,102654.70,652.40,0.61,24117.73,1849.86,2.94,76900.70,1742.65,2.83,13924.42,1220.63,2.96,13810.21
685200,1318.77,545.87,1.00,3,3,3,2019.90,-1.95,266390.26,7110.01,3.05,522062.05,3553.94,2.94,116717.51,2136.52,2.84,27083.03,1220.36,3.04,6393.74
699900,1122.28,591.87,1.00,1,1,1,13727.53,2.91,923022.22,8302.02,3.01,84524.89,5601.12,3.00,140394.86,1923.43,3.06,32765.93,1374.98,3.05,10547.31
722200,1014.39,587.28,1.00,1,1,1,4842.40,-3.10,410624.40,4431.33,2.93,174838.54,5674.33,2.94,15734.98,3014.29,2.96,50105.27,1237.54,3.01,6587.31
737100,961.14,626.62,1.00,1,1,1,4443.45,2.51,208994.74,2519.98,2.65,142957.90,2045.13,-3.10,250174.34,3571.65,3.11,50061.51,1003.45,3.00,15745.27
751800,948.75,622.70,1.00,1,1,1,884.55,-2.83,271334.99,1652.01,-1.01,274708.42,2276.15,3.00,32145.97,2486.75,3.08,74047.88,1057.21,2.95,4750.29
766300,986.63,585.67,1.00,1,1,1,3653.43,-0.77,285788.80,2351.36,-2.91,225736.12,1484.09,-2.68,93238.58,1344.13,3.11,78899.09,1217.82,3.10,16075.35
781000,881.97,606.71,1.00,1,1,1,7261.80,2.94,715392.17,3518.82,3.12,94028.51,670.51,-1.48,94440.91,962.57,3.00,27352.05,1247.28,3.06,3950.52
795700,883.20,588.04,1.00,1,1,1,1272.73,-1.51,523318.93,1573.32,-0.49,338488.98,784.63,2.94,79363.99,384.08,-2.19,58313.34,1459.98,3.13,15909.22
832400,953.44,568.86,1.00,1,1,1,1983.87,-0.27,53867.44,823.60,0.24,30083.46,8.74,-2.82,21172.66,279.95,-1.33,7969.12,1458.72,3.04,3712.06
847200,924.39,598.16,1.00,1,1,1,2787.60,2.35,311745.71,2757.98,2.66,231068.35,584.81,-0.10,40053.96,521.95,-3.02,41915.10,487.46,-2.90,68511.05
861900,881.30,606.49,1.00,1,1,1,2985.60,2.95,116553.26,552.83,-1.21,217124.13,223.73,1.22,39004.86,510.56,-0.70,64356.46,97.17,-2.74,26648.67
876300,930.08,583.11,1.00,1,1,1,3756.28,-0.45,464406.58,2200.60,-0.30,132815.57,392.81,-2.13,42590.01,344.50,-0.23,17856.62,384.08,-2.19,21220.06
898600,958.50,582.77,1.00,1,1,1,1274.76,-0.01,119072.08,561.45,-2.80,119875.19,1142.03,-0.69,51939.98,273.34,2.61,27391.51,279.95,-1.33,13115.09
913100,910.59,576.26,1.00,1,1,1,3335.15,-3.01,317239.57,1061.91,-2.24,45583.93,105.37,-1.21,72546.69,489.36,-0.61,52563.77,521.95,-3.02,42782.31
927900,939.27,558.32,1.00,1,1,1,2286.41,-0.56,358002.38,741.20,0.01,110330.19,590.90,3.04,43526.80,760.56,-0.27,22952.50,510.56,-0.70,63921.62
942700,932.52,576.55,1.00,1,1,1,1313.94,1.93,231222.94,1083.47,2.07,106298.62,930.26,-0.26,102468.63,105.37,-1.21,47548.31,344.50,-0.23,17374.01
957200,924.04,586.17,1.00,1,1,1,884.21,2.29,40228.26,1061.50,-0.37,138865.96,653.09,0.35,37501.30,590.90,3.04,44427.35,273.34,2.61,42126.26
993900,983.26,557.07,1.00,1,1,1,1797.80,-0.46,71847.29,1273.13,-0.15,8978.82,1061.50,-0.37,19442.76,930.26,-0.26,41322.50,489.36,-0.61,20767.70
1008600,988.76,576.46,1.00,1,1,1,1371.02,1.29,166581.11,1371.02,1.29,118940.21,1273.13,-0.15,22416.52,653.09,0.35,36991.08,760.56,-0.27,23108.64
