%@metadata width_px 1920.0
%@metadata height_px 1080.0
%@metadata width_mm 540.0
%@metadata height_mm 254.0
%@metadata distance_mm 620.0
% The number after speed, direction denotes the step size that was used for the calculation.
% Acceleration was calculated between two adjacent samples of the already low pass filtered velocity
@RELATION gaze_labels

@ATTRIBUTE time INTEGER
@ATTRIBUTE x NUMERIC
@ATTRIBUTE y NUMERIC
@ATTRIBUTE confidence NUMERIC
@ATTRIBUTE handlabeller_final INTEGER
@ATTRIBUTE EYE_MOVEMENT_TYPE {UNKNOWN, FIX, SACCADE, SP, NOISE, BLINK, NOISE_CLUSTER, PSO}

@DATA
0,235.9,583.49,1.0,1,FIX
15300,219.55,527.24,1.0,1,FIX
29600,226.35,524.67,1.0,1,FIX
44900,236.31,540.19,1.0,1,FIX
58800,236.82,524.32,1.0,1,FIX
73300,243.88,537.19,1.0,1,FIX
94900,237.55,554.41,1.0,1,FIX
109100,228.36,533.45,1.0,1,FIX
123500,232.14,515.64,1.0,1,FIX
137800,229.48,560.65,1.0,1,FIX
159600,245.69,519.32,1.0,1,FIX
173700,236.83,535.38,1.0,1,FIX
201900,243.54,565.06,1.0,1,FIX
223500,226.45,501.93,1.0,1,FIX
252000,228.96,527.86,1.0,1,FIX
266600,234.46,515.5,1.0,1,FIX
281300,213.93,500.93,1.0,1,FIX
302900,230.85,501.8,1.0,1,FIX
317800,222.09,540.15,1.0,2,SACCADE
331900,198.75,512.38,1.0,2,SACCADE
345900,193.87,491.32,1.0,2,SACCADE
368000,246.17,525.45,1.0,3,SP
382100,465.62,532.02,1.0,1,FIX
396800,616.24,536.65,1.0,1,FIX
410500,581.38,508.39,1.0,1,FIX
425500,602.56,546.68,1.0,1,FIX
446500,529.55,498.85,1.0,1,FIX
460500,607.23,507.42,1.0,1,FIX
475300,696.78,508.35,1.0,1,FIX
489400,685.02,498.7,1.0,1,FIX
510600,589.53,500.74,1.0,1,FIX
524900,561.66,471.26,1.0,2,FIX
539200,495.93,484.5,1.0,2,FIX
575200,699.65,508.66,1.0,1,FIX
589200,809.05,488.59,1.0,1,FIX
618900,710.71,453.44,1.0,1,FIX
633700,670.71,509.78,1.0,1,FIX
654900,791.37,489.3,1.0,1,FIX
669300,819.11,455.94,1.0,1,FIX
683300,754.08,461.73,1.0,1,SACCADE
697900,683.47,487.1,1.0,2,SACCADE
719100,705.15,460.71,1.0,2,SACCADE
733300,782.47,509.39,1.0,2,SP
747700,1180.92,513.58,1.0,3,FIX
762100,1180.92,513.58,1.0,1,FIX
783300,1273.07,496.16,1.0,1,FIX
798200,1323.08,528.11,1.0,1,FIX
812300,1247.29,508.36,1.0,1,FIX
826400,1276.81,516.84,1.0,1,FIX
848100,1310.58,502.26,1.0,1,FIX
862400,1222.24,556.3,1.0,1,FIX
876600,1205.28,506.35,1.0,1,FIX
890700,1205.28,506.35,1.0,1,FIX
912000,1304.92,497.5,1.0,4,FIX
940700,1276.1,510.78,1.0,4,NOISE
954800,1308.45,476.17,1.0,4,NOISE
970400,1299.19,489.29,1.0,4,NOISE
1006000,1246.53,562.46,1.0,4,NOISE
1020400,825.52,875.57,1.0,4,NOISE
1034900,661.54,1322.75,1.0,4,NOISE
1049600,766.52,1281.28,1.0,4,NOISE
1070700,641.94,1177.0,1.0,4,NOISE
1084800,651.99,1094.03,1.0,4,NOISE
1098900,958.16,830.19,1.0,4,NOISE
1119800,1112.0,701.46,1.0,4,NOISE
1134000,1246.42,670.83,1.0,4,NOISE
1148300,1356.66,686.42,1.0,4,FIX
1162400,1383.4,654.28,1.0,1,FIX
1177600,1336.05,677.58,1.0,1,FIX
1198900,1399.94,600.17,1.0,1,FIX
1213200,1407.73,610.18,1.0,1,FIX
1227800,1388.44,580.41,1.0,1,FIX
1241700,1406.64,562.09,1.0,1,FIX
1263700,1397.15,530.13,1.0,1,FIX
1278000,1475.22,576.51,1.0,1,FIX
1292000,1402.6,541.19,1.0,1,FIX
1327700,1429.4,549.91,1.0,1,FIX
1341800,1364.59,516.01,1.0,1,FIX
1370300,1410.86,533.4,1.0,1,FIX
1385400,1395.11,514.16,1.0,1,FIX
1408100,1387.34,528.2,1.0,2,SACCADE
1422600,1394.04,521.6,1.0,2,SACCADE
1437100,1386.61,522.0,1.0,2,SACCADE
1451600,1362.66,546.24,1.0,2,SP
1466300,1151.7,463.46,1.0,3,FIX
