%@metadata width_px 1920.0
%@metadata height_px 1080.0
%@metadata width_mm 540.0
%@metadata height_mm 254.0
%@metadata distance_mm 620.0
% The number after speed, direction denotes the step size that was used for the calculation.
% Acceleration was calculated between two adjacent samples of the already low pass filtered velocity
@RELATION gaze_labels

@ATTRIBUTE time INTEGER
@ATTRIBUTE x NUMERIC
@ATTRIBUTE y NUMERIC
@ATTRIBUTE confidence NUMERIC
@ATTRIBUTE handlabeller_final INTEGER
@ATTRIBUTE EYE_MOVEMENT_TYPE {UNKNOWN, FIX, SACCADE, SP, NOISE, BLINK, NOISE_CLUSTER, PSO}

@DATA
0,823.4,960.31,1.0,1,FIX
15200,791.86,962.4,1.0,1,FIX
29200,789.82,965.58,1.0,1,FIX
43800,813.36,968.41,1.0,2,FIX
58400,800.89,954.63,1.0,2,FIX
79400,756.45,950.63,1.0,3,FIX
94000,780.48,962.68,1.0,1,FIX
108000,821.99,941.67,1.0,1,FIX
122100,756.15,911.25,1.0,1,FIX
143700,822.56,919.34,1.0,1,FIX
157800,785.17,915.01,1.0,1,FIX
171900,821.62,926.19,1.0,1,FIX
185900,818.01,924.37,1.0,1,FIX
207100,841.97,928.66,1.0,2,SACCADE
221100,805.67,921.0,1.0,2,SACCADE
235600,861.65,900.67,1.0,3,FIX
249900,870.29,900.02,1.0,1,FIX
270900,940.29,887.83,1.0,1,FIX
285300,915.5,889.22,1.0,1,FIX
314000,905.27,892.06,1.0,1,FIX
335100,927.67,889.29,1.0,1,FIX
363700,915.78,895.37,1.0,1,FIX
378600,905.39,893.18,1.0,1,FIX
399900,924.85,893.54,1.0,2,FIX
413900,970.98,895.86,1.0,3,FIX
428000,947.55,892.41,1.0,4,NOISE
442300,976.11,890.68,1.0,4,NOISE
463900,1062.02,871.2,1.0,4,NOISE
478400,1080.56,859.33,1.0,4,NOISE
492700,1217.22,824.38,1.0,4,NOISE
506800,1287.6,775.63,1.0,4,NOISE
528100,1319.14,882.48,1.0,4,NOISE
542000,1384.36,1083.33,1.0,4,NOISE
556100,1218.53,1062.5,1.0,4,NOISE
570400,970.81,776.97,1.0,4,NOISE
592300,1036.47,734.73,1.0,4,NOISE
606900,1217.16,828.85,1.0,4,NOISE
620900,1045.76,796.3,1.0,4,NOISE
635400,1050.77,831.71,1.0,4,FIX
649900,1047.21,853.15,1.0,1,FIX
685800,1033.56,877.63,1.0,1,FIX
699800,1068.78,879.59,1.0,1,FIX
713900,1009.43,876.69,1.0,2,FIX
749400,1027.44,874.93,1.0,3,SACCADE
764000,990.15,876.0,1.0,1,SP
778100,910.24,893.34,1.0,1,FIX
799800,832.17,910.18,1.0,1,FIX
813900,802.34,916.96,1.0,1,FIX
828200,840.7,925.26,1.0,1,FIX
842600,808.92,917.79,1.0,1,FIX
863700,766.77,917.07,1.0,1,FIX
878000,773.74,917.37,1.0,1,FIX
892000,819.85,922.15,1.0,1,FIX
907000,822.6,915.45,1.0,1,FIX
928500,848.56,927.79,1.0,1,FIX
942200,805.18,926.82,1.0,1,FIX
957100,870.97,922.21,1.0,1,FIX
971200,817.17,913.52,1.0,1,FIX
986600,854.94,928.68,1.0,1,FIX
1008100,785.26,914.1,1.0,1,FIX
