%@metadata width_px 1920.0
%@metadata height_px 1080.0
%@metadata width_mm 540.0
%@metadata height_mm 254.0
%@metadata distance_mm 620.0
% The number after speed, direction denotes the step size that was used for the calculation.
% Acceleration was calculated between two adjacent samples of the already low pass filtered velocity
@RELATION gaze_labels

@ATTRIBUTE time INTEGER
@ATTRIBUTE x NUMERIC
@ATTRIBUTE y NUMERIC
@ATTRIBUTE confidence NUMERIC
@ATTRIBUTE handlabeller_final INTEGER
@ATTRIBUTE EYE_MOVEMENT_TYPE {UNKNOWN, FIX, SACCADE, SP, NOISE, BLINK, NOISE_CLUSTER, PSO}

@DATA
0,324.18,326.88,1.0,1,FIX
13900,288.68,339.91,1.0,1,FIX
42400,363.49,337.16,1.0,1,FIX
63700,349.11,344.36,1.0,1,FIX
78200,353.23,338.48,1.0,1,FIX
92500,378.76,457.03,1.0,1,FIX
106400,376.84,350.6,1.0,1,FIX
128100,372.36,350.88,1.0,1,FIX
142100,339.18,331.81,1.0,1,SACCADE
170600,345.37,349.34,1.0,2,SACCADE
192500,329.56,400.57,1.0,2,SACCADE
220600,533.51,380.5,1.0,1,FIX
234700,614.18,397.76,1.0,1,FIX
256200,692.53,413.2,1.0,1,FIX
284500,668.99,414.08,1.0,1,FIX
298500,647.84,355.03,1.0,1,FIX
320200,662.64,410.84,1.0,1,FIX
334700,727.78,406.84,1.0,4,FIX
349500,727.91,379.63,1.0,4,NOISE
363900,760.11,424.2,1.0,4,NOISE
378300,714.26,411.93,1.0,4,NOISE
399600,1043.48,480.4,1.0,4,NOISE
414000,1129.35,730.66,1.0,4,NOISE
442400,972.5,884.74,1.0,4,NOISE
464000,679.24,668.99,1.0,4,NOISE
478100,194.11,426.47,1.0,4,NOISE
492500,627.72,704.7,1.0,4,NOISE
506800,1053.67,1143.21,1.0,4,NOISE
528100,1121.24,998.72,1.0,4,NOISE
542700,1195.6,585.07,1.0,4,NOISE
556800,1112.44,569.82,1.0,4,NOISE
571400,1203.09,741.35,1.0,4,NOISE
607700,972.85,474.89,1.0,4,NOISE
621600,762.9,511.94,1.0,4,FIX
649800,632.27,415.6,1.0,1,FIX
671400,698.97,415.53,1.0,1,FIX
686500,643.11,322.87,1.0,1,FIX
701000,638.64,436.59,1.0,1,FIX
715600,632.97,360.31,1.0,1,FIX
730500,607.79,381.37,1.0,1,FIX
752000,686.83,371.25,1.0,1,FIX
766500,634.15,422.03,1.0,1,FIX
794600,616.85,357.15,1.0,1,FIX
810000,581.24,385.6,1.0,1,FIX
831100,661.16,358.67,1.0,1,FIX
845000,588.4,354.37,1.0,1,FIX
859600,622.09,341.51,1.0,1,FIX
873800,665.55,398.16,1.0,1,FIX
895400,660.58,420.67,1.0,1,FIX
910000,682.56,376.69,1.0,1,FIX
938500,659.92,370.19,1.0,1,FIX
973700,624.6,347.73,1.0,1,FIX
987800,555.78,377.47,1.0,1,FIX
1001700,609.54,424.37,1.0,1,FIX
1037600,688.65,427.43,1.0,1,FIX
1051200,588.93,384.05,1.0,1,FIX
1065900,693.54,425.42,1.0,1,FIX
1087400,683.01,394.54,1.0,1,FIX
1101400,633.62,395.96,1.0,1,FIX
1115600,642.71,401.49,1.0,1,FIX
1129700,607.43,351.18,1.0,2,FIX
1151400,592.23,398.39,1.0,2,FIX
1165300,618.71,330.8,1.0,1,FIX
