%@metadata width_px 1920.0
%@metadata height_px 1080.0
%@metadata width_mm 540.0
%@metadata height_mm 254.0
%@metadata distance_mm 620.0
% The number after speed, direction denotes the step size that was used for the calculation.
% Acceleration was calculated between two adjacent samples of the already low pass filtered velocity
@RELATION gaze_labels

@ATTRIBUTE time INTEGER
@ATTRIBUTE x NUMERIC
@ATTRIBUTE y NUMERIC
@ATTRIBUTE confidence NUMERIC
@ATTRIBUTE handlabeller_final INTEGER
@ATTRIBUTE EYE_MOVEMENT_TYPE {UNKNOWN, FIX, SACCADE, SP, NOISE, BLINK, NOISE_CLUSTER, PSO}

@DATA
0,635.92,849.31,1.0,1,FIX
14500,584.31,880.29,1.0,1,SACCADE
28500,595.73,856.42,1.0,1,FIX
50500,515.22,901.15,1.0,1,FIX
64600,523.46,861.08,1.0,1,FIX
79600,450.55,896.69,1.0,1,FIX
94300,454.27,875.63,1.0,1,FIX
108700,446.03,899.52,1.0,1,FIX
129700,461.29,836.19,1.0,1,FIX
144200,423.06,827.51,1.0,1,FIX
158400,522.08,856.44,1.0,1,FIX
172900,471.45,847.44,1.0,1,FIX
194500,448.45,831.63,1.0,2,SACCADE
208800,465.49,864.68,1.0,2,SACCADE
223300,457.19,842.8,1.0,2,SP
237300,565.85,821.02,1.0,1,FIX
259000,638.21,804.6,1.0,1,FIX
272900,688.5,808.08,1.0,1,FIX
286800,632.38,796.57,1.0,1,FIX
323100,630.82,806.68,1.0,1,FIX
337100,703.75,782.96,1.0,1,FIX
351700,619.19,796.52,1.0,1,FIX
386600,606.98,792.7,1.0,3,SACCADE
401100,566.41,828.76,1.0,1,SP
415200,657.45,780.52,1.0,1,FIX
429500,797.36,775.54,1.0,1,FIX
444600,761.83,759.12,1.0,1,FIX
465900,798.13,741.01,1.0,1,FIX
480000,809.03,734.0,1.0,1,FIX
494200,812.74,751.91,1.0,1,FIX
508500,791.13,757.97,1.0,1,FIX
529600,826.3,743.4,1.0,2,SACCADE
544400,804.89,769.71,1.0,2,SACCADE
558500,877.56,728.88,1.0,2,SACCADE
572600,877.56,728.88,1.0,3,SP
594100,1023.71,743.49,1.0,1,FIX
608700,1063.81,740.8,1.0,1,FIX
637300,1091.75,751.15,1.0,1,FIX
658500,1073.29,738.12,1.0,1,FIX
672900,1072.3,751.31,1.0,1,FIX
701100,1047.71,734.16,1.0,1,FIX
722500,1101.68,738.53,1.0,1,FIX
751000,1087.34,726.48,1.0,1,FIX
765100,1111.3,739.62,1.0,1,FIX
786100,1104.68,730.52,1.0,2,FIX
800100,1121.28,730.99,1.0,2,SACCADE
814300,1138.74,746.56,1.0,2,SACCADE
835800,1085.42,736.72,1.0,3,SACCADE
849500,966.55,755.58,1.0,1,SP
863400,783.66,777.89,1.0,1,FIX
877500,803.27,776.53,1.0,1,FIX
899000,738.79,755.78,1.0,1,FIX
914000,746.01,750.35,1.0,1,FIX
928100,789.89,735.37,1.0,1,FIX
943100,785.22,715.72,1.0,1,FIX
957100,763.23,743.59,1.0,1,FIX
978700,770.96,751.38,1.0,1,FIX
992500,791.35,737.38,1.0,1,FIX
1006500,750.09,731.33,1.0,1,FIX
1021100,753.55,731.56,1.0,1,FIX
1043100,752.3,732.81,1.0,1,FIX
1071800,786.03,740.2,1.0,1,FIX
1085600,836.77,741.85,1.0,1,FIX
1121400,743.16,751.08,1.0,1,FIX
1135900,803.68,760.01,1.0,2,FIX
1150800,752.9,731.36,1.0,3,FIX
1164600,711.98,779.74,1.0,1,FIX
1185400,719.15,743.3,1.0,1,FIX
1199400,694.44,754.67,1.0,1,FIX
1213400,715.54,768.11,1.0,1,FIX
1234700,676.48,748.44,1.0,1,FIX
1248600,726.15,736.81,1.0,1,FIX
1262800,728.34,764.08,1.0,1,FIX
1276900,707.3,711.68,1.0,1,FIX
1298500,716.5,747.26,1.0,1,FIX
1326800,703.16,756.42,1.0,1,FIX
