%@metadata width_px 1920.0
%@metadata height_px 1080.0
%@metadata width_mm 540.0
%@metadata height_mm 254.0
%@metadata distance_mm 620.0
% The number after speed, direction denotes the step size that was used for the calculation.
% Acceleration was calculated between two adjacent samples of the already low pass filtered velocity
@RELATION gaze_labels

@ATTRIBUTE time INTEGER
@ATTRIBUTE x NUMERIC
@ATTRIBUTE y NUMERIC
@ATTRIBUTE confidence NUMERIC
@ATTRIBUTE handlabeller_final INTEGER
@ATTRIBUTE EYE_MOVEMENT_TYPE {UNKNOWN, FIX, SACCADE, SP, NOISE, BLINK, NOISE_CLUSTER, PSO}

@DATA
0,296.57,745.05,1.0,1,FIX
14400,306.13,731.89,1.0,1,FIX
50200,251.36,738.12,1.0,1,FIX
64600,286.48,736.92,1.0,1,FIX
78700,286.5,724.0,1.0,1,FIX
93300,297.23,729.25,1.0,1,FIX
115100,296.32,731.98,1.0,1,FIX
129000,265.06,727.22,1.0,1,FIX
143400,264.9,727.29,1.0,1,FIX
157400,275.79,743.87,1.0,1,FIX
178800,275.9,759.67,1.0,2,SACCADE
192800,255.8,727.41,1.0,3,SACCADE
206900,311.41,720.46,1.0,3,SP
221500,443.42,748.56,1.0,1,FIX
236400,495.19,742.04,1.0,1,FIX
257900,465.77,766.44,1.0,1,FIX
271900,501.43,758.69,1.0,1,FIX
286100,531.16,727.97,1.0,1,FIX
300300,506.37,731.51,1.0,1,FIX
322100,486.46,733.52,1.0,1,FIX
336500,572.42,733.51,1.0,1,FIX
365700,531.47,725.08,1.0,1,FIX
380300,501.9,722.29,1.0,1,SACCADE
416000,517.42,739.04,1.0,2,SACCADE
430800,489.82,727.78,1.0,3,SP
445000,617.56,761.37,1.0,1,FIX
466600,784.58,718.03,1.0,1,FIX
481200,825.45,709.05,1.0,1,FIX
495300,835.99,722.81,1.0,1,FIX
509800,872.82,716.24,1.0,1,FIX
524600,877.17,738.9,1.0,1,FIX
546400,881.78,701.47,1.0,1,FIX
560700,853.67,732.19,1.0,1,FIX
590500,874.45,718.94,1.0,2,SACCADE
605300,816.22,732.27,1.0,2,SACCADE
626400,871.13,739.16,1.0,3,SP
640200,1007.4,759.31,1.0,1,FIX
654700,1115.0,739.92,1.0,1,FIX
668900,1203.45,739.25,1.0,1,FIX
690300,1208.13,751.34,1.0,1,FIX
704400,1297.22,743.76,1.0,1,FIX
733200,1219.61,736.24,1.0,1,FIX
754200,1277.73,734.45,1.0,1,FIX
783000,1180.44,727.41,1.0,1,FIX
796800,1265.76,746.99,1.0,1,FIX
818400,1152.98,728.95,1.0,1,FIX
833300,1195.13,737.77,1.0,1,FIX
847300,1203.56,745.76,1.0,1,FIX
861600,1172.91,723.42,1.0,2,FIX
883000,1174.75,726.62,1.0,2,SACCADE
897800,1249.43,733.45,1.0,3,SACCADE
912000,1116.41,751.43,1.0,3,SP
926400,960.61,737.98,1.0,1,FIX
940700,901.42,739.54,1.0,1,FIX
962100,847.11,725.48,1.0,1,FIX
976100,818.47,745.06,1.0,1,FIX
990100,862.12,732.56,1.0,1,FIX
1004300,848.33,737.54,1.0,1,FIX
1026300,809.58,760.54,1.0,1,FIX
1040700,856.17,727.16,1.0,1,FIX
1055700,800.49,735.07,1.0,1,SACCADE
1069700,867.89,730.05,1.0,2,SACCADE
1105900,772.72,767.92,1.0,3,SP
1120300,740.26,748.16,1.0,1,FIX
1135000,637.2,755.2,1.0,1,FIX
1170000,647.42,756.29,1.0,1,FIX
1183900,627.65,757.94,1.0,1,FIX
1197900,620.72,780.16,1.0,1,FIX
1219100,629.54,772.12,1.0,1,FIX
1233500,627.88,764.95,1.0,1,FIX
1247600,649.43,765.95,1.0,1,FIX
1262000,624.74,745.22,1.0,2,SACCADE
1283200,662.05,751.62,1.0,3,SACCADE
1297500,646.26,763.9,1.0,1,SP
1311300,751.71,751.52,1.0,1,FIX
1326300,743.66,752.49,1.0,1,FIX
1340700,831.85,741.14,1.0,1,FIX
1361800,852.7,762.82,1.0,2,FIX
1376400,812.17,727.95,1.0,2,FIX
1391000,806.67,733.98,1.0,3,FIX
1406000,856.2,736.2,1.0,1,FIX
1420400,859.75,722.22,1.0,1,FIX
1441900,888.51,723.82,1.0,1,FIX
1456300,952.35,728.43,1.0,1,FIX
1484700,942.43,733.98,1.0,2,SACCADE
1506200,969.0,712.16,1.0,2,SACCADE
1535200,886.11,724.97,1.0,3,SP
1549000,643.11,748.49,1.0,1,FIX
1570100,486.1,802.95,1.0,1,FIX
1584800,480.12,804.55,1.0,1,FIX
1598600,501.15,800.54,1.0,1,FIX
1613200,493.36,794.16,1.0,1,FIX
1634600,484.19,790.61,1.0,1,FIX
1648700,513.9,763.17,1.0,1,FIX
1663000,521.8,793.76,1.0,1,FIX
1677300,509.03,787.19,1.0,1,SACCADE
1698700,546.63,784.15,1.0,2,SACCADE
1713100,509.07,773.46,1.0,2,FIX
1741400,669.77,765.47,1.0,1,FIX
