%@metadata width_px 1920.0
%@metadata height_px 1080.0
%@metadata width_mm 540.0
%@metadata height_mm 254.0
%@metadata distance_mm 620.0
% The number after speed, direction denotes the step size that was used for the calculation.
% Acceleration was calculated between two adjacent samples of the already low pass filtered velocity
@RELATION gaze_labels

@ATTRIBUTE time INTEGER
@ATTRIBUTE x NUMERIC
@ATTRIBUTE y NUMERIC
@ATTRIBUTE confidence NUMERIC
@ATTRIBUTE handlabeller_final INTEGER
@ATTRIBUTE EYE_MOVEMENT_TYPE {UNKNOWN, FIX, SACCADE, SP, NOISE, BLINK, NOISE_CLUSTER, PSO}

@DATA
0,346.62,822.7,1.0,1,FIX
14000,313.18,797.69,1.0,1,FIX
28800,259.28,792.44,1.0,1,FIX
50100,275.29,806.3,1.0,1,FIX
64000,306.44,810.09,1.0,1,FIX
78900,275.37,804.15,1.0,1,FIX
92800,331.95,840.36,1.0,1,FIX
107400,282.93,825.55,1.0,1,FIX
128900,311.71,805.06,1.0,1,FIX
143100,316.21,805.63,1.0,1,FIX
157600,317.77,795.17,1.0,1,FIX
171800,317.77,795.17,1.0,2,SACCADE
192800,292.53,791.46,1.0,2,SACCADE
207000,253.34,788.48,1.0,3,SP
242200,582.96,788.51,1.0,1,FIX
256500,617.71,783.86,1.0,1,FIX
285000,632.47,789.57,1.0,1,FIX
299300,588.57,738.35,1.0,1,FIX
320000,567.16,787.9,1.0,1,FIX
334600,666.44,800.58,1.0,1,FIX
348900,613.75,782.9,1.0,1,FIX
363700,620.68,797.14,1.0,1,FIX
385100,546.48,815.26,1.0,2,FIX
400000,664.24,788.02,1.0,2,SACCADE
414100,651.12,755.56,1.0,2,SACCADE
428900,688.3,783.76,1.0,3,SP
450400,842.45,762.42,1.0,1,FIX
464500,894.46,756.2,1.0,1,FIX
479000,912.74,727.48,1.0,1,FIX
493100,980.39,781.23,1.0,1,FIX
507400,952.21,765.08,1.0,1,FIX
528900,987.72,720.16,1.0,1,FIX
543100,991.22,718.5,1.0,1,FIX
557400,956.18,730.28,1.0,1,SACCADE
572400,992.32,734.23,1.0,2,SACCADE
608400,980.07,736.25,1.0,1,SP
622300,1083.32,736.24,1.0,1,FIX
636700,1118.23,736.55,1.0,1,FIX
672200,1158.56,739.12,1.0,1,FIX
687000,1147.0,753.82,1.0,1,FIX
701100,1098.99,763.27,1.0,1,FIX
715400,1134.01,760.43,1.0,2,SACCADE
736100,1134.51,749.65,1.0,2,SACCADE
750200,1105.0,738.34,1.0,3,SACCADE
764300,932.87,817.14,1.0,3,SP
785400,692.24,860.51,1.0,1,FIX
799600,659.72,759.34,1.0,1,FIX
813300,670.34,780.08,1.0,1,FIX
827800,666.44,806.63,1.0,1,FIX
850300,626.33,813.17,1.0,1,FIX
864500,674.78,768.35,1.0,1,FIX
879100,627.19,810.17,1.0,1,FIX
893600,637.83,807.36,1.0,1,FIX
908100,674.59,759.8,1.0,1,FIX
930100,680.45,787.74,1.0,2,SACCADE
943700,655.95,780.13,1.0,2,SACCADE
957800,638.42,799.37,1.0,3,SP
993100,385.52,793.21,1.0,1,FIX
1007000,480.78,810.29,1.0,1,FIX
1036200,392.05,818.86,1.0,1,FIX
1057700,415.86,803.68,1.0,1,FIX
1072400,433.35,829.36,1.0,1,FIX
1087000,459.64,777.37,1.0,1,FIX
1100700,477.07,793.59,1.0,1,FIX
1115300,445.05,786.56,1.0,1,FIX
