%@metadata width_px 1920.0
%@metadata height_px 1080.0
%@metadata width_mm 540.0
%@metadata height_mm 254.0
%@metadata distance_mm 620.0
% The number after speed, direction denotes the step size that was used for the calculation.
% Acceleration was calculated between two adjacent samples of the already low pass filtered velocity
@RELATION gaze_labels

@ATTRIBUTE time INTEGER
@ATTRIBUTE x NUMERIC
@ATTRIBUTE y NUMERIC
@ATTRIBUTE confidence NUMERIC
@ATTRIBUTE handlabeller_final INTEGER
@ATTRIBUTE EYE_MOVEMENT_TYPE {UNKNOWN, FIX, SACCADE, SP, NOISE, BLINK, NOISE_CLUSTER, PSO}

@DATA
0,624.03,755.35,1.0,1,FIX
21800,596.52,782.31,1.0,1,FIX
35800,587.54,766.49,1.0,1,FIX
50300,608.0,757.56,1.0,1,FIX
64500,599.81,735.17,1.0,2,FIX
86100,575.62,737.34,1.0,3,FIX
114500,582.67,781.12,1.0,1,FIX
128800,493.93,791.93,1.0,1,FIX
163900,586.7,773.07,1.0,1,FIX
177900,594.47,775.14,1.0,1,FIX
192000,592.96,741.4,1.0,1,FIX
213400,537.55,802.04,1.0,2,SACCADE
227700,550.65,777.22,1.0,2,SACCADE
241600,524.18,779.17,1.0,3,SACCADE
256100,659.97,769.26,1.0,3,SP
276800,828.8,767.54,1.0,1,FIX
290900,901.63,754.68,1.0,1,FIX
305700,930.63,732.61,1.0,1,FIX
326800,926.04,747.41,1.0,1,FIX
340600,917.92,737.61,1.0,1,FIX
354600,981.45,727.08,1.0,2,SACCADE
369100,880.4,737.58,1.0,2,SACCADE
390900,937.87,724.7,1.0,1,SP
404800,1009.13,732.86,1.0,1,FIX
418700,1089.29,743.27,1.0,1,FIX
432800,1139.88,720.74,1.0,1,FIX
453900,1140.04,715.22,1.0,1,FIX
482100,1183.03,737.41,1.0,1,FIX
496400,1204.34,733.01,1.0,1,FIX
531700,1160.07,739.81,1.0,2,FIX
545800,1164.66,732.0,1.0,2,SACCADE
559900,1166.78,718.69,1.0,3,SACCADE
581900,1211.74,734.77,1.0,1,SP
595800,1313.61,757.69,1.0,1,FIX
609900,1396.58,744.71,1.0,1,FIX
624400,1384.91,751.94,1.0,1,FIX
645500,1338.42,727.46,1.0,1,FIX
