@RELATION gaze_labels

%@METADATA width_px 1920
%@METADATA height_px 1080
%@METADATA width_mm 540.00
%@METADATA height_mm 254.00
%@METADATA distance_mm 620.00


@ATTRIBUTE time INTEGER
@ATTRIBUTE x NUMERIC
@ATTRIBUTE y NUMERIC
@ATTRIBUTE confidence NUMERIC
@ATTRIBUTE handlabeller1 INTEGER
@ATTRIBUTE handlabeller2 INTEGER
@ATTRIBUTE handlabeller_final INTEGER
@ATTRIBUTE speed_1 numeric
@ATTRIBUTE direction_1 numeric
@ATTRIBUTE acceleration_1 numeric
@ATTRIBUTE speed_2 numeric
@ATTRIBUTE direction_2 numeric
@ATTRIBUTE acceleration_2 numeric
@ATTRIBUTE speed_4 numeric
@ATTRIBUTE direction_4 numeric
@ATTRIBUTE acceleration_4 numeric
@ATTRIBUTE speed_8 numeric
@ATTRIBUTE direction_8 numeric
@ATTRIBUTE acceleration_8 numeric
@ATTRIBUTE speed_16 numeric
@ATTRIBUTE direction_16 numeric
@ATTRIBUTE acceleration_16 numeric

%The number after speed, direction denotes the step size that was used for the calculation.
%Acceleration was calculated between two adjacent samples of the already low pass filtered velocity

@DATA
0,760.60,929.71,1.00,4,4,4,0.00,0.00,0.00,886.57,-0.21,0.00,913.94,-1.72,0.00,1791.17,-2.29,0.00,1695.52,-2.31,0.00
21700,779.40,925.61,1.00,4,4,4,886.57,-0.21,40855.57,913.94,-1.72,56666.62,3423.45,-2.35,126406.24,2837.94,-2.40,49706.04,1712.73,-2.33,1792.74
36100,755.77,897.07,1.00,4,4,4,2573.31,-2.26,214076.65,3423.45,-2.35,190487.18,1791.17,-2.29,113952.67,2476.82,-2.42,25399.19,1240.70,-2.27,33309.23
50200,710.51,856.51,1.00,4,4,4,4309.67,-2.41,128036.40,2554.88,-2.43,63420.22,2837.94,-2.40,76497.96,2056.24,-2.41,29922.07,574.38,-1.97,50611.64
86000,659.50,813.48,1.00,4,4,4,1864.15,-2.44,68351.98,2510.08,-2.44,1525.66,2476.82,-2.42,10216.43,1695.52,-2.31,11284.90,425.77,-0.29,20976.71
100500,614.17,774.91,1.00,4,4,4,4104.87,-2.44,154534.27,2386.67,-2.42,9035.96,2056.24,-2.41,29096.63,1712.73,-2.33,2682.93,1026.75,0.32,49649.68
129200,582.04,745.44,1.00,4,4,4,1519.20,-2.40,90151.54,1533.97,-2.35,30054.41,1593.52,-2.34,16667.74,1240.70,-2.27,16712.65,1905.45,0.44,31176.16
143900,567.25,727.68,1.00,4,4,4,1572.05,-2.27,14544.37,697.52,-2.02,61571.10,634.21,-2.02,68919.80,574.38,-1.97,48545.86,2703.24,0.50,55158.33
165600,571.08,722.54,1.00,4,4,4,295.58,-0.93,70507.49,701.90,0.07,55749.56,708.20,0.03,52855.74,425.77,-0.29,34606.73,494.70,-0.06,106007.32
179900,592.45,729.48,1.00,4,4,4,1571.58,0.31,105123.46,2134.64,0.40,104051.86,1773.28,0.39,79627.53,1026.75,0.32,50344.08,381.08,-0.06,7945.79
194800,628.47,746.85,1.00,4,4,4,2683.87,0.45,76941.99,3126.76,0.48,67902.86,2787.98,0.47,69182.19,1905.45,0.44,60050.71,456.06,0.16,7953.02
209600,674.93,772.15,1.00,1,1,1,3574.52,0.50,61060.61,3452.72,0.52,23822.95,2877.53,0.51,9875.04,2703.24,0.50,54785.64,646.74,0.30,13951.02
223900,715.75,796.63,1.00,1,1,1,3328.16,0.54,19922.41,2670.18,0.55,55143.90,3199.15,0.53,22690.20,3009.22,0.53,22310.75,1016.40,0.36,26033.43
244700,754.81,821.17,1.00,1,1,1,2218.06,0.56,53438.71,2989.79,0.54,15462.76,3683.77,0.56,23792.22,2712.67,0.57,14995.40,1282.12,0.37,12806.80
259100,806.14,850.53,1.00,1,1,1,4106.06,0.52,131396.98,4941.04,0.56,135660.67,3197.84,0.58,34076.96,2387.65,0.59,22801.22,1571.09,0.38,20083.39
273000,873.13,895.71,1.00,1,1,1,5812.75,0.59,125492.45,3406.13,0.61,111380.93,2556.62,0.63,47305.79,1977.41,0.58,29532.50,1726.02,0.38,11147.38
295000,906.26,920.73,1.00,1,1,1,1887.37,0.65,178607.77,759.68,0.97,123056.35,1599.51,0.70,44015.61,1760.27,0.51,11369.74,1783.35,0.38,2606.48
309500,888.85,918.55,1.00,1,1,1,1210.41,-3.02,206750.66,725.66,-2.99,94090.37,343.12,0.81,86821.59,1567.92,0.41,17520.09,1716.89,0.37,4756.20
324000,885.47,917.49,1.00,1,1,1,244.21,-2.84,66975.61,222.18,-1.59,49719.82,252.42,-1.02,32779.43,1244.17,0.29,25137.27,1471.77,0.35,17083.89
338800,888.71,912.04,1.00,2,2,2,428.30,-1.03,36465.62,1028.12,-0.31,66676.10,843.48,-0.28,45828.15,844.73,-0.01,33932.66,1309.17,0.32,11394.61
353100,913.92,908.22,1.00,2,2,2,1782.53,-0.15,108142.38,1491.27,-0.17,34822.72,1201.74,-0.26,25090.65,711.02,-0.35,20894.49,1093.24,0.28,15442.07
374900,941.80,903.09,1.00,3,3,3,1300.53,-0.18,22219.65,1344.98,-0.23,7968.03,1480.98,-0.18,13908.86,910.72,-0.28,9519.04,942.65,0.23,7283.06
388800,960.63,897.13,1.00,3,3,3,1421.22,-0.31,14971.04,1468.37,-0.19,10022.40,1180.27,-0.23,22283.42,870.88,-0.26,3231.16,724.04,0.16,16246.87
404000,983.78,895.15,1.00,1,1,1,1528.65,-0.09,22540.52,977.50,-0.23,32472.10,986.94,-0.28,13148.93,896.63,-0.22,2859.06,481.91,-0.06,18087.72
417800,988.23,890.66,1.00,1,1,1,457.77,-0.79,88138.51,521.74,-0.54,36794.65,603.60,-0.25,27832.04,676.31,-0.23,15986.71,392.59,-0.31,10243.77
432600,996.54,887.41,1.00,1,1,1,602.99,-0.37,17658.73,392.03,-0.27,12056.45,418.74,-0.34,12903.70,507.26,-0.25,11448.95,489.12,-0.24,6881.02
469000,1007.56,885.25,1.00,1,1,1,308.43,-0.19,8363.82,371.05,-0.18,1106.14,329.81,-0.24,2677.25,337.05,-0.25,4676.99,545.83,-0.22,1575.74
483000,1014.93,884.01,1.00,1,1,1,533.96,-0.17,16128.95,256.47,-0.17,8190.47,232.26,-0.19,7030.35,186.33,-0.27,10772.88,567.18,-0.19,2071.34
511900,1018.41,883.40,1.00,1,1,1,122.04,-0.17,14253.37,92.39,-0.21,5682.48,67.16,-0.22,5714.30,147.27,-0.17,1472.12,488.97,-0.19,2706.06
533000,1019.45,883.03,1.00,2,2,2,52.34,-0.34,3365.04,156.94,3.02,11804.88,54.78,2.25,5462.58,177.08,-0.07,1582.54,375.48,-0.18,5381.58
548200,1012.75,884.09,1.00,1,1,1,445.97,2.98,32731.22,290.34,2.60,10532.85,124.71,2.70,5185.37,218.74,-0.07,2740.94,263.31,-0.15,7400.96
562100,1012.20,887.37,1.00,1,1,1,239.10,1.74,31191.02,113.66,2.09,14354.07,102.53,0.35,15079.77,236.97,-0.06,1322.40,88.54,-0.30,12682.57
575900,1011.20,886.83,1.00,1,1,1,82.10,-2.65,20043.80,386.17,-0.15,33709.15,408.56,-0.04,22937.55,261.10,-0.04,1814.78,22.49,3.09,8004.61
597300,1025.63,885.31,1.00,1,1,1,678.21,-0.10,34927.14,773.99,-0.14,18124.44,579.07,-0.15,8319.70,220.73,0.03,2043.54,157.95,2.99,6335.85
611800,1038.71,882.93,1.00,1,1,1,916.70,-0.18,16949.40,816.49,-0.15,2965.34,636.30,-0.11,4222.10,177.75,0.07,3012.33,345.66,3.01,12947.26
625900,1048.73,881.85,1.00,1,1,1,714.51,-0.11,14927.37,463.93,-0.06,25316.69,344.68,-0.06,20759.96,32.74,3.09,14913.97,485.95,3.01,9950.27
640300,1051.91,882.16,1.00,1,1,1,222.16,0.10,34664.14,62.75,1.93,34214.95,66.85,2.43,27774.81,230.13,3.00,13717.62,631.26,3.02,10094.55
662100,1047.93,883.97,1.00,1,1,1,200.64,2.71,18729.83,469.31,2.93,20114.48,636.70,3.00,26675.86,585.31,3.02,16297.05,684.72,3.01,2460.51
676200,1035.45,885.74,1.00,2,2,2,894.15,3.00,49927.88,1411.75,3.05,67218.92,1092.44,3.02,32333.69,971.57,3.02,27394.61,714.85,3.02,2157.20
690500,1008.00,887.58,1.00,2,2,2,1923.74,3.07,72310.55,1872.19,3.04,32209.37,1523.54,3.04,30201.67,1287.55,3.02,22096.99,706.49,3.04,1095.15
705000,981.78,890.99,1.00,2,2,2,1823.14,3.01,10589.14,1612.42,3.03,18040.72,1889.43,3.04,25243.70,1522.82,3.03,16246.38,712.20,3.04,397.23
726300,950.66,894.22,1.00,1,1,1,1469.19,3.04,16732.74,1903.42,3.04,13718.03,1942.69,3.03,2663.42,1594.01,3.03,3343.91,727.22,3.03,757.91
740500,914.55,897.75,1.00,1,1,1,2554.78,3.04,76454.37,2359.08,3.04,32093.78,1960.20,3.04,1908.28,1599.58,3.04,681.77,749.89,3.02,1739.88
754700,884.02,901.18,1.00,1,1,1,2163.51,3.03,27660.84,2031.69,3.04,23082.75,1664.71,3.03,20848.10,1313.20,3.04,20172.38,773.16,3.01,1693.49
768700,857.52,903.29,1.00,1,1,1,1898.53,3.06,19509.51,1110.84,3.02,65809.31,1310.21,3.04,25323.45,1127.54,3.04,13283.35,791.05,3.00,1319.91
790300,844.74,905.78,1.00,1,1,1,602.91,2.95,60245.60,748.38,3.02,16784.97,797.74,3.04,23727.14,843.54,3.03,13157.57,809.42,2.99,1004.57
804900,830.65,906.69,1.00,1,1,1,967.44,3.08,25855.08,537.68,3.07,14632.37,512.22,3.05,19558.36,568.21,3.01,18898.37,782.78,2.99,1831.45
833100,821.79,907.40,1.00,1,1,1,315.20,3.06,23130.87,341.98,3.10,6953.52,280.85,3.03,8206.73,352.26,2.96,7695.20,686.67,2.96,3451.30
854900,813.56,907.40,1.00,1,1,1,377.26,-3.14,3117.18,65.99,2.78,12846.49,58.42,2.55,10579.19,223.80,2.84,6096.85,612.48,2.96,3403.43
883700,818.66,908.58,1.00,2,2,2,181.66,0.23,19298.04,300.18,0.18,12444.90,109.85,0.46,5143.84,180.28,2.64,2023.66,536.59,2.94,2659.10
897500,826.14,909.69,1.00,2,2,2,548.21,0.15,26622.46,397.64,0.24,7206.52,142.75,0.66,3045.00,135.25,2.43,4083.58,414.04,2.91,8952.98
911900,829.56,911.21,1.00,2,2,2,259.73,0.42,21249.59,166.47,2.26,34246.03,169.49,1.46,8544.73,113.91,2.00,3919.65,304.91,2.86,7671.50
933300,822.37,914.30,1.00,1,1,1,365.68,2.74,26845.42,356.85,2.45,9158.49,246.79,2.38,9274.34,122.36,2.04,454.93,200.96,2.75,5015.32
947200,819.88,919.27,1.00,1,1,1,399.76,2.04,19001.06,350.42,2.46,564.94,284.53,2.50,3460.35,187.61,2.43,6301.69,148.45,2.65,4002.29
961800,814.62,920.60,1.00,1,1,1,371.74,2.89,22070.44,197.89,2.60,10767.60,294.24,2.67,3436.72,238.68,2.63,4503.62,92.43,2.30,4732.58
976100,814.96,922.19,1.00,1,1,1,114.45,1.36,26951.94,261.59,2.89,6340.22,310.75,2.89,4883.93,252.50,2.70,1530.96,72.36,1.69,3727.99
997300,805.62,922.91,1.00,1,1,1,441.90,3.06,22237.97,411.16,3.00,7267.57,245.23,2.87,3099.62,174.33,2.62,3769.33,87.27,1.02,2570.11
1011800,800.43,924.23,1.00,1,1,1,369.70,2.89,6915.80,225.24,2.85,13210.17,233.22,2.94,1404.47,109.80,2.66,4464.61,91.12,0.98,360.40
1026200,799.39,924.78,1.00,1,1,1,81.60,2.66,20203.84,33.22,1.77,14703.13,57.65,2.37,13013.46,46.47,1.84,5900.90,80.10,1.09,1033.31
1040500,800.24,925.17,1.00,1,1,1,65.67,0.43,9262.51,102.01,0.20,7489.41,109.94,0.24,10413.02,50.89,0.81,3369.44,67.81,1.17,952.16
1061900,802.96,925.51,1.00,1,1,1,127.78,0.13,3175.36,198.56,0.10,4560.59,212.80,0.12,4882.14,162.38,0.22,5759.28,54.79,0.83,1140.97
1076400,807.33,925.89,1.00,1,1,1,303.10,0.09,12102.41,350.76,0.09,10501.60,300.14,0.09,6038.98,244.95,0.12,5869.55,109.80,2.66,9270.05
1090700,813.02,926.37,1.00,1,1,1,399.10,0.08,6713.61,428.13,0.09,5409.98,360.37,0.09,4212.97,281.89,0.09,2639.01,46.47,1.84,5942.17
1104900,819.49,926.94,1.00,1,1,1,457.36,0.09,4105.11,368.16,0.09,4223.69,381.57,0.09,1494.06,280.44,0.06,606.70,50.89,0.81,3393.16
1126200,826.04,927.52,1.00,1,1,1,308.69,0.09,6979.89,344.51,0.08,1112.67,351.00,0.07,1449.03,206.20,-0.01,3565.46,162.38,0.22,5786.32
1140700,831.78,927.98,1.00,1,1,1,397.13,0.08,6105.03,330.19,0.05,1232.23,261.10,0.02,6291.47,381.57,0.09,12225.59,244.95,0.12,5869.55
1155300,835.63,928.03,1.00,1,1,1,264.04,0.01,9226.74,160.14,-0.15,12057.11,85.70,-0.34,12561.20,351.00,0.07,2114.00,281.89,0.09,2584.79
1169400,836.33,927.31,1.00,1,1,1,70.93,-0.81,15728.32,86.22,-2.44,16084.40,160.14,-0.15,5515.06,261.10,0.02,6469.95,280.44,0.06,611.01
1204600,832.38,925.30,1.00,1,1,1,125.90,-2.67,4586.25,125.90,-2.67,1311.69,86.22,-2.44,6442.90,85.70,-0.34,5210.04,206.20,-0.01,2157.51
