@RELATION gaze_labels

%@METADATA width_px 1920
%@METADATA height_px 1080
%@METADATA width_mm 540.00
%@METADATA height_mm 254.00
%@METADATA distance_mm 620.00


@ATTRIBUTE time INTEGER
@ATTRIBUTE x NUMERIC
@ATTRIBUTE y NUMERIC
@ATTRIBUTE confidence NUMERIC
@ATTRIBUTE handlabeller1 INTEGER
@ATTRIBUTE handlabeller2 INTEGER
@ATTRIBUTE handlabeller_final INTEGER
@ATTRIBUTE speed_1 numeric
@ATTRIBUTE direction_1 numeric
@ATTRIBUTE acceleration_1 numeric
@ATTRIBUTE speed_2 numeric
@ATTRIBUTE direction_2 numeric
@ATTRIBUTE acceleration_2 numeric
@ATTRIBUTE speed_4 numeric
@ATTRIBUTE direction_4 numeric
@ATTRIBUTE acceleration_4 numeric
@ATTRIBUTE speed_8 numeric
@ATTRIBUTE direction_8 numeric
@ATTRIBUTE acceleration_8 numeric
@ATTRIBUTE speed_16 numeric
@ATTRIBUTE direction_16 numeric
@ATTRIBUTE acceleration_16 numeric

%The number after speed, direction denotes the step size that was used for the calculation.
%Acceleration was calculated between two adjacent samples of the already low pass filtered velocity

@DATA
0,825.12,957.13,1.00,2,2,2,0.00,0.00,0.00,2941.71,-0.34,0.00,2067.36,-0.38,0.00,819.30,-0.53,0.00,232.92,-1.19,0.00
14500,865.36,942.99,1.00,1,1,1,2941.71,-0.34,202876.76,2067.36,-0.38,60639.16,649.17,-0.66,100335.79,227.99,-2.02,57419.49,221.92,-2.46,18651.56
28900,880.70,935.22,1.00,1,1,1,1194.24,-0.47,122544.56,649.17,-0.66,101032.56,819.30,-0.53,13437.34,518.93,-2.96,29648.85,249.61,-2.67,3853.11
43400,880.22,931.53,1.00,1,1,1,255.99,-1.70,78280.85,299.03,-2.66,56530.03,227.99,-2.02,57419.49,624.93,-3.06,8206.65,154.15,-2.39,7590.31
65100,871.13,930.16,1.00,1,1,1,423.61,-2.99,19817.22,597.71,-3.06,15805.32,518.93,-2.96,19674.81,232.92,-1.19,33545.99,139.24,-1.18,7688.73
79100,858.96,929.73,1.00,1,1,1,870.05,-3.11,32276.66,825.33,-3.10,16431.66,624.93,-3.06,8499.75,221.92,-2.46,19317.69,276.74,-0.64,12363.88
93500,847.71,929.28,1.00,1,1,1,781.86,-3.10,6129.28,658.67,-3.06,11786.74,433.23,-3.02,13376.09,249.61,-2.67,3853.11,424.07,-0.43,11408.02
107900,840.05,928.19,1.00,1,1,1,537.11,-3.00,17597.70,214.64,-2.84,31353.21,248.25,-2.79,13872.19,154.15,-2.39,7643.02,511.21,-0.37,6353.53
143300,837.49,926.13,1.00,1,1,1,92.75,-2.46,12989.86,103.75,-1.47,6183.80,132.74,-1.45,7159.96,139.24,-1.18,4713.15,412.70,-0.53,3525.25
158000,840.55,923.02,1.00,2,2,2,297.15,-0.79,21765.94,474.32,-0.56,28511.89,258.92,-0.57,13743.01,276.74,-0.64,11775.13,274.94,-0.65,9760.40
171800,848.95,918.96,1.00,2,2,2,675.71,-0.45,29591.71,462.81,-0.39,5689.20,573.40,-0.37,23487.98,424.07,-0.43,11904.02,234.69,-0.67,2938.37
207600,861.76,914.22,1.00,3,3,3,381.45,-0.35,8331.01,637.17,-0.29,5132.66,724.99,-0.35,4251.43,511.21,-0.37,2555.61,237.89,-0.59,575.54
221600,879.39,909.99,1.00,1,1,1,1295.04,-0.24,65529.92,1182.77,-0.31,39010.75,755.15,-0.29,3688.30,656.83,-0.32,10617.83,294.79,-0.46,4706.75
236100,893.81,903.78,1.00,1,1,1,1082.87,-0.41,20228.07,918.38,-0.29,18299.50,914.38,-0.28,11001.47,642.58,-0.31,1032.81,377.21,-0.35,6244.11
257600,911.04,900.43,1.00,1,1,1,816.31,-0.19,15539.58,702.19,-0.23,10336.14,759.42,-0.27,7216.58,614.13,-0.30,1384.26,465.91,-0.28,4330.63
271900,918.29,898.07,1.00,1,1,1,533.42,-0.32,20580.28,561.77,-0.22,9830.24,544.26,-0.25,15074.72,617.46,-0.27,1070.33,565.31,-0.23,7212.33
286400,926.83,896.92,1.00,1,1,1,594.30,-0.13,8183.20,347.14,-0.30,14986.63,404.47,-0.31,9841.26,538.43,-0.25,5504.95,747.48,-0.18,12711.31
300500,927.78,895.17,1.00,1,1,1,141.13,-1.07,37095.45,255.05,-0.51,7917.20,320.18,-0.25,6168.85,523.06,-0.16,3533.84,815.30,-0.17,4850.82
315300,933.27,893.33,1.00,1,1,1,390.79,-0.32,20446.15,299.11,-0.21,6357.02,313.67,-0.21,983.62,534.99,-0.12,1563.73,886.96,-0.15,4971.06
336100,938.21,892.99,1.00,1,1,1,238.07,-0.07,8241.61,377.24,-0.04,4603.63,506.01,-0.07,9622.24,647.46,-0.09,5517.72,969.84,-0.13,4111.26
350000,946.35,892.79,1.00,2,2,2,585.72,-0.02,25038.05,767.80,-0.00,28135.87,662.24,-0.02,11401.64,860.14,-0.07,15317.68,953.64,-0.11,1829.40
364800,960.24,892.91,1.00,2,2,2,939.01,0.01,23931.79,999.86,-0.02,15695.57,981.98,-0.03,21609.82,1017.69,-0.08,10651.25,920.13,-0.08,3075.26
379300,975.64,892.34,1.00,3,3,3,1062.51,-0.04,9098.48,1157.01,-0.05,11106.20,1399.12,-0.04,28780.43,1204.17,-0.07,12867.69,777.93,-0.06,9884.05
400000,1000.92,890.95,1.00,1,1,1,1223.28,-0.05,7823.72,1728.18,-0.06,27597.52,1528.60,-0.08,6814.37,1331.35,-0.07,6157.51,665.97,-0.03,5473.84
414900,1037.07,888.92,1.00,1,1,1,2429.63,-0.06,80963.75,1977.82,-0.10,17799.57,1748.91,-0.09,14828.18,1374.65,-0.06,3055.44,487.12,-0.00,12052.52
429200,1058.36,884.96,1.00,1,1,1,1514.76,-0.18,66225.44,1778.14,-0.13,14532.91,1678.33,-0.09,4986.03,1321.07,-0.04,3902.16,355.90,0.05,9323.96
443100,1086.76,882.18,1.00,1,1,1,2052.40,-0.10,40203.63,1431.22,-0.06,26256.26,1350.06,-0.07,23682.55,976.90,-0.03,24803.60,229.07,0.15,9323.15
464500,1108.78,881.75,1.00,1,1,1,1029.49,-0.02,48088.03,1020.07,0.02,19805.99,1114.43,0.01,11846.04,684.11,0.01,13764.20,128.95,0.33,4915.33
478900,1123.27,882.97,1.00,1,1,1,1009.39,0.08,7526.37,738.60,0.18,21695.52,414.96,0.18,49245.60,189.71,0.25,34852.46,55.28,1.73,9095.94
493100,1129.57,885.48,1.00,1,1,1,478.07,0.38,40073.04,114.69,1.82,53228.59,186.13,2.34,38072.98,187.63,2.61,24526.98,176.93,2.78,11078.32
529000,1121.83,888.54,1.00,2,2,2,231.83,2.77,18556.72,635.26,2.93,16500.39,633.50,2.91,13593.45,544.46,2.91,10292.32,307.88,2.92,3752.50
542900,1098.67,892.27,1.00,2,2,2,1687.49,2.98,105170.97,1316.56,3.00,49272.49,985.74,2.99,25699.02,875.17,2.97,24010.44,438.12,2.97,9477.14
571900,1065.90,896.39,1.00,3,3,3,1139.05,3.02,18984.01,1333.11,3.02,851.35,1562.69,3.02,19954.58,1148.17,3.00,9467.66,588.05,3.02,5229.88
593400,1031.88,900.71,1.00,1,1,1,1594.86,3.02,21200.75,1857.45,3.04,24456.76,1598.77,3.04,2086.15,1381.23,3.03,10942.13,667.35,3.03,3695.31
607800,999.55,903.09,1.00,1,1,1,2251.11,3.07,46095.23,2070.98,3.07,15260.57,1892.12,3.04,20374.56,1638.83,3.04,17955.49,740.63,3.04,5134.01
621900,973.02,905.08,1.00,1,1,1,1887.02,3.07,25822.85,1935.19,3.05,10110.42,2071.09,3.06,12870.57,1537.83,3.05,7286.03,777.12,3.05,2703.31
636700,943.88,908.44,1.00,1,1,1,1981.84,3.03,8271.55,2071.37,3.05,9214.25,1731.91,3.06,22919.28,1510.08,3.07,2889.69,750.37,3.07,1921.64
651100,912.79,910.65,1.00,1,1,1,2164.40,3.07,14173.15,1569.03,3.07,35025.31,1465.23,3.07,18545.58,1326.06,3.10,13089.27,691.40,3.07,4101.77
672700,887.53,912.23,1.00,1,1,1,1172.15,3.08,45941.45,985.14,3.10,27079.15,1135.63,3.12,15615.89,1011.39,3.14,14673.72,650.02,3.10,2073.79
687900,876.57,912.08,1.00,1,1,1,720.87,-3.13,30048.54,620.09,-3.00,25682.51,687.97,-3.06,29956.49,663.77,-3.09,23082.42,502.15,3.14,9836.99
702400,869.28,909.70,1.00,1,1,1,528.52,-2.83,18413.04,359.41,-2.66,21144.55,271.21,-2.60,31904.13,290.73,-2.89,26404.05,344.07,-3.07,11130.56
717800,867.04,907.10,1.00,1,1,1,222.79,-2.28,23189.33,246.96,-0.92,30458.46,301.07,-0.69,30286.08,158.06,-0.58,26922.19,169.36,-2.83,11927.81
732200,873.74,903.84,1.00,2,2,2,517.04,-0.45,42571.04,828.75,-0.27,45159.55,594.39,-0.28,23699.42,495.39,-0.26,24202.99,66.35,-1.53,11432.82
746800,890.23,900.77,1.00,2,2,2,1148.88,-0.18,45523.84,932.05,-0.14,10235.29,987.57,-0.12,28116.54,719.55,-0.22,15466.64,140.66,-0.53,8162.82
768100,906.85,899.05,1.00,1,1,1,784.73,-0.10,17478.57,1129.01,-0.04,10619.66,1129.71,-0.10,6736.71,889.64,-0.18,8106.44,246.43,-0.32,5271.26
782200,930.17,899.36,1.00,1,1,1,1653.75,0.01,62341.64,1371.11,-0.07,17444.69,1135.90,-0.11,483.51,961.39,-0.16,5300.80,316.35,-0.22,5333.98
797700,947.34,896.20,1.00,1,1,1,1126.22,-0.18,38104.30,1151.47,-0.19,17122.94,1223.80,-0.13,5877.89,977.85,-0.14,1529.34,372.34,-0.17,3824.99
811800,963.65,892.96,1.00,1,1,1,1179.30,-0.20,3949.54,1079.95,-0.20,5126.13,936.96,-0.19,20939.05,802.12,-0.13,12485.97,342.42,-0.12,2445.74
827000,978.36,889.97,1.00,1,1,1,987.80,-0.20,12601.41,762.05,-0.19,20915.56,826.75,-0.19,7255.25,726.35,-0.12,5012.24,259.64,-0.03,5725.59
848100,990.79,887.60,1.00,1,1,1,599.45,-0.19,18410.50,619.65,-0.17,6792.00,532.81,-0.16,13952.08,455.98,-0.12,12815.85,961.39,-0.16,33396.21
862800,1000.22,886.19,1.00,1,1,1,648.94,-0.15,3766.39,345.05,-0.10,18801.50,360.26,-0.09,11928.32,279.69,-0.03,12199.46,977.85,-0.14,1612.57
892200,1005.92,886.02,1.00,1,1,1,193.99,-0.03,15542.65,157.01,0.17,6744.20,129.24,0.22,8179.26,75.00,0.70,7807.14,802.12,-0.13,5988.17
907000,1007.06,887.34,1.00,1,1,1,117.73,0.86,10145.14,105.73,2.22,15303.12,129.03,2.35,15284.77,233.03,2.66,18293.88,726.35,-0.12,5147.71
942500,1002.69,890.25,1.00,2,2,2,147.88,2.55,5642.56,345.21,2.69,7195.73,461.05,2.73,9692.71,129.24,0.22,9643.80,455.98,-0.12,7617.31
956400,991.70,894.75,1.00,2,2,2,854.40,2.75,51084.28,1119.59,2.81,55947.85,780.27,2.83,23392.92,129.03,2.35,16274.43,279.69,-0.03,12901.59
970800,972.76,900.65,1.00,1,1,1,1377.49,2.84,36898.88,1398.71,2.88,20304.92,1119.59,2.81,23607.86,461.05,2.73,23895.22,75.00,0.70,15939.58
991500,944.32,907.59,1.00,1,1,1,1414.60,2.90,4593.54,1414.60,2.90,1884.53,1398.71,2.88,14125.16,780.27,2.83,15708.29,233.03,2.66,13079.68
