@RELATION gaze_labels

%@METADATA width_px 1920
%@METADATA height_px 1080
%@METADATA width_mm 540.00
%@METADATA height_mm 254.00
%@METADATA distance_mm 620.00


@ATTRIBUTE time INTEGER
@ATTRIBUTE x NUMERIC
@ATTRIBUTE y NUMERIC
@ATTRIBUTE confidence NUMERIC
@ATTRIBUTE handlabeller1 INTEGER
@ATTRIBUTE handlabeller2 INTEGER
@ATTRIBUTE handlabeller_final INTEGER
@ATTRIBUTE speed_1 numeric
@ATTRIBUTE direction_1 numeric
@ATTRIBUTE acceleration_1 numeric
@ATTRIBUTE speed_2 numeric
@ATTRIBUTE direction_2 numeric
@ATTRIBUTE acceleration_2 numeric
@ATTRIBUTE speed_4 numeric
@ATTRIBUTE direction_4 numeric
@ATTRIBUTE acceleration_4 numeric
@ATTRIBUTE speed_8 numeric
@ATTRIBUTE direction_8 numeric
@ATTRIBUTE acceleration_8 numeric
@ATTRIBUTE speed_16 numeric
@ATTRIBUTE direction_16 numeric
@ATTRIBUTE acceleration_16 numeric

%The number after speed, direction denotes the step size that was used for the calculation.
%Acceleration was calculated between two adjacent samples of the already low pass filtered velocity

@DATA
0,699.03,813.78,1.00,4,4,4,0.00,0.00,0.00,11209.99,-2.53,0.00,8541.65,-2.56,0.00,4153.32,-2.64,0.00,744.42,2.92,0.00
14800,562.92,718.91,1.00,4,4,4,11209.99,-2.53,757431.78,8541.65,-2.56,180996.06,3188.07,-2.68,364162.76,1235.07,-3.11,209781.61,1163.19,1.13,102188.36
29500,488.90,674.72,1.00,4,4,4,5864.73,-2.60,365694.29,3188.07,-2.68,366640.06,4153.32,-2.64,66193.58,1360.76,1.24,144969.49,1739.41,0.88,45933.44
51000,459.78,667.13,1.00,2,2,2,1399.45,-2.89,211065.10,812.47,2.80,125104.76,1235.07,-3.11,144407.80,2541.20,0.94,60805.81,2200.46,0.79,23082.45
65100,461.63,684.37,1.00,2,2,2,1229.63,1.46,153569.37,1950.08,1.13,155252.28,1360.76,1.24,151138.40,744.42,2.92,207135.23,2335.64,0.71,16497.06
79200,483.41,716.78,1.00,2,2,2,2769.90,0.98,126023.42,3246.06,0.92,99013.34,2541.20,0.94,92718.08,1163.19,1.13,107261.54,2346.29,0.62,15190.83
93100,516.69,756.68,1.00,1,1,1,3737.69,0.88,73647.36,3049.57,0.85,21801.37,2603.96,0.85,17134.65,1739.41,0.88,48577.09,2057.30,0.52,25666.89
114800,555.34,798.10,1.00,1,1,1,2610.70,0.82,52540.64,2250.76,0.80,37327.57,2722.78,0.79,8901.24,2200.46,0.79,22869.70,1891.57,0.41,12720.57
142900,595.16,836.72,1.00,1,1,1,1974.05,0.77,23015.59,2459.92,0.74,8768.05,2057.67,0.74,24173.89,2335.64,0.71,8277.88,611.31,0.55,45897.12
157900,633.63,869.60,1.00,1,1,1,3373.61,0.71,93930.52,1875.55,0.66,40421.06,2003.69,0.66,10920.49,2346.29,0.62,14279.38,1254.56,0.52,42924.23
193300,669.56,895.03,1.00,1,1,1,1243.54,0.62,60401.80,1626.28,0.55,8902.84,2132.17,0.53,8164.23,2057.30,0.52,10078.24,1581.14,0.50,9269.40
207900,702.77,912.40,1.00,1,1,1,2566.81,0.48,92112.03,2633.02,0.37,73507.91,2071.45,0.38,22540.27,1891.57,0.41,18906.61,1790.64,0.47,14620.01
222700,741.60,923.34,1.00,2,2,2,2726.45,0.27,38480.38,2922.15,0.21,35982.15,2237.60,0.21,27197.78,1822.24,0.27,18308.26,1798.66,0.44,3955.02
236900,785.59,930.31,1.00,2,2,2,3136.44,0.16,37682.38,1970.43,0.03,74117.02,1959.13,0.03,33010.89,1693.66,0.12,20750.36,1682.02,0.40,9493.87
257900,810.94,925.10,1.00,3,3,3,1232.18,-0.20,96658.30,1282.37,-0.32,41927.96,1683.74,-0.16,21102.32,1753.00,0.00,9661.91,1496.67,0.35,9663.91
272000,828.29,916.06,1.00,1,1,1,1387.59,-0.48,27950.70,1448.19,-0.48,18919.16,1476.16,-0.35,25920.20,1650.60,-0.06,10277.40,1396.03,0.28,10264.88
286900,848.28,905.88,1.00,1,1,1,1505.56,-0.47,7967.07,1712.17,-0.38,20292.07,1391.68,-0.34,5915.10,1448.97,-0.11,14409.82,1223.73,0.20,13555.57
301000,874.37,897.56,1.00,1,1,1,1942.05,-0.31,36693.45,1366.82,-0.21,30525.10,1360.82,-0.18,15192.03,1111.70,-0.18,24747.89,1064.95,0.11,13360.73
322000,895.17,895.71,1.00,1,1,1,994.17,-0.09,47407.30,1135.26,0.07,19937.88,1219.36,-0.03,11701.91,929.55,-0.15,8785.44,1042.45,0.01,5041.78
336300,914.36,900.26,1.00,1,1,1,1379.13,0.23,37599.82,1113.35,0.26,15146.48,814.27,0.15,30841.41,863.08,-0.07,6516.48,1000.53,-0.08,7003.68
350700,926.05,903.90,1.00,1,1,1,850.67,0.30,37061.54,443.11,0.41,47117.29,559.90,0.33,19671.20,633.99,-0.00,16311.85,854.38,-0.14,10965.12
365300,926.14,905.38,1.00,1,1,1,101.38,1.51,56173.50,138.39,0.84,22084.92,401.58,0.30,10904.75,463.31,0.09,12157.45,756.31,-0.20,7468.76
386700,929.38,907.60,1.00,1,1,1,183.72,0.60,6783.68,371.94,0.19,12829.15,158.16,0.13,11538.29,402.30,0.04,2987.67,720.74,-0.19,1731.42
400700,939.07,907.88,1.00,1,1,1,692.22,0.03,39080.71,217.00,-0.23,13888.99,203.44,-0.11,4465.10,416.68,-0.15,5779.00,684.62,-0.17,2820.70
428900,938.31,905.56,1.00,1,1,1,86.60,-1.89,25748.91,122.82,-0.79,4639.60,320.71,-0.39,4875.97,394.28,-0.25,1623.29,665.24,-0.14,981.47
450500,943.38,903.54,1.00,2,2,2,252.69,-0.38,12128.37,447.92,-0.48,15415.63,484.32,-0.46,7673.12,479.28,-0.25,3935.10,609.58,-0.11,2706.70
464800,952.56,898.12,1.00,2,2,2,745.78,-0.53,34795.49,1132.30,-0.39,48058.12,621.65,-0.34,10601.75,565.16,-0.24,6019.53,568.13,-0.11,2899.96
478900,973.08,891.22,1.00,3,3,3,1535.28,-0.32,58173.41,750.52,-0.28,28107.98,779.67,-0.29,11449.96,561.60,-0.27,1126.46,487.45,-0.13,5808.86
515000,988.80,887.79,1.00,1,1,1,445.55,-0.21,30291.18,588.66,-0.18,4828.02,773.79,-0.19,2221.69,700.80,-0.24,3884.96,411.56,-0.15,2113.59
529500,1002.39,885.87,1.00,1,1,1,946.38,-0.14,34700.70,808.24,-0.09,15733.76,632.37,-0.15,9882.51,761.65,-0.22,4312.80,331.37,-0.16,5533.16
558100,1023.49,884.64,1.00,1,1,1,739.18,-0.06,7629.37,677.06,-0.13,4711.93,794.15,-0.15,5656.67,724.87,-0.18,1640.36,248.61,-0.19,2909.47
579400,1035.87,881.42,1.00,1,1,1,600.83,-0.25,8927.92,781.45,-0.24,6040.84,747.53,-0.15,2214.70,548.92,-0.12,8453.59,136.82,-0.27,5302.48
593200,1050.16,878.23,1.00,1,1,1,1060.54,-0.22,33374.50,871.60,-0.16,7856.80,653.41,-0.17,6920.18,436.09,-0.05,8585.35,36.41,-0.56,7416.49
607800,1060.30,877.41,1.00,1,1,1,696.93,-0.08,26196.39,503.14,-0.04,25844.56,419.90,-0.04,16664.99,171.16,0.15,18498.32,104.81,-3.13,9372.94
621900,1064.59,877.66,1.00,1,1,1,304.57,0.06,28198.58,108.36,0.89,31692.76,104.12,1.43,29951.39,176.32,2.73,23696.29,255.89,3.01,10844.44
643400,1062.73,880.40,1.00,1,1,1,154.27,2.17,18869.89,424.50,2.65,21267.39,558.57,2.80,25448.79,486.93,2.88,14588.77,431.30,2.97,8184.63
658000,1051.09,884.91,1.00,2,2,2,854.88,2.77,50230.33,1304.93,2.90,61621.03,985.36,2.89,29574.83,816.96,2.93,22721.96,636.10,2.97,14028.22
672000,1026.51,889.43,1.00,2,2,2,1784.80,2.96,68462.70,1708.33,2.96,29632.36,1484.77,2.95,36068.71,1164.43,2.97,24938.57,750.79,2.98,8192.93
686800,1002.68,893.69,1.00,2,2,2,1636.00,2.96,10067.13,1664.65,2.99,4353.79,1642.79,3.00,11815.61,1459.15,2.98,19945.19,903.87,2.99,10389.73
701100,978.63,896.72,1.00,3,3,3,1695.42,3.02,7303.44,1590.54,3.03,6822.46,1784.58,3.02,10311.02,1695.44,2.99,16565.85,903.74,2.99,424.14
721800,947.36,899.92,1.00,1,1,1,1518.26,3.04,8748.83,1886.33,3.04,14346.15,1953.13,3.03,8176.24,1841.67,3.01,7166.13,881.12,2.99,1092.73
735800,913.48,903.06,1.00,1,1,1,2430.60,3.05,65180.59,2404.76,3.03,37096.73,1871.40,3.02,5994.44,1772.98,3.01,4923.52,754.07,2.99,9077.00
749900,880.21,907.44,1.00,1,1,1,2380.00,3.01,7499.53,1857.79,2.99,39149.01,2042.85,3.01,12195.96,1645.03,3.02,9202.25,635.04,2.99,8442.95
770900,848.97,912.59,1.00,1,1,1,1507.57,2.98,41646.90,1752.88,2.99,4995.72,1761.62,3.00,13468.92,1283.41,3.02,17220.47,500.85,3.00,6390.36
784900,819.52,916.45,1.00,1,1,1,2121.46,3.01,44053.91,1643.61,3.00,7838.34,1343.29,3.01,29920.33,947.82,3.03,23982.80,314.29,3.00,13326.56
799500,802.43,919.22,1.00,1,1,1,1185.75,2.98,64174.44,856.69,3.05,54063.15,652.07,3.04,47371.23,387.89,3.05,38356.13,134.54,3.06,12343.61
814300,794.44,918.70,1.00,1,1,1,541.42,-3.08,45198.66,134.45,-0.46,66439.11,124.88,-0.44,52102.40,101.64,-0.30,32961.00,51.98,-0.29,12543.84
835900,806.82,917.05,1.00,1,1,1,578.47,-0.13,51596.39,929.51,-0.17,37099.08,716.00,-0.19,27576.06,555.41,-0.16,21066.35,223.85,-0.13,8000.55
849700,826.84,913.00,1.00,1,1,1,1480.23,-0.20,65499.40,1212.59,-0.17,20515.76,1277.27,-0.15,40763.45,910.90,-0.13,25791.77,430.57,-0.10,14993.70
878900,858.21,908.25,1.00,2,2,2,1086.62,-0.15,13647.20,1559.84,-0.15,11946.16,1545.93,-0.14,9231.45,1186.38,-0.14,9442.59,635.45,-0.09,7018.41
893300,894.13,903.14,1.00,2,2,2,2519.48,-0.14,99509.99,1943.05,-0.12,26842.05,1460.54,-0.11,6472.26,1363.60,-0.13,12354.54,769.32,-0.10,9316.07
915100,928.08,900.07,1.00,3,3,3,1563.34,-0.09,44104.52,1374.93,-0.08,26179.83,1661.68,-0.12,9240.55,1513.04,-0.12,6894.59,898.48,-0.11,5946.05
943100,962.37,897.44,1.00,1,1,1,1228.29,-0.08,11985.72,1422.61,-0.13,2773.64,1443.68,-0.11,7803.07,1544.94,-0.10,1477.68,982.44,-0.12,3003.76
957700,988.19,892.39,1.00,1,1,1,1802.28,-0.19,41082.59,1540.54,-0.15,8333.78,1480.41,-0.10,2792.93,1658.79,-0.09,7935.82,1005.52,-0.12,1595.62
979100,1017.23,889.30,1.00,1,1,1,1364.46,-0.11,21442.73,1550.50,-0.07,5601.62,1666.92,-0.09,8756.89,1410.96,-0.09,11582.05,980.27,-0.11,1250.63
993500,1043.56,888.50,1.00,1,1,1,1829.71,-0.03,33350.87,1831.79,-0.03,20199.57,1657.59,-0.05,4472.14,1245.91,-0.09,11482.70,872.88,-0.10,7497.53
1007900,1069.96,887.93,1.00,1,1,1,1833.90,-0.02,1132.19,1792.94,-0.03,2709.11,1368.51,-0.05,20075.23,1070.37,-0.11,12221.46,729.16,-0.07,10137.29
1022000,1094.64,887.07,1.00,1,1,1,1751.17,-0.03,6092.40,989.58,-0.09,57267.82,960.07,-0.08,29088.51,784.65,-0.08,20315.67,569.28,-0.01,11680.74
1043000,1104.56,884.83,1.00,1,1,1,484.22,-0.22,60884.81,309.60,-0.34,33060.79,469.33,-0.17,23514.05,466.03,-0.04,15216.74,349.35,0.14,10945.19
1057800,1105.08,883.34,1.00,1,1,1,106.72,-1.24,29553.05,179.49,-2.78,31139.58,98.18,-2.64,37157.92,100.88,0.25,25037.92,152.14,0.68,15716.63
1072100,1099.68,882.96,1.00,1,1,1,378.19,-3.07,29294.84,554.61,3.10,27721.68,518.18,3.07,30668.37,278.40,2.84,25747.40,197.10,2.33,18054.43
1086700,1089.06,884.03,1.00,1,1,1,730.96,3.04,24924.89,871.87,2.99,22355.21,759.00,2.97,17071.76,652.59,2.90,25690.41,430.83,2.71,17683.57
1101600,1074.26,886.89,1.00,2,2,2,1011.67,2.95,19553.48,926.53,2.91,5936.49,1018.05,2.90,17853.27,991.65,2.88,22798.76,722.70,2.88,20626.82
1123100,1056.23,891.73,1.00,2,2,2,868.53,2.88,7358.31,1144.96,2.85,10600.99,1239.88,2.85,10709.10,1180.60,2.85,8849.80,100.88,0.25,37783.58
1136800,1035.69,898.55,1.00,2,2,2,1580.00,2.82,52167.59,1655.88,2.80,37587.86,1443.18,2.81,15290.21,1405.86,2.85,16442.79,278.40,2.84,26875.02
1150800,1013.00,907.05,1.00,3,3,3,1730.71,2.78,11649.55,1819.94,2.78,12007.69,1626.92,2.80,13183.43,1638.45,2.88,16820.47,652.59,2.90,26791.43
1164800,988.02,916.58,1.00,1,1,1,1909.19,2.78,12775.42,1604.08,2.80,15549.46,1805.52,2.82,13146.25,1801.06,2.93,13555.58,991.65,2.88,24264.40
1185900,960.01,926.10,1.00,1,1,1,1402.09,2.81,24204.85,1796.61,2.86,10475.99,2044.24,2.90,13034.87,1626.92,2.80,13755.50,1180.60,2.85,9017.57
1199900,927.44,934.07,1.00,1,1,1,2395.48,2.90,71868.77,2613.48,2.97,60837.70,2135.97,3.01,18151.39,1805.52,2.82,13146.25,1405.86,2.85,16090.44
1213900,887.89,938.46,1.00,1,1,1,2842.43,3.03,40051.10,2501.75,3.11,27063.40,2613.48,2.97,34682.28,2044.24,2.90,19645.41,1638.45,2.88,16820.47
1235700,837.91,936.58,1.00,1,1,1,2294.06,-3.10,30528.88,2294.06,-3.10,11938.67,2501.75,3.11,17380.16,2135.97,3.01,11656.85,1801.06,2.93,8705.42
