@RELATION gaze_labels

%@METADATA width_px 1920
%@METADATA height_px 1080
%@METADATA width_mm 540.00
%@METADATA height_mm 254.00
%@METADATA distance_mm 620.00


@ATTRIBUTE time INTEGER
@ATTRIBUTE x NUMERIC
@ATTRIBUTE y NUMERIC
@ATTRIBUTE confidence NUMERIC
@ATTRIBUTE handlabeller1 INTEGER
@ATTRIBUTE handlabeller2 INTEGER
@ATTRIBUTE handlabeller_final INTEGER
@ATTRIBUTE speed_1 numeric
@ATTRIBUTE direction_1 numeric
@ATTRIBUTE acceleration_1 numeric
@ATTRIBUTE speed_2 numeric
@ATTRIBUTE direction_2 numeric
@ATTRIBUTE acceleration_2 numeric
@ATTRIBUTE speed_4 numeric
@ATTRIBUTE direction_4 numeric
@ATTRIBUTE acceleration_4 numeric
@ATTRIBUTE speed_8 numeric
@ATTRIBUTE direction_8 numeric
@ATTRIBUTE acceleration_8 numeric
@ATTRIBUTE speed_16 numeric
@ATTRIBUTE direction_16 numeric
@ATTRIBUTE acceleration_16 numeric

%The number after speed, direction denotes the step size that was used for the calculation.
%Acceleration was calculated between two adjacent samples of the already low pass filtered velocity

@DATA
0,351.31,536.88,1.00,1,1,1,0.00,0.00,0.00,565.85,1.13,0.00,1342.01,1.38,0.00,457.07,-2.95,0.00,72.38,-2.10,0.00
28900,358.22,551.70,1.00,1,1,1,565.85,1.13,19579.54,1342.01,1.38,27889.38,542.32,-2.46,61974.14,382.60,-2.53,6512.94,227.93,-2.64,5881.70
44100,362.28,595.03,1.00,1,1,1,2863.59,1.48,153846.68,542.32,-2.46,117832.42,457.07,-2.95,16895.16,1135.79,-1.98,54868.37,594.81,-1.65,33409.60
79500,336.95,534.36,1.00,1,1,1,1857.28,-1.97,131908.26,1717.58,-2.24,33704.17,382.60,-2.53,5317.06,311.35,-1.23,26353.78,251.82,1.27,23788.66
93500,309.36,528.71,1.00,1,1,1,2011.51,-2.94,129594.46,127.41,-3.13,117111.13,1135.79,-1.98,59571.37,72.38,-2.10,19306.78,192.59,-0.54,25100.74
108400,333.27,534.30,1.00,1,1,1,1647.82,0.23,245568.61,784.76,-0.76,59097.50,311.35,-1.23,62612.34,227.93,-2.64,11408.14,238.44,-1.35,11778.47
123200,326.31,512.71,1.00,1,1,1,1533.15,-1.88,187137.46,598.54,-1.07,19160.68,548.95,-0.05,35009.55,594.81,-1.65,34312.56,115.66,0.35,18788.80
144800,343.72,515.19,1.00,1,1,1,814.61,0.14,93838.48,659.43,0.64,43935.51,65.75,2.80,28342.44,251.82,1.27,38986.97,107.39,2.97,9983.73
159400,345.49,526.91,1.00,1,1,1,811.83,1.42,66509.97,856.54,2.19,73244.34,454.98,-0.11,35564.47,192.59,-0.54,24069.20,57.53,3.04,3435.90
174200,329.19,535.76,1.00,1,1,1,1253.02,2.64,83741.54,699.44,-1.04,105046.30,839.77,1.52,66245.34,238.44,-1.35,11858.05,150.35,-2.38,8189.22
188600,355.87,509.32,1.00,1,1,1,2608.10,-0.78,265773.57,1142.83,1.03,111090.10,319.95,-2.55,73848.42,115.66,0.35,19310.71,1382.46,-0.24,101948.12
203100,346.16,564.09,1.00,1,1,1,3835.94,1.75,424371.45,910.74,2.88,113299.49,516.56,-1.24,36586.59,107.39,2.97,14872.32,1667.99,-0.15,22036.98
218100,329.94,516.38,1.00,1,1,1,3359.73,-1.90,464683.35,1661.27,-1.67,134738.33,270.50,2.64,49293.96,125.69,2.30,5234.51,1470.24,-0.05,17078.05
239600,340.04,503.76,1.00,1,1,1,751.39,-0.90,140584.71,299.85,0.14,81704.50,755.27,-1.89,39432.90,98.17,-1.64,9609.71,1396.41,-0.12,6304.42
253600,340.49,517.84,1.00,2,2,2,1006.00,1.54,117938.10,579.47,2.17,54444.96,348.83,1.34,78792.28,2876.50,-0.02,205925.77,1425.74,0.01,14013.26
268200,330.66,517.43,1.00,2,2,2,673.45,-3.10,85691.66,721.07,1.83,18066.54,347.99,2.12,18020.21,3222.90,-0.22,49099.60,1365.98,-0.01,4810.19
283200,335.10,538.49,1.00,2,2,2,1434.95,1.36,115266.50,167.30,1.96,37052.02,5969.28,-0.04,411177.84,2596.14,-0.01,57846.17,963.46,0.03,27015.90
304300,328.36,523.01,1.00,3,3,3,800.14,-1.98,105427.02,11077.24,-0.09,528698.38,6557.69,-0.11,34876.12,2487.34,-0.05,6688.93,1332.30,-0.04,17823.64
319100,731.20,503.22,1.00,1,1,1,27251.94,-0.05,1861150.31,14793.38,-0.12,252568.97,4682.90,-0.07,127279.79,2502.24,0.00,8614.70,1244.81,0.08,11513.56
333400,755.73,471.32,1.00,1,1,1,2814.03,-0.92,1784573.36,654.97,2.87,1079803.89,4326.55,-0.10,25773.97,2411.19,-0.02,7150.19,1286.52,-0.14,19485.61
362200,704.01,510.79,1.00,1,1,1,2259.17,2.49,174645.14,359.72,2.58,11340.65,181.02,1.05,147775.96,1681.77,-0.01,25331.48,1374.49,0.10,11684.72
398900,735.77,483.84,1.00,1,1,1,1135.08,-0.70,92458.92,713.47,0.20,27387.37,357.65,1.73,6641.95,2332.79,-0.01,17741.77,1780.25,-0.06,13038.83
413100,739.59,518.02,1.00,1,1,1,2422.26,1.46,225188.67,680.69,1.08,41750.07,688.72,2.79,42366.23,201.16,1.50,163967.98,2749.57,0.01,69160.31
442000,749.66,509.68,1.00,1,1,1,452.20,-0.69,93320.16,2030.27,2.98,80962.68,464.26,1.62,22875.15,250.94,2.11,4985.33,3086.95,0.03,11750.18
463600,638.47,534.91,1.00,1,1,1,5278.53,2.92,263221.35,532.81,2.54,72379.20,262.08,1.86,10078.02,423.51,0.78,20308.24,3241.01,0.02,7237.88
478100,733.79,520.56,1.00,1,1,1,6648.19,-0.15,821982.12,3240.88,0.03,254039.64,251.35,-3.08,22061.56,999.57,-0.08,54623.10,3090.04,-0.01,11741.38
493000,733.69,538.11,1.00,2,2,2,1178.40,1.58,465003.71,408.86,-1.61,221211.88,1827.92,0.21,139369.95,3023.10,0.02,136380.52,1713.75,0.04,92702.79
507100,733.32,508.71,1.00,2,2,2,2085.66,-1.58,231484.71,850.05,0.82,84418.25,2363.15,-0.32,87183.13,3998.71,0.06,69826.57,1622.74,0.06,6639.62
528400,754.20,560.14,1.00,2,2,2,2605.92,1.19,216491.67,4186.18,-0.25,180792.67,6859.72,-0.02,218571.21,5540.55,0.03,72707.70,2044.72,-0.04,21376.21
543100,879.39,471.61,1.00,3,3,3,10430.67,-0.62,769584.86,14538.60,-0.08,710118.80,8288.31,0.06,106254.24,4108.70,-0.01,98234.60,1980.52,-0.03,4404.63
557500,1176.02,527.70,1.00,1,1,1,20964.55,0.19,1085526.20,13814.14,0.18,253980.14,9759.83,-0.01,111070.93,4014.72,-0.02,7763.84,1931.77,-0.02,3599.30
571600,1266.95,540.89,1.00,1,1,1,6516.17,0.14,1025321.72,5014.40,0.19,624150.28,6038.77,0.11,272179.49,3978.11,-0.02,3009.36,2062.87,-0.08,12230.81
586000,1316.34,554.82,1.00,1,1,1,3563.49,0.27,209665.57,719.61,-1.66,365305.17,1138.55,-0.03,341319.90,4434.68,-0.13,45648.54,2584.60,-0.06,36392.76
607300,1264.61,515.31,1.00,1,1,1,3056.05,-2.49,305293.01,2092.11,-2.73,87154.73,730.79,-2.03,74559.81,3132.65,-0.01,64481.32,2014.01,0.01,27699.02
621300,1248.62,525.34,1.00,1,1,1,1348.03,2.58,205416.83,867.86,-2.41,92567.85,1068.56,-1.88,25905.13,737.63,-0.24,172819.44,1960.31,-0.14,21666.56
636000,1246.01,498.74,1.00,1,1,1,1818.03,-1.67,183913.17,1969.46,-0.67,155204.54,839.63,-1.57,25402.94,587.06,-1.37,48844.57,2321.75,0.05,36919.84
651400,1294.91,488.30,1.00,1,1,1,3247.25,-0.21,229838.78,1253.90,-1.05,60296.10,437.51,-0.79,39724.85,502.15,-2.02,23153.24,2887.68,-0.03,39002.30
666100,1264.66,465.94,1.00,1,1,1,2559.06,-2.50,360601.44,860.73,2.57,139775.24,747.35,-0.73,21221.75,203.31,2.80,35521.86,2690.51,0.06,21852.33
687200,1268.93,504.87,1.00,1,1,1,1856.38,1.46,192177.44,506.81,0.03,62144.56,158.94,2.27,42884.12,454.58,-1.35,27912.77,1484.31,-0.01,57510.43
701100,1282.39,466.45,1.00,1,1,1,2928.99,-1.23,336172.42,753.39,-0.42,26688.27,975.96,1.96,59426.02,882.64,0.31,73964.23,1322.59,-0.15,18533.58
715500,1288.37,496.11,1.00,1,1,1,2101.28,1.37,337206.41,2441.79,2.20,216487.24,559.55,-1.70,103317.51,1623.33,0.20,52187.30,899.77,-0.21,29697.45
730000,1241.11,523.68,1.00,1,1,1,3773.27,2.61,253627.77,854.67,-2.20,195094.64,1397.86,0.70,127581.21,2371.65,0.13,52537.47,1045.18,-0.09,12676.24
765900,1263.11,461.22,1.00,2,2,2,1844.53,-1.23,148051.07,2516.80,0.11,87904.62,3001.83,0.17,53782.01,2123.63,0.06,8276.96,1064.70,0.01,3002.14
780500,1367.42,537.79,1.00,3,3,3,8862.91,0.63,654978.72,9402.64,0.28,474938.97,4087.49,-0.02,86314.68,2288.70,0.05,11417.33,971.09,0.00,6415.51
794600,1522.50,535.62,1.00,3,3,3,10999.75,-0.01,470376.45,5716.52,-0.07,318551.27,4409.01,0.19,64609.34,1743.18,0.01,39018.39,838.88,0.14,12661.44
830100,1650.22,517.23,1.00,1,1,1,3634.62,-0.14,208735.73,1610.19,-0.14,115811.53,3591.43,-0.19,48080.13,1968.17,-0.11,9101.02,1063.88,0.09,6480.35
843900,1601.12,524.60,1.00,1,1,1,3597.70,2.99,524079.36,1209.50,-1.81,153021.74,744.69,-0.60,211686.23,2086.21,0.22,49727.22,1042.88,-0.06,11342.69
858400,1641.98,484.01,1.00,1,1,1,3972.25,-0.78,496191.61,994.55,-2.38,44878.25,1398.98,-2.81,133618.90,1134.23,-0.24,81441.08,1092.79,0.06,9811.58
880000,1575.10,499.87,1.00,1,1,1,3182.16,2.91,318960.58,2115.22,3.10,73764.83,692.08,3.08,37403.85,125.20,-0.93,48204.42,1018.72,0.11,4218.25
895200,1564.21,487.28,1.00,1,1,1,1094.79,-2.28,187276.40,1139.15,2.18,110906.52,1797.79,3.01,72927.62,608.79,-2.83,43389.95,994.96,-0.13,16440.04
909700,1555.68,527.57,1.00,1,1,1,2839.90,1.78,248851.05,1424.11,2.83,58993.60,807.22,2.67,73741.44,393.84,-2.30,22891.19,1008.60,0.17,21223.99
923800,1525.48,499.90,1.00,1,1,1,2904.39,-2.40,353780.37,818.32,-2.86,61957.32,195.54,0.46,66448.69,358.64,3.09,23100.97,906.78,0.23,8007.46
938200,1533.24,521.20,1.00,1,1,1,1573.95,1.22,302889.86,1420.88,-0.14,152384.49,664.75,-1.30,50548.99,243.31,1.45,31001.47,107.67,1.12,58585.50
959300,1575.43,492.87,1.00,1,1,1,2408.55,-0.59,150585.52,1366.75,-0.80,42704.72,1106.90,-0.19,47769.87,264.14,-3.07,18566.55,1832.19,2.56,86322.68
973500,1566.95,486.68,1.00,1,1,1,738.89,-2.51,193702.74,728.44,-0.31,56397.21,719.67,0.18,35684.42,221.57,-2.43,11047.69,4015.72,2.50,154287.65
988200,1595.49,486.49,1.00,4,4,4,1941.68,-0.01,175072.47,1538.06,1.30,117578.63,713.09,-2.96,97466.70,964.97,0.85,80600.53,4411.63,2.33,53523.40
1002300,1578.64,529.41,1.00,4,4,4,3270.39,1.95,310671.76,1848.91,-3.12,193241.87,611.81,2.55,35989.06,317.24,1.52,52796.62,3764.47,2.51,69310.31
1023400,1530.43,484.83,1.00,4,4,4,3111.85,-2.40,249797.35,1352.78,-2.71,38111.19,1660.73,1.45,70272.76,3314.02,2.42,148152.36,3480.51,2.58,18034.24
1038600,1533.97,509.01,1.00,4,4,4,1607.90,1.43,294624.91,4530.04,0.95,377863.03,837.53,2.50,94409.63,7997.34,2.45,308263.20,2605.81,2.74,64979.01
1052800,1608.08,593.03,1.00,4,4,4,7890.01,0.85,464905.19,1861.32,1.55,223226.95,6152.00,2.33,375208.48,8546.24,2.31,90860.00,1755.63,2.67,60697.24
1067100,1535.27,562.04,1.00,4,4,4,5533.81,-2.74,916251.78,11090.56,2.66,727956.85,15420.24,2.44,652716.72,6844.19,2.54,172793.23,1897.53,2.73,12829.51
1088800,1253.64,776.82,1.00,4,4,4,16321.90,2.49,664241.40,26639.31,2.49,730144.31,15910.89,2.38,48956.71,6372.55,2.56,22757.85,1799.18,2.62,10888.72
1103400,768.83,1151.68,1.00,4,4,4,41974.43,2.48,1757062.83,22564.26,2.22,528597.24,11704.21,2.54,324580.65,4650.64,2.70,128850.20,2034.41,2.62,16112.65
1118600,848.35,1313.37,1.00,4,4,4,11854.48,1.11,2715425.88,1410.62,-1.70,1552050.06,6792.05,2.74,342280.63,3459.82,2.89,92863.05,1643.35,2.68,26808.72
1147200,760.83,1090.41,1.00,4,4,4,8374.72,-1.94,706723.20,6754.69,-1.84,187500.30,3676.84,-1.28,334939.76,3354.39,2.81,10778.42,1539.17,2.90,12814.80
1168300,757.60,990.16,1.00,4,4,4,4753.77,-1.60,199479.19,5805.37,-1.19,195792.32,6711.86,-1.20,145003.66,818.32,-2.96,126817.92,1418.60,2.75,12227.34
1196900,867.83,822.46,1.00,4,4,4,7017.05,-0.99,145430.87,9416.26,-0.69,180286.41,5636.12,-0.92,71707.89,2968.52,-0.91,119710.29,1201.52,2.90,10377.89
1211900,1074.82,729.54,1.00,4,4,4,15125.53,-0.42,663332.10,6317.26,-0.48,233135.81,5486.71,-0.57,126903.91,4402.05,-1.09,105026.41,1377.17,-3.09,27724.12
1226100,1031.68,737.72,1.00,4,4,4,3091.76,2.95,1277950.84,1540.67,0.43,387602.46,3007.43,-0.21,202423.92,4149.64,-0.87,68597.51,1214.12,-3.14,12394.30
1248100,1125.51,752.79,1.00,4,4,4,4319.57,0.16,331968.86,1430.25,1.01,38612.42,1574.98,-0.32,65891.33,3883.33,-0.72,29980.30,724.58,-1.99,51342.53
1262000,1059.19,781.07,1.00,4,4,4,5186.79,2.74,657277.42,2519.94,-0.87,233908.76,2374.95,-0.72,80634.85,3096.28,-0.61,62411.37,2713.01,-0.94,175126.27
1276500,1171.55,698.00,1.00,1,1,1,9636.74,-0.64,1015978.23,5861.27,-1.03,234054.34,2054.48,-1.27,85097.83,1619.61,-0.86,108574.76,2913.98,-1.17,46230.35
1291000,1147.16,635.63,1.00,1,1,1,4618.40,-1.94,657798.40,2028.18,-1.75,313837.59,3615.26,-0.94,124095.96,1815.01,-0.85,13477.66,2572.97,-0.93,51888.54
1305900,1160.68,639.37,1.00,1,1,1,941.22,0.27,351473.43,1864.42,-0.72,129693.39,2056.44,-1.26,119876.31,1378.58,-1.30,55455.49,2165.88,-0.99,29312.27
1326900,1197.55,591.58,1.00,1,1,1,2874.41,-0.91,126919.17,2421.05,-0.92,33547.59,1305.67,-1.09,38066.55,2406.85,-1.00,55460.31,1478.84,-2.20,102168.66
1340900,1211.88,571.85,1.00,1,1,1,1741.54,-0.94,81052.73,1154.85,-1.95,147962.79,771.12,-1.37,43129.24,1209.40,-1.55,108358.28,2526.00,-2.81,112043.97
1355100,1185.60,561.29,1.00,1,1,1,1994.78,-2.76,207756.33,1577.77,2.71,141261.87,1221.86,-1.18,34516.78,879.77,-1.24,32441.80,1815.01,-0.85,255493.58
1369900,1170.31,590.96,1.00,1,1,1,2255.83,2.05,193811.94,1646.32,-0.79,214353.57,741.22,-2.45,83251.60,1231.87,-2.15,66156.02,1378.58,-1.30,55830.19
1391700,1228.04,518.51,1.00,2,2,2,4249.61,-0.90,297105.49,1376.22,-1.49,48845.70,513.06,-1.61,25494.44,4506.90,-3.01,175419.76,2406.85,-1.00,53425.07
1406300,1174.46,541.04,1.00,2,2,2,3981.02,2.74,546241.12,1520.03,2.94,158950.79,1967.96,-2.42,113522.82,5815.82,-3.07,92045.87,1209.40,-1.55,103905.20
1421000,1184.42,527.50,1.00,2,2,2,1143.59,-0.94,339943.77,3670.33,-2.80,169630.12,9959.49,3.14,584189.43,513.06,-1.61,393506.12,879.77,-1.24,31338.34
1435400,1073.69,505.64,1.00,3,3,3,7837.58,-2.95,582480.40,18519.64,-3.13,1047592.29,11044.24,-3.11,79176.46,1967.96,-2.42,115099.52,1231.87,-2.15,67993.68
1450000,647.40,519.96,1.00,1,1,1,29214.54,3.11,1483114.24,17132.92,3.12,104190.99,18519.64,-3.13,512282.65,9959.49,3.14,588190.73,4506.90,-3.01,261928.13
1471600,453.62,518.71,1.00,1,1,1,8971.58,-3.14,937654.03,8971.58,-3.14,378169.86,17132.92,3.12,70425.39,11044.24,-3.11,52784.31,5815.82,-3.07,62216.19
