@RELATION gaze_labels

%@METADATA width_px 1920
%@METADATA height_px 1080
%@METADATA width_mm 540.00
%@METADATA height_mm 254.00
%@METADATA distance_mm 620.00


@ATTRIBUTE time INTEGER
@ATTRIBUTE x NUMERIC
@ATTRIBUTE y NUMERIC
@ATTRIBUTE confidence NUMERIC
@ATTRIBUTE handlabeller1 INTEGER
@ATTRIBUTE handlabeller2 INTEGER
@ATTRIBUTE handlabeller_final INTEGER
@ATTRIBUTE speed_1 numeric
@ATTRIBUTE direction_1 numeric
@ATTRIBUTE acceleration_1 numeric
@ATTRIBUTE speed_2 numeric
@ATTRIBUTE direction_2 numeric
@ATTRIBUTE acceleration_2 numeric
@ATTRIBUTE speed_4 numeric
@ATTRIBUTE direction_4 numeric
@ATTRIBUTE acceleration_4 numeric
@ATTRIBUTE speed_8 numeric
@ATTRIBUTE direction_8 numeric
@ATTRIBUTE acceleration_8 numeric
@ATTRIBUTE speed_16 numeric
@ATTRIBUTE direction_16 numeric
@ATTRIBUTE acceleration_16 numeric

%The number after speed, direction denotes the step size that was used for the calculation.
%Acceleration was calculated between two adjacent samples of the already low pass filtered velocity

@DATA
0,322.27,521.69,1.00,1,1,1,0.00,0.00,0.00,485.95,-1.29,0.00,120.94,1.32,0.00,140.71,-1.42,0.00,123.46,-1.55,0.00
21600,325.21,511.62,1.00,1,1,1,485.95,-1.29,22497.81,120.94,1.32,27458.37,712.90,-1.64,38526.59,658.09,-1.93,25001.59,320.59,-2.53,12606.79
49900,323.79,527.54,1.00,1,1,1,564.77,1.66,36953.56,712.90,-1.64,29405.45,140.71,-1.42,20377.06,737.75,-1.95,2869.71,311.59,-2.82,3237.67
64000,322.99,481.47,1.00,1,1,1,3267.44,-1.59,271593.38,395.91,-1.54,22830.66,658.09,-1.93,38300.31,320.60,1.72,72871.98,76.40,-2.59,16871.60
99700,324.42,507.83,1.00,1,1,1,739.39,1.52,112224.73,659.15,-2.20,11818.30,737.75,-1.95,2274.87,123.46,-1.55,12421.01,446.41,1.67,13580.41
113700,303.82,454.91,1.00,1,1,1,4056.37,-1.94,340320.53,1439.22,-2.15,55794.09,320.60,1.72,73392.50,320.59,-2.53,19450.48,641.97,1.61,14141.10
127500,302.37,474.44,1.00,1,1,1,1419.57,1.64,389303.16,1584.16,1.29,216537.25,102.04,-1.83,30178.70,311.59,-2.82,6639.58,473.32,1.53,12688.50
148800,319.08,508.38,1.00,1,1,1,1775.82,1.11,42599.37,962.51,0.93,36035.00,539.32,2.17,28677.94,76.40,-2.59,11168.52,340.07,1.10,10105.29
162800,322.78,501.60,1.00,1,1,1,551.55,-1.07,152937.12,1527.25,-2.51,176035.21,688.84,2.05,11919.25,446.41,1.67,34630.05,146.44,0.48,16921.93
176900,284.49,482.98,1.00,1,1,1,3020.29,-2.69,219578.59,1482.13,2.86,94529.17,519.67,-1.74,81246.68,641.97,1.61,14040.81,74.85,0.18,5535.40
191500,281.95,513.52,1.00,1,1,1,2098.85,1.65,291469.67,822.93,-0.26,157865.85,972.37,1.64,101531.54,473.32,1.53,11993.24,94.05,0.90,4244.92
213100,313.31,475.46,1.00,2,2,2,2282.96,-0.88,193623.59,1731.30,0.95,75430.46,865.16,1.29,15451.12,340.07,1.10,9964.94,146.31,0.89,2419.62
227900,318.62,564.77,1.00,2,2,2,6044.62,1.51,531889.25,2157.19,1.78,109084.08,487.60,0.77,34160.05,422.03,0.82,9163.67,581.38,0.62,29888.35
242500,300.20,537.51,1.00,3,3,3,2253.09,-2.17,552400.63,1110.03,-2.01,213362.27,1277.92,1.23,59661.55,535.01,0.49,13277.68,2387.61,1.04,128118.60
256900,304.92,535.64,1.00,1,1,1,352.62,-0.38,163473.83,1339.39,0.21,152575.86,735.93,-0.51,109738.76,515.53,0.53,2219.33,3546.71,1.12,82213.84
271200,337.79,545.56,1.00,1,1,1,2401.07,0.29,149392.58,1558.01,0.11,18523.22,786.00,-0.45,4851.24,414.34,0.82,11622.77,3040.05,1.09,35916.78
292600,360.22,541.59,1.00,4,4,4,1064.42,-0.17,71428.91,861.24,-1.30,77101.25,568.78,0.33,25745.22,1017.39,0.23,33247.07,2577.14,0.98,26497.17
307400,346.24,515.55,1.00,4,4,4,1997.17,-2.06,171593.18,745.26,2.86,94976.29,541.82,-1.28,54077.20,4265.51,0.95,240995.00,2368.28,0.85,25486.25
321400,339.61,547.58,1.00,4,4,4,2336.26,1.78,291049.25,126.40,-1.11,59723.67,1580.00,0.55,128388.01,6701.11,1.09,181687.97,1843.88,0.72,42175.91
335100,347.80,512.42,1.00,4,4,4,2635.32,-1.34,362861.33,3327.44,0.42,242627.43,8557.65,1.05,525849.54,5253.58,1.09,105663.93,1889.48,0.87,20430.26
356300,445.82,594.53,1.00,4,4,4,6031.41,0.70,358216.97,15327.75,1.05,603907.88,13114.68,1.12,218140.04,4553.66,0.99,40692.12,1533.64,0.63,25605.89
370400,616.29,982.17,1.00,4,4,4,30033.52,1.16,1756846.21,26248.78,1.22,811328.23,9479.29,1.12,257832.50,4096.22,0.89,44121.70,1428.55,0.75,15378.02
384700,700.91,1294.99,1.00,4,4,4,22661.56,1.31,583633.03,5439.17,1.26,1455626.75,7116.76,1.07,168382.48,2905.93,0.74,90456.44,1348.39,0.91,15837.83
420500,698.89,1241.86,1.00,4,4,4,1485.24,-1.61,673500.23,4295.86,-1.50,267236.77,1213.68,-0.17,190304.41,2982.55,0.87,10653.83,981.73,1.06,11381.65
434500,715.18,1081.53,1.00,4,4,4,11510.73,-1.47,717286.33,9748.36,-1.53,389651.14,4234.79,-1.60,302680.29,2043.36,0.78,68906.14,811.32,1.16,13629.80
448800,710.10,966.20,1.00,4,4,4,8072.60,-1.61,259584.45,4211.94,-1.69,393886.00,4478.93,-1.67,27662.55,1049.08,-1.68,205210.35,834.69,1.28,7440.72
485100,689.40,869.97,1.00,4,4,4,2711.67,-1.78,149255.79,1773.87,-2.11,73960.09,3314.69,-1.73,32651.75,3052.18,-1.91,56282.61,497.26,1.03,10317.02
499800,663.94,888.40,1.00,4,4,4,2138.29,2.52,277139.76,1761.95,-1.87,27817.00,2334.96,-2.21,113109.55,3464.32,-2.03,39529.81,431.79,1.25,8245.89
513900,674.22,821.55,1.00,4,4,4,4796.91,-1.42,459612.82,3364.26,-2.32,136496.07,2599.50,-2.93,124498.89,2914.20,-2.24,61937.95,332.58,2.31,27959.39
528600,598.23,817.19,1.00,4,4,4,5177.98,-3.08,502447.76,4594.52,3.01,260453.87,3230.13,-2.68,65579.53,2578.99,-2.50,52267.71,1439.97,-2.19,105137.08
542800,542.61,839.14,1.00,4,4,4,4210.89,2.77,156890.42,3444.95,-2.97,117203.36,3580.61,-2.84,45973.17,2812.04,-2.51,16703.93,2317.17,-1.75,83190.41
564000,478.05,796.47,1.00,1,1,1,3650.40,-2.56,172835.83,3465.63,-2.38,95045.33,3108.40,-2.76,25698.60,2951.23,-2.39,17551.16,2752.71,-1.11,78590.71
578400,453.40,753.92,1.00,1,1,1,3414.73,-2.10,113314.35,2919.25,-2.46,41536.59,3348.23,-2.22,120421.50,2595.40,-2.65,54742.58,2218.41,-0.99,42123.49
592500,413.67,743.77,1.00,1,1,1,2907.82,-2.89,176759.73,3321.70,-2.02,99609.72,2953.04,-2.07,43470.38,2188.58,-2.49,39783.96,1885.14,-0.86,30437.77
606700,412.57,669.25,1.00,1,1,1,5248.35,-1.59,372652.38,3272.15,-1.80,50729.02,1804.33,-2.25,85505.41,1588.08,-1.41,141347.63,1749.19,-0.83,10242.69
627500,387.47,632.28,1.00,2,2,2,2148.28,-2.17,175454.22,880.30,-3.00,147241.29,1621.92,-1.93,27229.29,4691.43,-0.38,197334.46,2271.09,-0.71,27391.32
641600,382.16,664.88,1.00,2,2,2,2342.51,1.73,295941.77,653.92,2.14,60528.54,2402.75,-0.24,216408.64,4856.92,-0.29,33213.06,1960.72,-0.67,22843.46
655700,377.56,647.84,1.00,2,2,2,1252.16,-1.83,249742.90,5558.34,-0.19,427240.91,10155.02,-0.09,552494.31,5104.72,-0.26,20930.04,2015.17,-0.52,21473.38
677300,577.20,628.37,1.00,3,3,3,9286.50,-0.10,443224.28,18519.28,-0.11,601076.63,10474.99,-0.13,24477.83,4409.99,-0.22,33057.03,2158.55,-0.49,7253.59
691300,1032.86,575.42,1.00,1,1,1,32765.85,-0.12,1677254.92,16737.37,-0.10,127444.09,10385.51,-0.10,20453.86,5668.18,-0.17,91493.26,2249.84,-0.46,8862.44
705400,1044.93,579.11,1.00,1,1,1,895.76,0.30,2265762.37,435.53,0.30,1158681.22,6621.75,-0.21,274459.86,5480.35,-0.22,24510.56,2246.52,-0.37,13252.45
720300,1044.93,579.11,1.00,1,1,1,0.00,0.00,60118.18,1833.44,-2.50,150848.76,1513.52,-0.77,362233.19,4759.41,-0.15,54010.38,2451.47,-0.33,15011.31
741400,992.22,539.39,1.00,1,1,1,3128.14,-2.50,148253.05,2602.68,-0.89,153385.80,1143.89,-1.28,36023.94,3489.91,-0.15,60186.75,2274.04,-0.29,9851.14
755600,1102.80,507.75,1.00,1,1,1,8099.63,-0.28,724728.66,2834.12,-0.39,95370.14,641.09,-0.85,43910.77,404.14,-1.25,234402.41,2433.50,-0.16,24506.89
769600,1066.05,508.78,1.00,1,1,1,2626.07,3.11,761676.84,754.80,2.19,249745.64,1004.50,0.21,63370.27,366.44,-1.50,7408.55,2594.61,-0.18,12236.54
805300,1081.10,538.35,1.00,1,1,1,929.45,1.10,87919.97,941.95,1.50,16684.55,545.33,3.00,42779.99,507.68,-1.00,7233.91,2262.78,-0.19,9317.56
819800,1069.21,555.96,1.00,1,1,1,1465.02,2.16,89637.71,850.65,-2.46,113467.42,230.09,2.51,24759.26,523.44,-0.80,7195.11,1825.39,-0.24,31137.67
848400,1052.73,515.12,1.00,1,1,1,1539.76,-1.95,92774.53,928.93,-2.11,11133.19,386.97,-1.27,20570.44,208.31,2.63,25377.67,200.20,-1.34,60932.23
862900,1048.78,521.53,1.00,1,1,1,519.25,2.12,130638.26,1048.00,-0.16,112767.92,985.00,-1.82,47304.71,326.97,0.47,32739.67,447.23,-0.63,22208.82
884600,1090.18,509.04,1.00,1,1,1,1992.78,-0.29,110885.59,1140.18,-1.54,64398.75,358.15,0.39,56796.46,375.40,-2.85,32230.08,620.15,-0.47,8905.32
899000,1049.87,480.38,1.00,1,1,1,3434.63,-2.52,341329.25,762.60,2.39,122265.47,992.90,0.17,45001.69,389.26,-1.30,37136.76,1645.89,-0.00,78241.25
913200,1074.22,523.90,1.00,1,1,1,3511.67,1.06,477242.28,2841.13,0.70,213539.37,968.60,2.92,135457.40,62.97,2.54,30924.25,1411.33,0.07,18430.77
927500,1112.01,532.30,1.00,1,1,1,2707.35,0.22,185019.59,1252.55,-3.12,272580.30,626.71,0.57,103341.09,785.01,-0.18,58947.01,1810.71,0.02,28445.18
949000,1029.39,523.00,1.00,1,1,1,3867.33,-3.03,305378.97,1149.95,-2.32,43875.41,444.57,-2.99,48772.95,914.63,-0.10,6781.65,1752.73,-0.07,8088.70
963400,1083.93,502.03,1.00,2,2,2,4058.19,-0.37,534682.05,599.66,-0.20,107708.37,722.63,-0.68,74662.25,3260.31,0.14,165403.88,1652.52,-0.03,8553.99
977300,1046.03,519.70,1.00,2,2,2,3008.36,2.71,508086.24,2288.90,0.02,122885.33,2822.68,-0.15,160441.25,3362.64,0.03,26726.17,1913.24,-0.08,20036.05
991400,1148.01,503.37,1.00,2,2,2,7324.42,-0.16,727014.20,4615.71,-0.14,169122.87,6016.24,0.09,236939.95,3680.85,-0.02,26236.64,1895.07,-0.07,1802.48
1012400,1206.46,497.12,1.00,1,1,1,2799.43,-0.11,215769.20,9003.91,0.11,222342.53,7166.95,0.04,57558.23,4105.09,-0.03,20268.95,1732.14,-0.05,8012.97
1026400,1461.30,537.43,1.00,1,1,1,18428.93,0.16,1124497.49,10388.78,0.13,100268.06,6777.68,0.04,27855.99,3396.59,0.10,61204.43,1726.52,-0.00,5739.23
1041400,1505.12,536.78,1.00,1,1,1,2921.45,-0.01,1037234.17,4214.84,-0.13,427708.53,5376.31,0.02,93645.89,3881.32,-0.09,55337.71,1698.52,-0.10,11005.44
1055800,1584.13,521.08,1.00,1,1,1,5594.45,-0.20,192451.61,1675.52,-0.54,191183.79,884.79,0.12,312216.67,3004.09,-0.04,61871.21,1380.87,-0.14,22597.98
1077700,1557.43,505.75,1.00,1,1,1,1405.81,-2.62,306749.06,1902.46,2.80,162608.36,1128.54,-1.00,49756.57,2585.47,-0.03,19205.10,1707.12,-0.13,14936.72
1092100,1519.04,544.15,1.00,1,1,1,3770.62,2.36,254444.88,1170.94,-1.97,150749.56,913.34,-2.52,97869.38,571.81,-0.78,152828.00,1484.58,-0.08,16287.47
1106200,1544.34,475.06,1.00,1,1,1,5218.48,-1.22,622944.81,2105.51,-1.28,100313.49,667.08,-2.66,19094.50,452.88,-1.09,13939.60,1611.18,-0.11,9350.72
1120700,1536.06,486.39,1.00,1,1,1,967.75,2.20,424445.06,844.74,2.59,192549.34,816.72,-1.55,54545.71,745.32,-2.73,62193.15,1312.73,-0.04,21691.57
1135100,1523.57,487.88,1.00,1,1,1,874.19,3.02,51423.06,336.18,-2.71,49702.94,117.42,2.73,60570.96,389.35,-2.31,29224.33,868.17,-0.13,31660.46
1171600,1520.52,479.24,1.00,1,1,1,251.06,-1.91,23430.83,297.08,-0.64,14916.26,646.45,-2.99,15090.18,486.24,-1.68,7844.27,219.97,-0.75,19202.45
1186200,1535.71,478.78,1.00,1,1,1,1041.13,-0.03,78264.93,1225.67,-3.12,100712.77,283.50,-1.85,40135.98,226.41,-3.02,33329.77,230.96,-0.73,828.49
1200500,1485.11,478.35,1.00,1,1,1,3538.88,-3.13,320238.16,545.03,-2.40,62285.35,198.82,-2.28,9184.50,59.65,2.83,12159.80,175.38,-2.31,20381.62
1236200,1515.65,460.34,1.00,1,1,1,993.24,-0.53,123804.74,539.04,-0.42,25375.41,356.72,-2.86,6140.54,433.87,-2.81,10862.88,156.19,-0.38,7653.58
1251500,1510.21,467.15,1.00,1,1,1,569.76,2.24,100589.64,426.84,2.18,60824.91,542.43,0.26,58761.52,135.88,2.28,26403.22,199.15,-1.93,16390.84
1265900,1508.44,470.76,1.00,1,1,1,279.41,2.03,21024.60,964.20,0.92,64233.70,923.73,3.08,100623.65,162.76,0.62,15412.75,343.53,-2.89,19601.74
1280300,1526.99,489.28,1.00,1,1,1,1820.54,0.78,121599.47,1498.53,-3.02,158274.80,422.17,1.66,66300.39,451.70,0.08,22391.77,207.09,-2.38,13321.58
1301600,1455.36,464.09,1.00,1,1,1,3565.01,-2.80,247238.32,565.11,2.90,46557.40,795.81,0.43,35930.46,715.00,0.34,14150.93,273.69,3.11,9217.84
1315400,1507.73,494.01,1.00,1,1,1,4370.86,0.52,572735.68,3615.85,0.28,298295.06,367.97,-0.24,40417.61,202.23,2.02,55317.08,1002.21,-3.01,53161.83
1330200,1554.84,492.32,1.00,1,1,1,3185.24,-0.04,159653.53,1489.58,-0.24,164477.16,2538.05,0.18,149084.55,492.82,-2.82,34402.28,2281.28,-3.10,86873.65
1344600,1549.98,483.68,1.00,1,1,1,688.77,-2.08,246817.95,1521.28,-0.06,18727.18,146.24,-2.76,186207.18,433.69,-2.23,19034.25,2493.04,-3.10,14716.25
1358800,1598.27,489.64,1.00,1,1,1,3426.28,0.12,272868.36,1469.09,3.01,210454.76,1780.71,-2.77,115104.09,235.71,1.95,41502.01,3021.46,-3.13,37662.11
1379600,1499.02,490.51,1.00,2,2,2,4771.75,3.13,393305.78,4350.17,-2.89,146224.48,1073.78,-2.55,36946.73,2030.96,-2.95,96166.49,2578.58,3.13,21636.30
1394400,1448.39,450.63,1.00,2,2,2,4354.64,-2.47,206242.40,1568.60,-1.71,271907.41,2380.35,3.13,108884.77,4968.91,-3.08,200413.46,3090.98,-3.12,35388.51
1408700,1492.85,445.29,1.00,2,2,2,3131.35,-0.12,484607.68,1393.84,1.66,205842.74,3869.75,-2.96,111739.50,5441.60,-3.09,33409.26,2700.15,-3.09,27703.21
1423300,1444.74,490.74,1.00,2,2,2,4533.74,2.38,499474.61,6645.69,-3.14,457059.16,8199.95,3.14,305190.39,6176.05,-3.09,50308.28,235.71,1.95,180343.09
1445500,1248.30,443.92,1.00,3,3,3,9096.72,-2.91,343400.98,14630.39,-3.07,360885.20,9084.97,3.14,39881.15,4789.21,-3.12,62807.70,2030.96,-2.95,90101.93
1459800,912.12,452.23,1.00,1,1,1,23515.97,3.12,1042297.47,11172.67,3.14,250965.26,9262.94,-3.08,39805.80,5221.66,-3.14,30865.65,4968.91,-3.08,207420.92
1488500,767.87,445.36,1.00,1,1,1,5031.73,-3.09,644632.50,4700.27,-3.12,225618.81,5628.79,3.07,130881.57,4669.16,3.13,19367.40,5441.60,-3.09,16646.42
1502700,710.53,447.49,1.00,1,1,1,4040.70,3.10,74791.98,1414.63,0.66,415455.53,3120.79,-3.13,178499.03,9262.94,-3.08,325032.41,6176.05,-3.09,51725.41
1524000,807.61,476.07,1.00,1,1,1,4750.84,0.29,407397.59,1760.67,3.14,141045.62,198.86,2.70,138193.36,5628.79,3.07,176352.16,4789.21,-3.12,65461.55
1552500,622.85,447.97,1.00,1,1,1,6557.10,-2.99,395884.03,1371.57,-2.72,26769.45,1760.67,3.14,55529.46,3120.79,-3.13,88936.36,5221.66,-3.14,15486.98
1567000,753.76,452.02,1.00,1,1,1,9031.98,0.03,1073222.87,9031.98,0.03,711322.13,1371.57,-2.72,52615.81,198.86,2.70,203001.28,4669.16,3.13,38334.09
