@RELATION gaze_labels

%@METADATA width_px 1920
%@METADATA height_px 1080
%@METADATA width_mm 540.00
%@METADATA height_mm 254.00
%@METADATA distance_mm 620.00


@ATTRIBUTE time INTEGER
@ATTRIBUTE x NUMERIC
@ATTRIBUTE y NUMERIC
@ATTRIBUTE confidence NUMERIC
@ATTRIBUTE handlabeller1 INTEGER
@ATTRIBUTE handlabeller2 INTEGER
@ATTRIBUTE handlabeller_final INTEGER
@ATTRIBUTE speed_1 numeric
@ATTRIBUTE direction_1 numeric
@ATTRIBUTE acceleration_1 numeric
@ATTRIBUTE speed_2 numeric
@ATTRIBUTE direction_2 numeric
@ATTRIBUTE acceleration_2 numeric
@ATTRIBUTE speed_4 numeric
@ATTRIBUTE direction_4 numeric
@ATTRIBUTE acceleration_4 numeric
@ATTRIBUTE speed_8 numeric
@ATTRIBUTE direction_8 numeric
@ATTRIBUTE acceleration_8 numeric
@ATTRIBUTE speed_16 numeric
@ATTRIBUTE direction_16 numeric
@ATTRIBUTE acceleration_16 numeric

%The number after speed, direction denotes the step size that was used for the calculation.
%Acceleration was calculated between two adjacent samples of the already low pass filtered velocity

@DATA
0,357.59,589.01,1.00,1,1,1,0.00,0.00,0.00,3153.23,-1.87,0.00,1141.29,-1.63,0.00,696.08,-2.14,0.00,80.46,-1.90,0.00
14300,344.34,545.91,1.00,1,1,1,3153.23,-1.87,220505.67,1141.29,-1.63,144237.76,528.31,0.85,111201.49,389.09,1.73,71290.63,157.12,-1.24,7401.04
28600,355.69,556.43,1.00,1,1,1,1082.06,0.75,288475.52,528.31,0.85,111201.49,696.08,-2.14,85360.09,277.84,-1.75,45963.72,42.58,-1.49,8128.47
50100,356.89,560.06,1.00,1,1,1,177.94,1.25,43267.47,636.02,-2.90,51691.56,389.09,1.73,47416.56,467.40,1.77,34082.84,117.93,1.42,7424.17
64700,333.37,551.04,1.00,1,1,1,1725.38,-2.78,126245.41,549.67,2.39,38817.45,277.84,-1.75,45019.26,80.46,-1.90,36872.59,209.94,0.70,9844.94
93800,339.32,576.43,1.00,1,1,1,896.23,1.34,80712.96,559.69,-0.73,38121.17,467.40,1.77,25181.48,157.12,-1.24,3636.94,210.52,0.55,1106.94
108700,351.66,534.54,1.00,1,1,1,2930.94,-1.28,250778.41,627.51,1.10,63331.10,348.83,0.91,23823.02,42.58,-1.49,7801.15,350.64,1.05,13121.03
130000,349.61,596.68,1.00,1,1,1,2919.20,1.60,272452.69,850.75,1.53,17970.00,705.84,-1.33,45234.43,117.93,1.42,7493.88,385.83,-1.04,29935.25
158600,353.40,576.96,1.00,1,1,1,702.48,-1.38,126388.11,1746.03,-1.53,90736.09,180.01,1.27,30254.19,209.94,0.70,5025.74,103.29,-1.48,10347.14
172600,352.33,522.35,1.00,1,1,1,3900.93,-1.59,229799.12,762.10,-1.47,70502.43,261.37,-1.06,29038.72,210.52,0.55,2300.84,67.73,-0.67,5374.60
195000,356.29,549.37,1.00,2,2,2,1218.86,1.43,228232.75,1546.25,1.44,102419.46,108.13,-0.68,7399.51,350.64,1.05,8727.82,195.02,-0.59,5694.54
209300,359.75,578.61,1.00,2,2,2,2059.46,1.45,58864.67,817.97,1.46,50955.60,1089.50,1.39,80082.03,385.83,-1.04,44588.86,105.15,1.19,16797.60
223500,358.85,572.54,1.00,2,2,2,432.50,-1.72,175479.20,514.06,1.19,24702.15,587.72,0.97,42463.78,145.81,-1.20,17118.41,124.53,-0.19,10310.54
237800,365.20,592.21,1.00,1,1,1,1445.71,1.26,131025.92,572.35,0.40,29568.88,540.17,-1.02,66220.06,105.20,1.00,15702.53,139.61,-0.75,5238.37
259200,377.70,580.44,1.00,1,1,1,802.27,-0.76,90239.53,1265.21,-1.29,67618.81,205.53,-1.47,17062.66,427.31,-0.49,20179.05,133.70,0.20,5860.07
273300,377.72,549.08,1.00,1,1,1,2224.21,-1.57,125703.87,959.09,-2.26,76389.19,908.90,-1.67,50253.93,98.98,0.84,29445.84,1086.59,0.02,67766.95
287700,360.23,559.41,1.00,1,1,1,1410.86,2.61,221077.28,814.22,-2.44,14779.31,1053.73,-1.15,35780.46,231.74,-1.24,20365.10,2276.64,0.00,82660.25
302300,359.68,533.85,1.00,1,1,1,1751.40,-1.59,187316.86,1867.86,-0.69,148556.43,623.74,1.81,114474.56,325.55,-1.52,8353.46,2518.71,-0.00,16598.30
316800,402.25,524.93,1.00,1,1,1,2999.66,-0.21,219548.75,1551.43,1.41,204960.06,267.25,-1.07,60995.68,327.84,-1.33,4430.95,2557.40,-0.09,15291.95
337700,368.21,588.10,1.00,1,1,1,3433.54,2.07,279277.92,1113.18,2.62,74188.84,286.61,1.15,23725.60,2116.36,0.19,101700.98,2429.96,-0.08,6190.96
351800,368.51,544.41,1.00,2,2,2,3098.53,-1.56,449619.62,1328.55,-1.60,148914.45,354.72,2.30,24975.06,4512.91,0.03,173657.11,2053.37,-0.13,27977.66
366000,367.12,550.52,1.00,2,2,2,441.01,1.79,248625.52,659.45,-0.14,99884.30,4306.57,0.05,319523.80,5016.60,-0.02,39667.71,2036.69,-0.15,3047.55
380500,387.26,541.84,1.00,2,2,2,1512.55,-0.41,124695.63,7832.05,0.18,497141.34,8886.65,0.06,315892.29,4618.85,-0.06,29652.55,2306.04,-0.13,18915.47
402100,645.23,601.46,1.00,3,3,3,12257.91,0.23,512768.11,15510.96,0.06,360492.11,9887.49,-0.05,65326.77,4566.33,-0.10,9004.21,2107.94,-0.05,12481.32
416200,939.87,577.25,1.00,1,1,1,20966.75,-0.08,709967.85,12996.81,-0.23,341385.79,9445.40,-0.08,38990.68,3813.20,-0.08,53530.24,2202.12,-0.12,12436.97
430200,1001.14,519.58,1.00,1,1,1,6010.28,-0.76,1192371.73,3511.29,-1.02,773205.36,4845.15,-0.20,333707.72,3583.29,-0.08,16424.09,2202.39,-0.01,16645.34
444800,992.53,491.74,1.00,1,1,1,1995.98,-1.87,372407.72,314.42,0.36,237335.96,1081.32,-1.93,351299.62,3926.97,-0.07,23735.39,2130.52,0.05,10258.31
480200,1015.85,525.12,1.00,1,1,1,1150.33,0.96,87891.51,1673.93,3.06,55454.01,504.02,-2.77,23480.97,2189.88,-0.24,50908.80,2259.00,-0.17,14133.47
494300,909.93,498.28,1.00,1,1,1,7749.90,-2.89,613686.09,1319.17,-2.77,53333.92,384.22,0.09,62387.79,641.88,-1.11,130713.52,2281.64,-0.07,16210.42
530400,954.14,501.12,1.00,1,1,1,1227.13,0.06,248174.44,2393.89,-0.02,101020.89,457.07,-3.03,23303.35,51.19,1.35,18901.95,2614.84,-0.05,9305.21
544800,1030.78,495.34,1.00,1,1,1,5337.78,-0.08,286530.32,1126.77,0.66,116358.61,960.61,-0.15,97706.95,441.22,1.11,27199.92,2446.50,-0.04,11765.52
559300,979.94,520.98,1.00,1,1,1,3927.44,2.67,627038.18,1633.04,-2.96,185115.53,869.37,0.50,40636.89,331.61,-1.83,53030.33,1815.91,-0.20,49276.29
573300,984.98,487.07,1.00,1,1,1,2449.28,-1.42,407336.96,684.14,0.29,165309.41,958.53,1.67,72342.63,758.22,0.01,64522.74,723.98,-0.42,80040.43
594400,1002.97,527.79,1.00,2,2,2,2109.75,1.15,207595.45,2229.18,1.05,85326.25,753.29,-1.05,79364.37,1390.68,0.05,30052.66,549.90,-0.06,13623.55
609300,1024.61,556.85,1.00,2,2,2,2431.93,0.93,40294.40,1686.15,-1.55,253591.20,555.03,0.35,57470.54,582.48,0.20,54919.43,242.93,0.37,23119.28
623200,1003.90,479.24,1.00,3,3,3,5779.26,-1.83,581916.31,2069.30,-1.68,32442.27,2021.96,-0.13,111592.31,1363.21,-0.14,60143.27,454.86,-0.51,25543.24
637300,1018.35,499.25,1.00,1,1,1,1750.84,0.95,527747.33,3678.22,0.24,340020.12,1432.89,-0.53,63569.71,1115.58,0.04,23365.15,699.46,0.07,28770.42
659400,1133.28,510.70,1.00,1,1,1,5226.16,0.10,193289.10,2368.28,0.12,61218.22,2325.81,0.11,66044.76,1243.33,-0.11,9714.21,697.92,0.24,5523.93
674000,1104.60,509.99,1.00,1,1,1,1964.94,-3.12,492269.50,871.67,-0.62,124738.68,1705.52,-0.06,48921.17,405.41,-0.85,67366.11,374.59,0.17,22303.64
688000,1153.64,496.32,1.00,1,1,1,3636.50,-0.27,396101.32,1064.38,-0.64,13889.32,449.68,-0.02,89739.37,935.86,-0.12,49208.01,1706.27,0.02,95495.61
702000,1128.47,492.14,1.00,1,1,1,1822.56,-2.98,381726.20,457.09,1.03,85730.62,726.93,2.98,83845.98,643.76,0.14,25372.68,1839.41,0.22,27406.52
723000,1161.87,510.03,1.00,1,1,1,1804.43,0.49,170404.06,2070.51,2.79,104906.91,686.44,-2.33,31713.55,254.78,1.45,29924.16,1690.48,0.02,18293.00
737800,1058.85,517.59,1.00,1,1,1,6979.69,3.07,578273.39,2057.21,-2.27,160104.07,344.34,2.33,53112.32,185.49,0.08,19090.85,1716.92,-0.02,5158.56
752000,1123.51,464.34,1.00,1,1,1,5899.15,-0.69,864633.10,1193.71,-0.11,203833.67,559.00,2.15,16021.49,1998.45,0.10,127676.03,1762.48,0.14,19516.81
780800,1109.86,511.89,1.00,1,1,1,1717.81,1.85,256219.68,1689.93,1.40,69788.48,928.96,-0.07,46725.53,2429.99,0.29,20586.72,1713.20,0.10,2585.16
801400,1137.72,546.61,1.00,2,2,2,2160.69,0.89,88679.56,603.35,0.01,81846.91,3640.01,0.18,133613.26,2039.52,0.08,29343.23,1314.57,0.17,19927.74
815400,1130.73,512.21,1.00,2,2,2,2507.30,-1.77,324084.15,6869.97,-0.05,447708.92,4843.11,0.23,87034.51,2771.53,0.06,52449.38,1183.94,0.01,17111.76
850900,1477.40,530.40,1.00,3,3,3,9778.62,0.05,300990.59,7781.32,0.24,64752.11,4023.98,-0.02,38876.31,2390.89,0.21,15366.83,1095.25,0.08,3347.84
865500,1509.22,605.62,1.00,1,1,1,5594.09,1.17,609029.08,756.15,0.25,481180.27,4211.64,0.08,31511.63,2651.04,0.10,26298.38,1277.47,0.06,12612.93
893600,1508.64,538.53,1.00,1,1,1,2387.42,-1.58,279494.57,1451.08,-0.97,49605.26,832.51,0.35,121558.70,2439.07,0.08,7709.65,1080.86,0.03,7064.16
915200,1549.70,545.93,1.00,1,1,1,1931.36,0.18,154543.37,930.41,0.44,73845.42,771.48,-1.01,46599.58,2072.94,0.00,18760.22,1527.52,0.01,20717.09
929700,1539.07,552.75,1.00,1,1,1,870.86,2.57,181842.74,388.25,2.34,77188.83,623.38,1.24,86785.23,95.87,-0.61,137586.31,1393.04,0.14,15602.25
944500,1541.78,554.09,1.00,1,1,1,204.05,0.46,66974.53,1002.52,2.17,42092.16,1614.59,-2.79,139626.73,642.16,-1.45,39381.32,1277.36,0.03,12110.45
959500,1522.11,577.34,1.00,1,1,1,2030.16,2.27,139222.15,3066.86,-2.68,206177.06,900.26,-2.60,49975.80,221.38,-2.46,37190.24,1455.44,-0.13,18737.54
974300,1460.12,513.05,1.00,1,1,1,6034.55,-2.34,443176.14,1812.41,-2.12,122013.36,701.59,-2.06,31694.29,329.25,-2.53,7380.59,1691.80,0.02,22606.53
994900,1488.75,522.54,1.00,1,1,1,1464.04,0.32,357393.57,1723.19,0.02,150268.16,1052.89,-2.13,17327.97,243.57,-1.28,16554.22,744.76,-0.13,46785.33
1009300,1520.43,513.96,1.00,1,1,1,2279.22,-0.26,92481.04,112.20,-2.46,125860.22,907.82,0.17,124406.96,500.62,-2.66,35694.89,343.57,-0.58,31814.41
1023300,1486.28,520.52,1.00,1,1,1,2483.46,2.95,339954.78,334.77,1.97,27307.78,916.70,-0.00,11136.96,687.38,-1.22,57093.78,272.80,-0.24,8911.42
1037600,1516.77,522.70,1.00,1,1,1,2137.40,0.07,320400.86,1702.60,0.03,129293.43,582.89,2.86,103912.17,1226.40,0.07,85789.89,253.59,-1.73,25042.71
1059600,1548.06,522.41,1.00,2,2,2,1422.25,-0.01,33123.64,896.66,3.09,118059.97,1093.14,-0.38,76094.82,1515.61,-0.10,16910.11,298.77,-0.40,15604.19
1074000,1484.17,524.35,1.00,2,2,2,4438.48,3.11,406978.11,985.93,-1.40,102139.20,1537.09,0.02,46936.74,631.22,0.56,75788.78,383.11,-0.20,7581.72
1089000,1552.96,493.85,1.00,1,1,1,5016.78,-0.42,618626.15,4498.13,-0.00,295875.80,2184.14,-0.15,47472.46,697.95,0.01,24502.60,447.65,-0.42,7579.37
1103900,1618.67,524.25,1.00,1,1,1,4858.74,0.43,273680.85,4181.24,0.08,31757.56,1818.43,0.30,63899.08,351.86,-1.06,41160.37,587.44,-0.02,16505.83
1118200,1674.66,503.64,1.00,1,1,1,4172.65,-0.35,245906.12,1567.53,2.37,373968.83,570.70,0.84,95338.29,492.49,0.01,31349.20,403.67,0.02,12961.27
1132700,1586.22,555.64,1.00,1,1,1,7075.53,2.61,772841.83,2722.70,2.96,114386.05,1389.78,-2.66,133405.03,1109.60,0.06,42617.51,283.36,-0.22,10110.60
1154400,1577.78,521.73,1.00,1,1,1,1610.57,-1.81,354322.01,2432.50,-2.14,133089.31,1067.39,2.85,44839.47,605.93,0.39,26339.24,335.52,0.03,4293.76
1168400,1539.30,482.57,1.00,1,1,1,3921.16,-2.35,190148.99,1093.28,0.05,228195.27,725.59,-0.36,127997.72,106.27,-1.40,45564.68,286.17,0.40,8878.69
1182700,1608.68,523.28,1.00,1,1,1,5624.77,0.53,661942.28,2311.35,0.45,95963.41,713.42,0.09,22591.55,474.09,2.85,37048.93,146.40,0.12,10553.51
1219200,1645.02,533.67,1.00,1,1,1,1035.55,0.28,126826.19,503.98,0.15,50306.12,1073.40,0.31,11158.65,369.62,-1.34,20094.34,552.73,-0.12,11288.54
1233700,1634.10,527.09,1.00,1,1,1,879.35,-2.60,130924.04,1164.22,-2.34,109952.30,68.34,2.81,77841.49,37.50,0.25,25666.19,175.29,2.57,49288.82
1248600,1621.21,509.08,1.00,1,1,1,1486.30,-2.19,51213.18,728.74,-3.09,53769.72,729.47,-2.44,46801.25,566.67,0.93,36105.47,924.21,-3.05,53232.86
1277000,1602.59,525.39,1.00,1,1,1,871.38,2.42,63201.21,484.71,-2.57,13755.71,636.91,-3.07,15216.59,124.12,2.94,22154.34,2042.47,3.09,39980.24
1299300,1600.56,495.76,1.00,1,1,1,1331.81,-1.64,89001.86,527.96,-3.03,10519.10,678.84,2.12,30867.00,208.77,-1.76,10981.31,1727.39,-2.99,22150.66
1313300,1583.55,523.22,1.00,1,1,1,2307.46,2.13,248357.62,2104.38,1.69,154632.66,205.23,3.00,40717.47,852.67,-3.10,59260.65,1618.60,-3.14,19411.01
1327600,1593.27,554.86,1.00,2,2,2,2315.14,1.27,133711.43,237.85,0.63,139871.33,692.76,0.24,61980.85,1858.21,-3.11,70327.73,1292.05,3.03,25399.31
1342800,1589.23,527.34,1.00,2,2,2,1830.31,-1.72,271948.17,2277.33,-0.82,148689.17,1113.87,-3.12,118211.62,3965.40,3.12,138940.13,1661.62,-3.10,28394.48
1357400,1639.66,505.32,1.00,2,2,2,3768.93,-0.41,255667.02,2178.19,-3.07,275203.86,3752.51,-2.92,182821.51,4139.97,-3.11,17824.12,1872.12,-3.09,14507.80
1379200,1510.17,521.34,1.00,1,1,1,5985.16,3.02,443028.25,7966.85,-3.12,265765.18,7773.54,3.13,193635.27,3741.02,-3.14,18852.44,1864.63,-3.08,412.17
1393500,1352.10,500.20,1.00,1,1,1,11152.08,-3.01,389650.51,14908.57,3.11,486946.07,8453.56,-3.10,58350.45,3268.82,-3.07,37155.98,1723.25,-3.05,10799.66
1407800,1084.01,535.19,1.00,1,1,1,18906.69,3.01,603999.15,9070.90,-3.07,417151.42,6726.38,3.14,123049.56,3562.92,-3.09,21114.57,1684.20,-3.11,7636.21
1422300,1091.55,481.13,1.00,1,1,1,3764.67,-1.43,1395419.24,1310.69,-0.36,708559.29,2876.79,3.02,268173.10,3822.54,3.14,22548.45,4139.97,-3.11,169365.64
1437200,1120.04,521.53,1.00,1,1,1,3317.49,0.96,442175.05,2394.12,0.51,124277.43,836.70,-0.64,243472.81,3074.60,-3.08,52269.26,3741.02,-3.14,27582.76
1458400,1166.86,523.54,1.00,1,1,1,2210.65,0.04,124205.78,571.07,-1.20,119682.66,904.86,0.43,42132.91,1579.85,-2.97,71440.61,3268.82,-3.07,25062.76
1472600,1127.41,502.71,1.00,1,1,1,3141.49,-2.66,367985.68,1002.03,-2.46,69927.26,454.50,-0.96,65922.72,443.21,-0.41,138375.11,3562.92,-3.09,21263.26
1486900,1144.64,505.61,1.00,1,1,1,1221.28,0.17,301966.57,370.72,-0.48,83896.44,947.30,-1.82,51454.50,904.86,0.43,48507.24,3822.54,3.14,22863.81
1500900,1136.72,497.87,1.00,1,1,1,790.46,-2.37,137428.34,1175.58,-1.38,70732.78,209.37,0.46,78185.25,454.50,-0.96,66864.47,3074.60,-3.08,55629.43
1521900,1152.29,465.18,1.00,1,1,1,1724.20,-1.13,78466.52,265.75,1.16,66795.16,1175.58,-1.38,59446.64,947.30,-1.82,35038.06,1579.85,-2.97,72121.00
1550600,1142.05,509.96,1.00,2,2,2,1600.49,1.80,115146.49,1600.49,1.80,48653.45,265.75,1.16,48874.51,209.37,0.46,38139.15,443.21,-0.41,68464.34
