@RELATION gaze_labels

%@METADATA width_px 1920
%@METADATA height_px 1080
%@METADATA width_mm 540.00
%@METADATA height_mm 254.00
%@METADATA distance_mm 620.00


@ATTRIBUTE time INTEGER
@ATTRIBUTE x NUMERIC
@ATTRIBUTE y NUMERIC
@ATTRIBUTE confidence NUMERIC
@ATTRIBUTE handlabeller1 INTEGER
@ATTRIBUTE handlabeller2 INTEGER
@ATTRIBUTE handlabeller_final INTEGER
@ATTRIBUTE speed_1 numeric
@ATTRIBUTE direction_1 numeric
@ATTRIBUTE acceleration_1 numeric
@ATTRIBUTE speed_2 numeric
@ATTRIBUTE direction_2 numeric
@ATTRIBUTE acceleration_2 numeric
@ATTRIBUTE speed_4 numeric
@ATTRIBUTE direction_4 numeric
@ATTRIBUTE acceleration_4 numeric
@ATTRIBUTE speed_8 numeric
@ATTRIBUTE direction_8 numeric
@ATTRIBUTE acceleration_8 numeric
@ATTRIBUTE speed_16 numeric
@ATTRIBUTE direction_16 numeric
@ATTRIBUTE acceleration_16 numeric

%The number after speed, direction denotes the step size that was used for the calculation.
%Acceleration was calculated between two adjacent samples of the already low pass filtered velocity

@DATA
0,221.34,936.04,1.00,1,1,1,0.00,0.00,0.00,121.85,-2.21,0.00,72.51,-2.42,0.00,202.10,3.10,0.00,13.05,-0.45,0.00
15300,220.24,934.54,1.00,1,1,1,121.85,-2.21,7964.31,72.51,-2.42,3490.59,60.18,2.61,5118.35,146.03,-3.02,4109.33,43.37,-0.07,2066.94
29900,219.71,934.61,1.00,1,1,1,36.44,3.00,7491.28,60.18,2.61,5363.75,202.10,3.10,10388.71,6.48,-3.11,9560.35,90.86,2.82,9129.12
44500,218.72,935.43,1.00,1,1,1,87.79,2.45,4100.62,354.70,2.96,20469.70,146.03,-3.02,4306.35,67.50,0.06,5066.44,84.78,-1.15,11014.94
59900,209.25,936.55,1.00,1,1,1,619.59,3.02,35580.28,223.38,-2.89,11594.70,6.48,-3.11,9063.71,13.05,-0.45,3667.61,537.72,-0.33,31413.77
82500,210.50,933.33,1.00,1,1,1,152.91,-1.20,31167.13,266.56,-0.19,21154.50,67.50,0.06,3273.01,43.37,-0.07,1399.30,1071.25,-0.22,23914.00
98200,219.27,934.59,1.00,1,1,1,564.38,0.14,35065.53,307.54,0.18,7163.35,165.07,-0.10,6306.09,90.86,2.82,8489.50,1320.04,-0.20,15886.99
128300,224.37,935.78,1.00,1,1,1,173.97,0.23,13000.94,83.71,0.17,7436.37,211.47,0.05,1784.91,84.78,-1.15,5342.80,1526.56,-0.18,6923.00
143800,223.03,935.22,1.00,1,1,1,93.40,-2.74,17194.07,89.30,-0.69,4630.81,168.40,2.81,24062.34,537.72,-0.33,31211.10,737.32,-0.16,50957.25
157800,226.40,934.11,1.00,1,1,1,253.43,-0.32,23543.69,550.99,2.92,45142.16,192.00,-1.63,20560.42,1071.25,-0.22,38604.03,703.49,-0.17,2590.00
172900,207.39,938.73,1.00,2,2,2,1295.88,2.90,102558.58,334.76,-1.84,41753.37,1071.06,-0.38,67957.14,1320.04,-0.20,16518.26,619.10,-0.20,5703.62
188200,223.69,924.30,1.00,2,2,2,1422.87,-0.72,172483.97,2618.18,-0.35,170755.66,2039.76,-0.25,64622.19,1526.56,-0.18,13619.76,624.76,-0.21,470.60
203300,282.14,911.39,1.00,2,2,2,3964.06,-0.22,185872.20,3726.92,-0.18,81850.79,2678.03,-0.21,42679.33,1402.06,-0.15,8787.70,756.05,-0.19,8726.11
225300,359.83,900.15,1.00,3,3,3,3568.34,-0.14,21960.23,2736.96,-0.13,45433.33,2457.28,-0.14,13307.56,1298.31,-0.18,4935.02,1084.44,-0.13,15122.78
254700,421.59,892.83,1.00,1,1,1,2115.23,-0.12,49483.78,1675.19,-0.08,36302.22,1628.70,-0.06,28647.69,1180.12,-0.21,4219.84,1362.74,-0.11,9494.66
285200,459.84,891.96,1.00,1,1,1,1254.54,-0.02,28673.85,452.45,0.45,42770.10,758.63,-0.03,28548.34,1082.94,-0.16,3699.78,1686.72,-0.11,10628.75
300600,440.32,901.80,1.00,1,1,1,1419.52,2.67,169394.96,1033.31,2.95,92346.32,58.30,2.77,52846.56,935.56,-0.13,9775.31,1788.50,-0.10,6610.43
316000,428.61,898.08,1.00,1,1,1,797.84,-2.83,65975.56,472.24,-2.86,42145.03,508.61,3.10,29464.14,1101.30,-0.06,11559.15,1782.56,-0.10,1139.63
353700,416.21,894.92,1.00,2,2,2,339.52,-2.89,12183.45,228.95,-2.79,6488.52,179.92,-0.88,17058.43,1414.68,-0.03,8373.84,1777.47,-0.10,177.61
369100,417.21,893.85,1.00,2,2,2,95.19,-0.82,25619.51,1121.54,-0.14,86205.33,1475.50,-0.08,88092.86,1871.19,-0.04,29649.18,1670.13,-0.06,8035.96
384000,449.86,890.22,1.00,3,3,3,2204.85,-0.11,143168.58,4448.07,-0.04,223736.89,3815.75,-0.04,157192.36,2214.32,-0.07,23526.32,1480.37,-0.04,12864.23
399200,550.99,888.37,1.00,3,3,3,6653.98,-0.02,293630.50,6516.45,-0.02,136239.95,5210.05,-0.04,91732.07,2324.72,-0.05,8227.19,1253.44,-0.03,14978.66
414300,647.26,885.84,1.00,1,1,1,6378.11,-0.03,18588.49,5982.34,-0.03,35751.77,5127.85,-0.04,5460.47,2639.35,-0.03,21013.16,1046.07,-0.03,13733.14
428900,728.55,882.19,1.00,1,1,1,5573.55,-0.04,55627.26,3708.25,-0.06,155995.93,3502.16,-0.03,111386.72,2429.32,-0.01,14809.80,1005.26,-0.03,2800.64
443900,756.82,879.11,1.00,1,1,1,1895.54,-0.11,245589.38,1080.49,0.02,175524.82,1577.47,-0.01,128348.24,2180.63,-0.00,16622.79,967.80,-0.06,3364.46
459300,761.39,882.87,1.00,1,1,1,384.50,0.69,107128.64,188.26,2.12,77095.34,415.04,0.26,76735.12,1442.26,-0.00,47946.66,1175.48,-0.03,13660.84
481400,753.11,885.11,1.00,1,1,1,388.46,2.88,31082.31,154.42,1.57,4519.37,134.99,1.37,16961.46,649.38,-0.04,35905.88,1755.74,-0.02,26279.68
510800,761.43,890.82,1.00,1,1,1,343.28,0.60,22603.02,172.74,0.68,4807.54,105.76,2.54,4609.97,166.63,0.04,16441.80,2307.78,-0.00,18795.20
525800,759.08,889.93,1.00,1,1,1,167.90,-2.78,33862.22,263.19,-2.73,28815.55,123.04,-2.86,6589.64,235.52,3.01,26716.74,2670.17,0.00,24166.59
540200,754.34,887.72,1.00,1,1,1,362.80,-2.70,13598.68,470.50,-2.69,14429.33,168.87,-2.39,5672.12,73.34,0.37,20964.21,2542.73,0.01,8894.15
562600,743.50,882.36,1.00,1,1,1,539.78,-2.68,7911.66,126.73,-1.81,17948.58,562.52,-2.97,19277.40,1033.03,0.01,43067.33,2214.58,0.01,14670.80
577200,753.25,883.16,1.00,1,1,1,669.56,0.08,81379.21,718.15,3.08,48429.76,254.47,-0.05,55667.78,2198.01,0.00,79800.74,1934.52,0.02,19228.57
592400,722.14,883.66,1.00,1,1,1,2046.64,3.13,178539.91,608.02,0.20,86526.17,2283.59,0.03,133555.39,3092.15,0.00,58825.24,1894.42,0.03,2948.56
607900,771.55,886.82,1.00,2,2,2,3194.10,0.06,337854.38,4269.75,0.02,236974.56,3904.10,0.02,104552.57,3401.00,0.01,19978.96,1941.89,0.03,3152.67
637400,914.25,887.17,1.00,2,2,2,4837.29,0.00,56302.36,5604.07,0.01,45236.93,5573.38,0.01,56613.76,3555.52,0.02,5436.42,1991.73,0.02,1851.37
667600,1106.08,891.46,1.00,3,3,3,6353.61,0.02,50342.46,6682.42,0.01,35720.87,5284.74,0.01,9570.43,3446.53,0.02,3611.15,2100.26,0.00,3720.38
690300,1267.73,890.35,1.00,1,1,1,7121.53,-0.01,34921.69,4927.87,0.00,77303.44,4522.47,0.02,33619.59,3720.20,0.02,12061.59,1853.51,-0.01,10886.45
721000,1369.23,892.51,1.00,1,1,1,3306.66,0.02,124342.71,2012.45,0.05,95073.28,2948.20,0.02,51279.30,3560.04,0.02,5231.25,1243.10,0.01,19892.32
735800,1359.19,894.76,1.00,1,1,1,694.69,2.92,269226.12,634.65,2.96,178018.08,1307.47,0.09,111233.67,2898.68,0.02,44697.41,629.93,0.08,41679.66
750600,1350.74,895.86,1.00,1,1,1,575.96,3.01,8944.98,255.42,0.57,56745.45,272.06,0.44,71350.94,1997.41,-0.00,60953.67,64.01,1.48,42036.88
765400,1365.56,898.85,1.00,1,1,1,1021.34,0.20,106593.71,1132.63,0.10,61612.26,496.05,-0.00,18586.26,414.34,-0.07,107038.07,242.70,2.89,16284.25
779900,1383.75,899.28,1.00,1,1,1,1254.97,0.02,21133.53,730.22,-0.15,32097.63,805.23,-0.09,21629.29,1539.70,-3.13,134697.16,435.43,3.07,13856.26
802300,1392.18,894.70,1.00,1,1,1,428.37,-0.50,40575.32,584.96,-0.38,9210.82,620.48,-2.84,62471.09,2983.15,3.13,64467.36,911.71,-3.14,21371.93
816600,1403.69,891.34,1.00,2,2,2,838.70,-0.28,30045.40,2252.43,-3.02,194367.02,2835.85,-3.10,156836.73,4060.68,3.13,75356.70,1657.54,-3.12,52180.23
831800,1326.24,886.54,1.00,2,2,2,5105.46,-3.08,388238.56,5612.66,-3.14,222807.35,6113.95,3.13,216063.64,4904.97,3.14,55589.30,2260.65,-3.12,39678.51
861200,1153.37,890.25,1.00,2,2,2,5881.21,3.12,30619.13,8694.84,3.11,105179.45,8038.66,3.12,65510.57,5119.72,-3.14,7441.99,2595.22,-3.12,11381.22
876200,940.38,898.65,1.00,3,3,3,14210.59,3.10,555399.65,11038.92,3.11,156277.09,8482.44,3.12,29715.41,5438.51,-3.13,21440.33,2417.77,-3.12,11862.24
897300,755.09,903.57,1.00,1,1,1,8784.56,3.12,257248.38,8218.98,3.13,133932.45,7966.54,3.13,24804.10,5583.60,-3.13,6895.49,2421.25,-3.12,165.19
911900,646.99,902.77,1.00,1,1,1,7404.29,-3.13,96377.34,4180.11,-3.09,277940.09,4672.75,-3.10,226705.29,4860.75,-3.13,49510.32,2466.79,-3.12,3145.32
926500,633.20,897.10,1.00,1,1,1,1020.99,-2.75,443033.98,649.27,-2.10,264341.03,2202.17,-2.97,171781.46,3604.04,-3.12,86108.97,2296.78,-3.11,11669.75
941100,637.36,886.43,1.00,1,1,1,784.29,-1.20,87415.28,563.95,-1.81,13358.38,579.78,-2.40,119285.06,1930.43,-3.07,114931.98,1979.62,-3.12,21738.84
955300,629.31,881.33,1.00,1,1,1,671.13,-2.58,65445.19,567.26,-2.67,33142.97,247.32,-2.00,25660.68,887.32,-2.96,74214.39,1482.05,-3.13,35070.72
977300,619.06,877.12,1.00,1,1,1,503.77,-2.75,8897.12,98.54,-2.63,21309.01,127.84,-2.34,6071.22,243.89,-2.48,30895.13,726.21,3.12,34390.26
1007900,624.78,878.81,1.00,1,1,1,194.97,0.29,22810.96,159.72,0.04,8226.08,104.83,-2.87,2109.40,150.96,-0.89,9455.50,192.64,0.06,30013.70
1038000,628.75,877.53,1.00,1,1,1,138.52,-0.31,3739.43,118.36,-3.09,9238.63,35.69,2.40,3031.23,674.96,-0.06,19402.67,1930.43,-3.07,70533.75
1052700,619.48,878.56,1.00,1,1,1,634.03,3.03,52396.07,393.41,2.99,18929.27,271.16,-0.08,20421.66,1636.83,0.01,65652.09,887.32,-2.96,71690.09
1069100,616.65,879.33,1.00,2,2,2,179.36,2.88,27904.26,641.64,-0.06,63057.00,1552.37,0.01,78211.80,2698.73,0.03,64784.24,243.89,-2.48,41444.68
1099700,649.59,876.73,1.00,2,2,2,1079.83,-0.08,41063.21,2691.51,-0.00,67035.19,3628.61,0.02,67856.43,3691.03,0.03,32430.94,150.96,-0.89,9455.50
1122100,759.30,878.89,1.00,3,3,3,4898.69,0.02,170784.41,7326.00,0.03,207004.49,5679.65,0.02,91566.58,1552.37,0.01,95488.60,674.96,-0.06,26072.34
1137700,927.84,885.23,1.00,1,1,1,10812.06,0.04,379155.18,10807.48,0.04,223196.74,8351.24,0.03,171271.30,3628.61,0.02,133103.00,1636.83,0.01,61864.47
1153000,1093.02,891.06,1.00,1,1,1,10802.81,0.04,1780.13,9676.38,0.03,74085.57,10807.48,0.04,160590.21,5679.65,0.02,134058.27,2698.73,0.03,69441.94
1167100,1212.21,893.55,1.00,1,1,1,8454.59,0.02,166826.10,8454.59,0.02,86817.67,9676.38,0.03,80390.73,8351.24,0.03,189491.65,3691.03,0.03,70382.03
