@RELATION gaze_labels

%@METADATA width_px 1920
%@METADATA height_px 1080
%@METADATA width_mm 540.00
%@METADATA height_mm 254.00
%@METADATA distance_mm 620.00


@ATTRIBUTE time INTEGER
@ATTRIBUTE x NUMERIC
@ATTRIBUTE y NUMERIC
@ATTRIBUTE confidence NUMERIC
@ATTRIBUTE handlabeller1 INTEGER
@ATTRIBUTE handlabeller2 INTEGER
@ATTRIBUTE handlabeller_final INTEGER
@ATTRIBUTE speed_1 numeric
@ATTRIBUTE direction_1 numeric
@ATTRIBUTE acceleration_1 numeric
@ATTRIBUTE speed_2 numeric
@ATTRIBUTE direction_2 numeric
@ATTRIBUTE acceleration_2 numeric
@ATTRIBUTE speed_4 numeric
@ATTRIBUTE direction_4 numeric
@ATTRIBUTE acceleration_4 numeric
@ATTRIBUTE speed_8 numeric
@ATTRIBUTE direction_8 numeric
@ATTRIBUTE acceleration_8 numeric
@ATTRIBUTE speed_16 numeric
@ATTRIBUTE direction_16 numeric
@ATTRIBUTE acceleration_16 numeric

%The number after speed, direction denotes the step size that was used for the calculation.
%Acceleration was calculated between two adjacent samples of the already low pass filtered velocity

@DATA
0,270.24,973.94,1.00,1,1,1,0.00,0.00,0.00,1298.30,-2.11,0.00,872.08,-2.25,0.00,733.96,-2.77,0.00,458.17,-2.85,0.00
14900,260.28,957.36,1.00,1,1,1,1298.30,-2.11,87134.47,872.08,-2.25,30229.21,445.96,-3.10,44840.51,617.86,3.12,19185.03,400.36,-2.97,5019.55
29900,253.89,953.63,1.00,1,1,1,493.27,-2.61,59855.18,445.96,-3.10,44541.57,733.96,-2.77,22892.56,576.71,3.08,3140.70,189.32,-2.06,21358.38
44800,246.96,956.79,1.00,1,1,1,511.26,2.71,31031.76,797.90,3.06,24168.45,617.86,3.12,19185.03,540.08,-2.99,8094.14,562.36,-0.57,38868.44
66900,224.47,956.16,1.00,1,1,1,1017.79,-3.11,27268.12,760.50,3.09,2113.60,576.71,3.08,2131.70,458.17,-2.85,4848.50,1262.94,-0.33,32924.30
81100,219.39,958.17,1.00,1,1,1,385.24,2.77,47940.22,388.42,3.13,26246.60,540.08,-2.99,8493.15,400.36,-2.97,5267.00,1707.10,-0.28,31700.20
110200,207.66,956.33,1.00,1,1,1,408.02,-2.99,7203.64,389.88,-2.67,6374.67,268.66,-3.02,9332.11,189.32,-2.06,11009.47,2157.22,-0.21,16113.10
124900,204.17,950.41,1.00,1,1,1,466.88,-2.10,25672.88,176.36,-2.76,14619.99,270.12,-2.65,6691.92,562.36,-0.57,39397.26,2217.51,-0.17,7289.77
161600,199.23,952.98,1.00,2,2,2,151.68,2.66,13164.60,167.49,-2.61,771.32,467.37,-0.81,16333.92,1262.94,-0.33,19826.35,1021.68,-0.27,32829.87
175900,196.82,946.06,1.00,2,2,2,512.36,-1.91,38798.19,1116.58,-0.63,83389.19,1351.56,-0.36,66537.82,1707.10,-0.28,31478.52,1029.01,-0.22,3581.13
205000,238.33,924.36,1.00,3,3,3,1609.81,-0.48,55552.32,2805.28,-0.31,61147.25,3026.56,-0.29,57782.74,2157.22,-0.21,16113.10,1022.90,-0.21,573.87
227100,333.44,901.74,1.00,1,1,1,4423.50,-0.23,130782.35,5331.00,-0.21,115852.35,3926.01,-0.23,41761.18,2217.51,-0.17,4848.85,960.00,-0.24,3260.15
242500,434.05,883.62,1.00,1,1,1,6638.28,-0.18,145130.03,5858.30,-0.16,38451.51,4656.32,-0.14,53724.53,2654.75,-0.17,28416.28,1010.04,-0.23,3341.62
257300,508.18,874.08,1.00,1,1,1,5050.36,-0.13,109065.96,3856.24,-0.02,142547.75,3751.11,-0.06,64731.74,2631.23,-0.16,2623.77,1173.92,-0.21,11167.64
272500,549.72,881.67,1.00,1,1,1,2777.97,0.18,167614.52,1750.34,0.27,146746.24,2236.54,0.05,102032.47,2429.18,-0.11,15246.93,1470.58,-0.18,19744.08
287300,558.83,887.94,1.00,1,1,1,747.17,0.60,143136.55,679.15,0.47,73904.80,957.74,0.26,88740.68,1589.04,-0.08,56892.11,1732.54,-0.14,18243.95
302400,567.82,890.87,1.00,1,1,1,626.33,0.32,15220.62,155.15,0.17,35305.89,236.61,0.42,48039.47,724.19,-0.01,57504.69,2073.35,-0.11,22727.54
316900,563.36,888.70,1.00,1,1,1,342.29,-2.69,66656.53,117.40,-2.50,18287.38,339.90,-3.02,39323.51,539.09,0.08,13295.28,2097.59,-0.09,3624.82
340000,564.28,888.24,1.00,1,1,1,44.25,-0.46,16058.27,724.40,-3.01,27031.21,383.43,-2.88,2888.52,691.87,-0.04,7290.05,2053.05,-0.06,3702.48
355000,536.00,885.11,1.00,1,1,1,1896.94,-3.03,128953.77,613.57,-2.94,8094.28,277.28,-0.39,41749.02,1180.81,-0.05,32604.84,1704.30,-0.03,23505.15
385000,537.24,882.63,1.00,2,2,2,92.53,-1.11,64369.97,1103.92,-0.11,56614.74,1133.43,-0.12,28978.61,1531.31,-0.03,11732.47,1196.78,-0.01,16947.93
399100,584.40,879.93,1.00,3,3,3,3350.14,-0.06,234390.25,3796.45,-0.04,191178.53,2577.33,-0.03,103034.02,1608.53,0.01,6607.73,957.13,0.02,17131.66
414100,647.61,877.81,1.00,3,3,3,4216.49,-0.03,58059.50,4793.87,-0.00,67422.20,3913.50,0.01,89442.31,1701.80,0.02,6330.95,835.05,0.00,8196.41
428500,725.34,879.31,1.00,1,1,1,5398.67,0.02,83935.91,4012.90,0.05,56339.95,3251.72,0.05,46923.87,1812.31,0.01,7685.41,771.07,-0.00,4469.96
450900,795.14,884.56,1.00,1,1,1,3124.60,0.08,102035.02,2083.76,0.13,86875.37,2346.47,0.09,40795.51,1676.44,-0.01,6257.82,759.25,-0.02,663.11
466900,804.64,890.01,1.00,1,1,1,684.79,0.52,157755.39,405.13,0.66,109112.71,991.89,0.14,84769.92,1359.05,-0.00,19845.19,772.27,0.01,1308.77
481400,804.88,892.15,1.00,1,1,1,148.88,1.46,41979.87,439.11,-3.02,56135.53,306.09,-2.99,89512.65,973.20,0.03,26752.57,725.02,0.00,3269.98
496200,791.87,888.41,1.00,1,1,1,914.54,-2.86,66292.48,775.93,-2.81,24185.51,271.86,-2.65,6844.80,420.49,0.11,37492.71,926.44,-0.01,13614.38
525400,772.61,881.01,1.00,1,1,1,706.72,-2.77,7505.11,212.05,-2.21,20955.05,203.53,-2.53,2548.60,27.83,0.64,13585.97,1312.92,0.00,13239.08
547000,785.41,879.79,1.00,1,1,1,595.14,-0.09,58685.80,517.34,0.09,31383.56,23.56,-0.73,9722.56,42.27,-3.13,3093.65,1630.70,0.01,14717.08
562000,791.47,882.71,1.00,1,1,1,448.35,0.45,20899.45,241.72,0.72,23448.93,329.76,0.23,21129.76,167.75,-2.99,8401.30,1739.80,0.01,7276.47
591700,793.54,886.90,1.00,1,1,1,157.58,1.11,11392.37,189.24,0.56,2119.32,220.12,0.67,5420.52,159.45,-0.20,10849.26,1754.04,0.01,656.88
606400,798.61,887.14,1.00,1,1,1,344.83,0.05,20527.12,188.19,0.58,365.10,181.28,2.72,23345.72,969.61,0.02,55409.34,1515.80,0.01,16206.63
620900,798.13,889.93,1.00,2,2,2,195.24,1.74,28727.49,648.86,3.08,55697.69,358.54,-0.15,36920.35,1915.52,0.01,65235.36,1414.62,-0.01,7392.95
636400,779.17,888.25,1.00,2,2,2,1227.80,-3.05,79194.05,536.98,-0.33,75783.26,1747.52,-0.03,89813.47,2468.05,-0.01,35741.52,1345.96,-0.03,4895.35
658600,817.26,883.30,1.00,3,3,3,1729.98,-0.13,132468.86,3659.39,-0.04,141888.14,3833.57,-0.03,93970.16,3300.21,-0.00,37488.11,1304.69,-0.04,1872.27
674000,916.68,883.27,1.00,3,3,3,6455.71,-0.00,308138.79,8081.52,0.00,287441.60,4875.72,-0.02,67696.16,3078.45,0.01,14503.35,1421.19,-0.03,7629.83
688100,1055.66,883.38,1.00,1,1,1,9857.22,0.00,241242.71,5920.59,-0.01,153339.33,5959.86,0.01,77520.62,2919.38,-0.01,11932.51,1407.28,-0.02,1158.30
717800,1175.98,880.70,1.00,1,1,1,4052.26,-0.02,195514.78,4556.76,0.01,46115.78,4190.77,0.02,59612.78,2923.09,-0.02,1255.50,1368.08,-0.01,1391.35
732700,1258.87,886.30,1.00,1,1,1,5575.65,0.07,106167.19,2168.00,0.12,161862.08,2170.06,0.01,135637.96,2499.95,-0.03,28409.38,1433.67,-0.02,4444.52
755000,1256.05,890.36,1.00,1,1,1,221.81,2.18,255278.30,684.23,-3.09,127844.37,555.16,-0.08,72539.35,1852.63,-0.05,29097.05,1359.95,-0.01,3318.71
770000,1233.38,885.04,1.00,1,1,1,1552.53,-2.91,99033.89,1495.27,-2.86,56313.82,658.60,-2.88,79768.22,953.13,-0.08,60048.16,1397.99,-0.01,2544.96
784900,1213.13,877.86,1.00,1,1,1,1442.15,-2.80,13272.81,661.30,-2.69,57022.92,733.17,-2.74,8016.43,216.37,-0.09,49447.61,1422.62,0.00,2275.73
814500,1206.84,872.32,1.00,1,1,1,283.06,-2.42,40008.80,259.81,-2.30,14644.39,427.22,-2.68,10405.91,337.71,-3.00,18595.99,1349.69,0.02,2524.58
830000,1205.34,869.11,1.00,1,1,1,228.81,-2.01,7539.29,86.76,-2.53,11388.13,62.63,-3.11,23949.28,279.04,-2.93,4004.02,1057.54,0.02,18848.11
845000,1204.68,870.80,1.00,1,1,1,121.13,1.94,21623.87,246.80,1.27,21326.64,107.79,1.25,9457.42,46.86,-3.13,15548.49,523.51,-0.01,35631.78
866500,1208.02,877.71,1.00,1,1,1,356.91,1.12,13421.25,259.12,1.09,2215.18,179.87,0.99,3757.62,186.89,0.39,10749.84,18.36,2.95,25191.24
881600,1209.09,879.19,1.00,1,1,1,121.39,0.94,15782.98,143.96,0.60,9797.17,312.23,0.58,10821.07,282.01,0.40,6302.62,492.16,-3.13,31402.05
911400,1213.35,881.36,1.00,1,1,1,160.34,0.47,2556.06,393.83,0.33,8664.88,394.72,0.34,3971.82,325.56,0.37,1499.15,662.79,-3.13,5725.96
927000,1226.03,884.93,1.00,1,1,1,844.20,0.27,44081.69,617.49,0.29,14382.76,431.20,0.27,2982.67,131.50,0.49,12545.57,739.47,-3.14,4943.19
963100,1243.94,890.51,1.00,1,1,1,519.60,0.30,9005.80,464.78,0.23,4318.50,512.64,0.17,2641.25,239.43,3.03,9856.26,729.03,-3.14,290.56
978900,1249.50,890.48,1.00,1,1,1,352.29,-0.01,13446.36,368.28,-0.19,12456.48,55.67,-2.11,34826.44,643.03,3.09,25578.43,731.13,3.14,280.07
994100,1255.16,888.40,1.00,2,2,2,396.30,-0.35,8959.32,910.40,-2.79,81654.85,1209.18,-3.02,77376.22,1051.63,3.10,26897.74,647.97,3.10,5707.19
1009100,1223.69,881.00,1.00,2,2,2,2154.81,-2.91,166346.48,2813.34,-3.06,130156.13,2376.18,-3.10,78288.38,1404.96,-3.14,23765.54,131.50,0.49,50955.53
1024300,1170.45,881.75,1.00,3,3,3,3502.89,3.13,99086.08,3947.70,3.11,78421.45,2783.34,-3.14,27500.31,1862.49,-3.09,30550.02,239.43,3.03,23408.61
1038300,1108.48,884.64,1.00,1,1,1,4431.72,3.10,66974.51,2771.68,3.09,84077.37,2795.36,3.13,4044.99,1896.14,-3.07,3212.22,643.03,3.09,28867.09
1068400,1048.36,887.45,1.00,1,1,1,1999.56,3.09,80802.60,2150.12,-3.14,21016.77,2359.60,-3.12,14877.27,1758.82,-3.09,4704.12,1051.63,3.10,13582.91
1090400,996.46,884.47,1.00,1,1,1,2362.99,-3.08,19463.63,1889.29,-2.99,18104.27,1544.89,-3.05,37540.22,2795.36,3.13,47545.20,1404.96,-3.14,16203.78
1105200,979.62,876.99,1.00,1,1,1,1244.57,-2.72,86230.93,593.78,-2.38,97507.92,630.06,-2.88,62824.76,2359.60,-3.12,30257.15,1862.49,-3.09,31375.69
1119200,984.07,872.68,1.00,1,1,1,442.63,-0.77,104887.76,958.03,-0.02,103044.82,593.78,-2.38,21611.70,1544.89,-3.05,58991.77,1896.14,-3.07,3212.22
1134800,1007.98,876.51,1.00,1,1,1,1552.05,0.16,85588.85,1552.05,0.16,40481.21,958.03,-0.02,92476.12,630.06,-2.88,59602.98,1758.82,-3.09,9076.53
