@RELATION gaze_labels

%@METADATA width_px 1920
%@METADATA height_px 1080
%@METADATA width_mm 540.00
%@METADATA height_mm 254.00
%@METADATA distance_mm 620.00


@ATTRIBUTE time INTEGER
@ATTRIBUTE x NUMERIC
@ATTRIBUTE y NUMERIC
@ATTRIBUTE confidence NUMERIC
@ATTRIBUTE handlabeller1 INTEGER
@ATTRIBUTE handlabeller2 INTEGER
@ATTRIBUTE handlabeller_final INTEGER
@ATTRIBUTE speed_1 numeric
@ATTRIBUTE direction_1 numeric
@ATTRIBUTE acceleration_1 numeric
@ATTRIBUTE speed_2 numeric
@ATTRIBUTE direction_2 numeric
@ATTRIBUTE acceleration_2 numeric
@ATTRIBUTE speed_4 numeric
@ATTRIBUTE direction_4 numeric
@ATTRIBUTE acceleration_4 numeric
@ATTRIBUTE speed_8 numeric
@ATTRIBUTE direction_8 numeric
@ATTRIBUTE acceleration_8 numeric
@ATTRIBUTE speed_16 numeric
@ATTRIBUTE direction_16 numeric
@ATTRIBUTE acceleration_16 numeric

%The number after speed, direction denotes the step size that was used for the calculation.
%Acceleration was calculated between two adjacent samples of the already low pass filtered velocity

@DATA
0,458.86,868.08,1.00,1,1,1,0.00,0.00,0.00,533.84,2.85,0.00,275.31,2.38,0.00,318.28,1.90,0.00,159.13,2.13,0.00
15200,451.08,870.38,1.00,1,1,1,533.84,2.85,35120.82,275.31,2.38,20750.76,325.03,1.55,16224.89,329.11,1.79,2507.13,119.70,1.65,5072.13
45300,449.85,876.70,1.00,2,2,2,213.93,1.76,15770.40,325.03,1.55,8193.30,318.28,1.90,3788.71,321.48,1.57,2362.09,117.14,1.61,178.19
60800,451.43,885.19,1.00,3,3,3,557.57,1.39,23685.10,411.55,1.59,5680.46,329.11,1.79,2458.60,125.59,2.08,14195.47,78.90,1.77,2676.17
90600,449.46,895.34,1.00,1,1,1,346.73,1.76,8971.11,352.07,2.02,5759.46,321.48,1.57,2385.87,159.13,2.13,1155.04,37.61,-3.05,2808.50
105600,444.61,899.42,1.00,1,1,1,422.39,2.44,17729.86,187.32,1.51,13971.40,125.59,2.08,14668.65,119.70,1.65,5139.76,119.73,-2.75,5628.92
120900,449.81,901.00,1.00,1,1,1,355.53,0.30,44726.65,141.39,-1.24,21070.02,103.56,-2.18,12745.19,117.14,1.61,350.56,158.27,-2.54,3169.46
143800,446.38,894.31,1.00,1,1,1,328.19,-2.04,27497.83,322.75,-1.94,10178.77,164.84,-1.11,6402.32,78.90,1.77,1811.38,454.74,-0.12,25458.71
159000,445.42,889.52,1.00,1,1,1,322.00,-1.77,5908.22,197.33,-0.99,17227.75,107.85,-1.65,5992.79,37.61,-3.05,5506.13,619.70,0.12,13669.65
174000,449.65,889.33,1.00,1,1,1,282.22,-0.04,30639.30,182.43,0.82,19906.72,55.79,0.64,10030.17,119.73,-2.75,5628.92,1084.62,0.06,31150.76
189700,449.25,893.60,1.00,1,1,1,273.26,1.66,26674.23,225.21,1.64,10713.28,71.99,1.82,4625.25,158.27,-2.54,3088.71,1527.18,0.04,28263.58
205300,449.13,896.36,1.00,1,1,1,177.00,1.61,6214.35,117.68,2.91,14155.66,280.49,2.98,16642.89,454.74,-0.12,37372.08,1617.72,0.02,6223.66
235100,444.05,894.82,1.00,1,1,1,178.42,-2.85,9430.39,465.03,-2.97,12063.47,252.38,-2.85,4194.54,1424.48,0.00,32706.17,1649.06,-0.02,2073.87
250100,428.60,892.86,1.00,2,2,2,1038.16,-3.02,57517.93,486.12,-2.66,9883.99,790.99,-0.16,68253.72,2285.34,0.00,57391.53,1599.25,-0.04,3916.80
265400,430.97,888.03,1.00,2,2,2,351.58,-1.11,78397.97,2573.81,-0.07,195967.69,3213.32,-0.02,158933.90,3068.10,-0.00,51170.13,1512.37,-0.04,5698.58
281200,508.42,886.91,1.00,2,2,2,4902.30,-0.01,300809.02,6762.75,0.01,266045.59,5152.51,-0.01,122830.12,3260.15,-0.01,12253.50,1550.15,-0.03,2631.97
296500,641.29,890.02,1.00,3,3,3,8686.30,0.02,247849.48,7332.57,0.01,37329.30,6774.59,0.01,106216.21,3536.67,-0.02,18146.90,1490.06,-0.02,4113.31
318100,778.96,890.96,1.00,1,1,1,6374.12,0.01,107199.23,6784.71,0.01,25372.68,6035.62,0.01,34216.41,3507.34,-0.02,1566.41,1707.08,-0.01,10078.32
333000,888.91,893.23,1.00,1,1,1,7380.32,0.02,67831.91,4486.88,0.01,154220.90,3830.11,-0.01,148204.46,3159.57,-0.01,23441.35,2103.02,-0.01,26573.02
349000,917.60,892.34,1.00,1,1,1,1794.25,-0.03,349326.97,416.01,-0.45,257438.80,1688.26,-0.07,134238.63,2601.00,-0.01,34918.19,2479.36,-0.01,23522.99
364200,900.57,887.54,1.00,1,1,1,1163.99,-2.87,192453.82,1191.97,-2.89,100891.37,140.44,-1.88,113623.99,1544.83,-0.03,69525.08,2944.17,-0.00,30593.73
379500,882.35,883.45,1.00,1,1,1,1220.63,-2.92,5603.95,346.50,-2.85,55292.29,497.07,-2.84,28248.95,1182.09,-0.03,23713.64,3040.21,0.00,6295.95
409300,885.61,883.03,1.00,1,1,1,110.23,-0.13,44456.64,49.81,-1.90,10740.93,68.55,-2.06,15146.91,1227.37,-0.02,1534.04,3046.07,0.01,389.80
424700,881.62,881.32,1.00,1,1,1,281.78,-2.73,24730.65,224.37,-0.12,15558.63,864.74,0.03,58464.90,1765.21,-0.00,34986.10,2701.88,0.01,22357.82
462400,897.43,881.58,1.00,2,2,2,419.45,0.02,18261.56,1632.02,0.05,37443.26,2415.91,0.03,41145.03,2457.42,0.02,18390.21,2292.12,0.00,10875.69
476700,966.37,885.79,1.00,3,3,3,4829.70,0.06,308440.38,6504.21,0.04,340725.52,3851.09,0.03,100367.92,2674.22,0.03,15221.69,1783.27,-0.01,35607.33
490900,1082.66,888.89,1.00,1,1,1,8192.30,0.03,237288.34,7776.63,0.03,89794.76,6624.52,0.03,195312.16,2937.35,0.02,18541.44,1365.82,-0.01,29412.33
506100,1194.91,892.15,1.00,1,1,1,7388.32,0.03,52907.64,6738.28,0.03,68312.47,5287.61,0.03,88010.91,2792.29,0.03,9601.86,1230.75,-0.02,8903.36
521100,1286.08,894.50,1.00,1,1,1,6079.60,0.03,87260.70,3356.87,0.02,225439.20,3567.86,0.02,114677.98,3187.17,0.02,26340.83,1261.91,-0.02,2101.85
544000,1322.11,894.73,1.00,1,1,1,1573.64,0.01,196784.01,1003.10,-0.04,102914.80,1725.90,0.01,80435.58,2433.66,0.00,32982.62,1315.53,-0.01,2348.79
558400,1323.46,892.84,1.00,1,1,1,160.76,-0.95,103265.55,285.83,-0.06,49813.34,670.07,-0.05,73460.39,1515.11,-0.01,63810.95,1528.57,-0.01,14809.49
586900,1334.35,894.01,1.00,1,1,1,384.54,0.11,11797.82,379.85,-0.05,3299.46,92.36,-1.40,23018.29,656.43,-0.08,30236.36,1490.71,-0.00,1335.01
601200,1339.69,891.97,1.00,1,1,1,399.52,-0.37,12845.91,349.36,-2.61,48803.46,249.32,-2.85,17842.16,96.43,-1.83,47557.31,1191.09,0.01,20974.89
623400,1323.38,887.51,1.00,1,1,1,761.54,-2.87,49967.12,978.18,-3.00,30169.99,693.44,-2.93,20064.00,327.07,-2.76,12623.39,528.35,0.02,29855.66
637400,1304.62,887.10,1.00,1,1,1,1340.84,-3.12,44994.79,1165.48,-3.05,13809.62,886.71,-2.95,13865.47,95.01,-1.40,22895.81,294.67,-3.13,58786.59
651900,1290.31,884.43,1.00,1,1,1,1003.73,-2.96,26670.33,778.81,-2.87,29177.41,754.20,-2.92,9288.98,148.04,-2.29,7932.10,968.63,-3.12,46480.65
666900,1282.49,880.90,1.00,1,1,1,571.61,-2.72,31214.61,399.28,-2.56,27735.11,372.43,-0.33,72592.50,687.60,-3.06,39329.46,1186.34,-3.12,14514.70
682000,1280.26,877.84,1.00,1,1,1,251.16,-2.20,24794.21,1425.41,-0.02,117121.13,464.56,-0.17,7631.28,1253.23,3.14,37850.80,1194.12,-3.13,879.21
697200,1325.67,879.84,1.00,1,1,1,2990.59,0.04,207471.85,1091.32,0.03,22498.05,537.43,3.08,65827.23,1976.91,3.14,47611.09,1219.34,-3.13,1672.11
719700,1321.38,879.24,1.00,1,1,1,192.71,-3.00,141443.34,1689.78,3.10,123519.48,1565.32,3.07,45685.87,2466.93,3.14,21781.48,1288.05,-3.13,3054.29
748800,1238.56,883.50,1.00,2,2,2,2849.88,3.09,91440.96,3215.20,3.09,52422.02,3401.97,3.12,63215.08,2161.93,3.13,10512.26,1324.00,-3.12,1274.27
780300,1126.75,888.46,1.00,3,3,3,3552.73,3.10,22323.78,5314.68,3.12,66761.46,4668.77,3.12,40223.34,1876.43,3.10,9167.73,1293.30,-3.12,976.23
795000,993.06,887.91,1.00,1,1,1,9095.17,-3.14,377502.81,7659.99,-3.13,159915.67,3613.31,3.13,71829.01,2171.09,3.12,20194.29,1170.49,-3.10,8497.17
809800,900.79,886.86,1.00,1,1,1,6234.60,-3.13,193318.14,1886.30,-3.13,390114.86,2250.14,3.13,92106.45,2206.10,3.12,2550.32,1236.60,3.14,5537.24
840500,907.23,887.08,1.00,1,1,1,210.01,0.03,209920.43,781.73,0.09,86842.90,710.39,-3.14,50158.67,1913.96,3.14,9649.64,1562.23,3.10,10724.91
862500,941.81,890.71,1.00,1,1,1,1580.17,0.10,62307.84,739.68,0.02,3084.85,494.95,0.06,54766.19,1338.00,-3.10,26414.85,1888.97,3.09,14903.55
877400,934.52,887.72,1.00,1,1,1,528.68,-2.75,140456.65,48.64,-1.86,50737.76,379.57,-0.11,9157.24,297.47,-2.80,70969.37,2401.98,3.10,34470.84
892000,941.40,889.34,1.00,1,1,1,484.03,0.23,69145.00,121.40,-2.02,5051.27,210.79,-2.12,34708.60,119.71,-0.11,27980.34,2659.17,3.11,17694.38
908500,932.90,884.31,1.00,1,1,1,598.64,-2.61,64873.60,363.40,-2.15,14767.59,385.00,-0.65,25383.58,789.07,3.03,55077.25,2461.78,3.13,12197.61
923700,935.08,879.70,1.00,1,1,1,335.61,-1.13,43374.12,774.40,-0.49,58149.46,391.87,-2.96,46716.70,1905.42,3.07,73507.83,2167.37,3.14,19433.62
938000,953.03,873.52,1.00,2,2,2,1327.40,-0.33,78215.38,613.70,2.84,96627.59,1989.48,3.03,113128.42,2694.51,3.08,55199.16,1644.63,3.13,36573.19
953100,917.85,885.03,1.00,2,2,2,2451.65,2.83,250261.12,4172.34,2.98,236109.05,3269.89,3.03,84799.89,3203.60,3.11,34114.50,1300.41,3.12,22805.43
974700,801.96,898.55,1.00,3,3,3,5401.29,3.03,140650.93,4780.98,3.04,31118.41,4918.93,3.05,76433.33,3080.82,3.12,5864.87,1440.06,3.13,6516.40
1005000,670.96,909.88,1.00,1,1,1,4339.68,3.06,35357.23,5534.46,3.09,26223.23,5298.16,3.09,14833.53,3011.64,3.11,2308.59,1634.06,-3.13,6492.73
1020200,550.48,911.45,1.00,1,1,1,7927.28,3.13,237714.29,6208.25,-3.12,52945.16,4050.24,-3.13,83958.88,2954.85,3.09,5353.33,1543.66,-3.13,5986.63
1035400,482.28,905.39,1.00,1,1,1,4504.08,-3.05,228729.88,1868.81,-2.84,291942.82,2704.37,-3.03,91221.81,2671.31,3.12,19155.57,1525.34,-3.13,1234.32
1049900,497.40,895.21,1.00,1,1,1,1257.21,-0.59,381895.07,1034.33,-0.46,187240.09,620.55,-2.73,146228.71,2063.51,-3.11,42790.16,1403.45,3.13,8731.38
1065000,509.71,891.79,1.00,1,1,1,845.97,-0.27,34926.57,400.63,-0.04,45632.29,615.58,-0.27,77158.71,1344.62,-2.99,49441.98,1377.27,3.11,2467.00
1087300,512.38,894.65,1.00,1,1,1,175.58,0.82,35020.07,333.78,0.24,5442.47,212.46,-0.37,18151.84,422.92,-2.67,42698.36,1459.87,3.09,3908.60
1101500,521.54,894.69,1.00,1,1,1,645.43,0.00,38078.31,169.41,-1.96,32055.20,130.37,-2.18,19310.45,175.78,-0.90,34454.05,1382.82,3.11,5696.27
1116000,510.51,890.16,1.00,1,1,1,822.43,-2.75,99386.65,681.29,-2.61,38270.69,244.39,-2.55,9103.13,65.91,-0.49,8171.75,1131.04,3.13,17439.75
1129900,504.90,884.83,1.00,1,1,1,557.19,-2.38,26194.20,316.78,-2.74,26615.10,310.34,-2.75,6166.36,48.81,0.21,3050.15,843.63,-3.12,20888.82
1160500,497.52,884.69,1.00,1,1,1,241.12,-3.12,13490.51,125.37,3.10,6870.16,38.10,3.13,9009.25,16.23,2.15,1854.22,507.60,-3.09,11000.00
1182500,498.31,885.10,1.00,1,1,1,40.34,0.48,12630.19,210.01,0.53,14660.26,156.60,0.60,8593.61,151.10,2.92,6359.55,263.74,-3.10,11086.25
1212100,506.85,890.20,1.00,2,2,2,336.16,0.54,9996.91,468.14,0.41,8816.70,224.11,0.73,2419.48,338.14,2.89,6325.00,323.18,3.11,2159.72
1227100,517.45,893.44,1.00,2,2,2,738.80,0.30,28015.15,266.23,1.00,19252.28,198.78,1.54,11280.97,488.27,2.91,10024.72,389.68,3.10,4434.98
1241200,511.01,896.74,1.00,3,3,3,513.32,2.67,82522.17,675.57,2.82,55519.30,765.79,2.87,52671.34,640.14,2.95,10889.36,417.75,3.12,2098.09
1256400,498.70,899.78,1.00,3,3,3,834.15,2.90,23323.94,1414.17,3.00,50086.23,1351.58,3.03,40035.58,658.90,2.96,1371.16,466.76,-3.13,3333.45
1279800,456.93,904.19,1.00,1,1,1,1794.83,3.04,41674.17,1883.87,3.09,20918.47,1560.86,3.08,9483.06,809.06,3.06,7134.10,452.74,-3.11,683.84
1294700,426.64,903.57,1.00,1,1,1,2033.04,-3.12,22704.39,1757.78,-3.12,12079.01,1353.49,3.12,14371.75,943.15,3.12,9579.10,164.66,-3.13,19336.18
1310200,403.50,903.23,1.00,1,1,1,1493.20,-3.13,34834.41,685.37,-3.06,69316.88,889.03,-3.04,31325.78,854.55,3.14,5877.71,384.00,-0.02,35394.21
1324900,406.01,901.96,1.00,1,1,1,191.00,-0.47,113249.97,157.09,-1.53,47481.14,508.66,-2.91,26536.77,795.22,-3.09,5142.80,1029.19,0.00,43898.75
1340000,403.71,898.55,1.00,1,1,1,272.48,-2.16,23299.37,356.74,-2.60,20808.94,223.91,-2.75,19163.06,609.74,-2.93,14134.85,1603.57,0.00,38038.97
1355100,396.76,896.43,1.00,1,1,1,480.96,-2.85,21158.22,350.55,-3.04,10085.17,347.31,-2.83,8282.47,235.83,-0.61,52304.54,1813.66,0.00,13915.88
1385200,387.95,896.89,1.00,1,1,1,293.08,3.09,7584.43,350.05,-2.96,905.36,414.34,-2.77,2326.04,1455.80,-0.10,41711.05,1669.98,-0.01,4842.88
1407500,378.72,893.10,1.00,2,2,2,447.31,-2.75,9916.34,518.33,-2.56,10693.18,712.20,-0.21,48579.77,2705.47,-0.04,56270.87,1655.34,-0.03,1326.35
1422400,371.85,886.28,1.00,2,2,2,649.72,-2.36,19541.72,2525.92,-0.12,197422.55,3300.74,-0.06,174365.11,3766.92,-0.01,71527.26,1870.30,-0.04,14465.36
1437600,454.23,884.22,1.00,2,2,2,5422.01,-0.03,387548.12,7900.75,-0.02,354859.73,6873.12,-0.02,235469.75,4291.46,-0.00,34585.47,1890.10,-0.03,1552.88
1452500,609.63,882.57,1.00,3,3,3,10429.76,-0.01,336169.77,11249.92,0.00,225115.83,9461.44,0.01,174373.50,4095.09,-0.01,13311.20,1966.29,-0.02,5429.54
1467600,791.73,885.54,1.00,1,1,1,12061.22,0.02,109876.72,11031.71,0.03,22856.71,9243.96,0.02,15243.62,4244.14,-0.01,9875.93,2705.47,-0.04,49116.56
1482500,940.45,891.81,1.00,1,1,1,9990.23,0.04,140288.48,7234.07,0.04,254968.83,4748.43,0.02,301714.92,4339.88,-0.00,6884.58,3766.92,-0.01,71527.26
1497500,1007.86,894.06,1.00,1,1,1,4496.40,0.03,366275.89,1166.06,-0.02,404711.70,2336.24,0.00,160860.28,3434.05,0.00,60415.97,4291.46,-0.00,35046.61
1535100,1001.77,890.42,1.00,1,1,1,188.67,-2.60,123999.49,455.22,-2.80,42544.46,602.44,-0.15,46364.88,2434.58,0.03,26650.64,4095.09,-0.01,5274.92
1550400,985.17,885.99,1.00,1,1,1,1122.95,-2.88,61631.47,465.31,-2.69,3517.15,172.35,-2.66,48922.30,2336.24,0.00,7636.52,4244.14,-0.01,9746.83
1564700,989.41,884.35,1.00,1,1,1,317.90,-0.37,97368.93,178.48,0.04,44255.00,125.70,2.80,8889.15,602.44,-0.15,121910.45,4339.88,-0.00,7173.45
1594500,993.03,886.33,1.00,1,1,1,138.72,0.50,8457.62,218.75,1.21,7421.86,178.48,0.04,10019.68,172.35,-2.66,25117.83,3434.05,0.00,30410.72
1610000,992.92,893.62,1.00,1,1,1,469.82,1.59,27310.44,469.82,1.59,17965.81,218.75,1.21,14269.12,125.70,2.80,8200.96,2434.58,0.03,64649.30
