@RELATION gaze_labels

%@METADATA width_px 1920
%@METADATA height_px 1080
%@METADATA width_mm 540.00
%@METADATA height_mm 254.00
%@METADATA distance_mm 620.00


@ATTRIBUTE time INTEGER
@ATTRIBUTE x NUMERIC
@ATTRIBUTE y NUMERIC
@ATTRIBUTE confidence NUMERIC
@ATTRIBUTE handlabeller1 INTEGER
@ATTRIBUTE handlabeller2 INTEGER
@ATTRIBUTE handlabeller_final INTEGER
@ATTRIBUTE speed_1 numeric
@ATTRIBUTE direction_1 numeric
@ATTRIBUTE acceleration_1 numeric
@ATTRIBUTE speed_2 numeric
@ATTRIBUTE direction_2 numeric
@ATTRIBUTE acceleration_2 numeric
@ATTRIBUTE speed_4 numeric
@ATTRIBUTE direction_4 numeric
@ATTRIBUTE acceleration_4 numeric
@ATTRIBUTE speed_8 numeric
@ATTRIBUTE direction_8 numeric
@ATTRIBUTE acceleration_8 numeric
@ATTRIBUTE speed_16 numeric
@ATTRIBUTE direction_16 numeric
@ATTRIBUTE acceleration_16 numeric

%The number after speed, direction denotes the step size that was used for the calculation.
%Acceleration was calculated between two adjacent samples of the already low pass filtered velocity

@DATA
0,238.27,931.29,1.00,1,1,1,0.00,0.00,0.00,780.76,-2.90,0.00,385.95,-2.78,0.00,71.81,-2.52,0.00,78.20,2.86,0.00
15500,226.52,928.38,1.00,1,1,1,780.76,-2.90,50371.43,385.95,-2.78,25833.54,104.28,-0.90,27664.72,116.39,0.55,12132.84,75.05,0.60,8940.09
37300,224.82,926.16,1.00,1,1,1,128.46,-2.22,31427.62,104.28,-0.90,19669.87,71.81,-2.52,5923.94,237.19,0.60,5555.79,86.20,1.33,2710.05
52600,228.92,925.34,1.00,1,1,1,273.15,-0.20,22839.57,312.92,0.23,18644.92,116.39,0.55,12291.44,220.85,1.01,6158.44,139.77,2.25,7219.88
68400,234.28,928.42,1.00,1,1,1,391.45,0.52,16329.43,271.59,1.02,14411.57,237.19,0.60,7665.59,78.20,2.86,16058.94,55.59,0.62,9714.08
83400,233.28,932.48,1.00,1,1,1,279.23,1.81,27598.72,213.81,1.17,4510.95,220.85,1.01,6281.61,75.05,0.60,9238.10,335.88,-0.33,20432.19
98400,236.79,934.32,1.00,1,1,1,264.54,0.48,22415.38,167.24,0.98,3918.83,134.68,2.35,15400.14,86.20,1.33,3938.61,700.03,-0.38,24339.15
112500,235.99,936.52,1.00,1,1,1,166.14,1.92,20797.74,277.43,-3.11,28257.95,32.81,0.79,9810.22,139.77,2.25,7834.34,1022.72,-0.35,22955.22
127600,228.69,934.10,1.00,1,1,1,509.05,-2.82,35153.98,77.19,-2.02,16686.10,151.62,2.90,11316.27,55.59,0.62,10164.41,647.30,-0.29,25080.55
148700,234.79,934.00,1.00,1,1,1,288.91,-0.02,37322.45,82.58,2.06,6767.67,248.32,2.94,4596.50,335.88,-0.33,14525.25,710.28,-0.22,3657.13
162600,227.34,936.66,1.00,1,1,1,568.84,2.80,60978.60,447.32,2.80,28072.68,150.58,-0.10,28663.90,700.03,-0.38,26265.27,673.07,-0.21,2787.66
191500,216.78,940.49,1.00,2,2,2,388.87,2.79,6227.99,310.64,-0.28,26212.68,596.72,-0.37,15673.47,1022.72,-0.35,11199.61,570.34,-0.23,3575.26
206900,240.57,932.86,1.00,2,2,2,1622.39,-0.31,130586.98,1778.78,-0.36,95413.82,1375.67,-0.37,50581.55,1285.74,-0.29,17680.81,493.97,-0.27,5193.32
229300,279.70,916.78,1.00,3,3,3,1888.51,-0.39,13408.48,2669.99,-0.38,39834.81,2518.64,-0.33,51106.29,1341.10,-0.26,2917.64,541.46,-0.28,2141.79
243400,331.05,896.65,1.00,1,1,1,3911.72,-0.37,143525.68,3477.79,-0.32,58983.01,2659.19,-0.30,11558.75,1212.68,-0.26,9109.67,811.87,-0.21,19512.28
258500,376.23,885.25,1.00,1,1,1,3085.89,-0.25,61903.77,2669.13,-0.20,58191.39,2367.34,-0.23,22972.35,1204.35,-0.29,2296.84,1150.58,-0.16,22669.96
272600,407.39,880.95,1.00,1,1,1,2230.93,-0.14,64022.58,1320.94,0.01,99546.71,1057.05,-0.12,93687.80,880.06,-0.31,23040.12,1423.69,-0.12,19574.41
288100,415.33,885.46,1.00,1,1,1,588.90,0.52,116083.12,145.47,1.13,81594.40,162.92,0.24,58499.42,732.18,-0.27,9834.33,1570.18,-0.11,9578.26
318900,410.28,887.04,1.00,1,1,1,171.85,2.84,23289.09,494.70,3.03,18136.36,298.68,2.89,14566.35,931.18,-0.09,8026.79,1607.51,-0.11,1223.28
341100,389.29,888.50,1.00,1,1,1,947.78,3.07,35206.84,597.33,3.10,4966.91,246.00,3.10,3493.34,1300.22,-0.01,17017.71,1607.55,-0.11,614.86
371800,378.70,888.37,1.00,2,2,2,344.69,-3.13,19703.97,58.24,-0.85,20812.23,816.32,-0.05,34603.39,1571.26,-0.01,8835.58,1555.38,-0.10,1849.12
386900,391.04,886.50,1.00,3,3,3,826.57,-0.15,77352.95,3395.01,-0.05,222178.65,2564.20,-0.03,115763.69,1787.81,-0.01,14347.01,1464.37,-0.07,6520.41
400800,477.05,883.83,1.00,3,3,3,6190.80,-0.03,386405.18,6565.18,-0.02,228218.93,4386.71,-0.03,131115.82,2050.85,-0.01,18932.57,1259.45,-0.05,15016.18
415800,580.73,882.35,1.00,1,1,1,6912.55,-0.01,48673.23,5172.91,-0.02,92822.50,4898.17,-0.01,34598.27,2020.93,-0.01,2181.43,1091.96,-0.01,11461.45
437400,666.33,879.24,1.00,1,1,1,3965.35,-0.04,136549.08,3549.24,0.00,75334.61,3581.62,0.01,61058.06,2378.65,-0.01,16566.39,936.04,0.01,7332.25
451500,707.44,882.47,1.00,1,1,1,2924.74,0.08,78807.44,1621.74,0.13,138321.66,1527.76,0.02,145676.61,2302.23,-0.01,5423.20,944.39,-0.00,1293.87
466900,713.80,885.21,1.00,1,1,1,449.46,0.41,162573.54,52.57,2.13,106794.63,636.51,0.13,58330.39,1622.25,-0.02,44178.18,1211.14,-0.01,17322.13
497900,706.14,884.53,1.00,1,1,1,247.85,-3.05,22232.11,6.87,1.41,1535.66,112.33,0.19,16916.66,863.04,-0.01,24493.32,1768.66,-0.01,17988.05
512700,713.84,885.52,1.00,1,1,1,524.69,0.13,52189.62,323.84,-0.05,21835.05,97.88,-2.26,13371.16,208.59,0.20,44636.90,2416.94,-0.01,43802.73
528000,715.88,884.09,1.00,1,1,1,162.75,-0.61,27408.99,250.78,-2.24,33507.59,63.83,-2.08,2406.54,20.06,2.21,14231.72,2717.70,-0.00,19698.16
543800,709.00,879.41,1.00,1,1,1,526.65,-2.55,38200.33,388.94,-2.89,15391.49,269.65,-3.13,15430.50,420.07,-0.00,27358.62,2711.05,0.01,2038.70
558900,704.23,881.14,1.00,1,1,1,335.86,2.79,28313.04,399.20,2.73,16885.90,150.55,3.07,7965.84,1487.93,-0.01,70721.94,2275.71,0.01,28833.07
580500,695.56,885.26,1.00,1,1,1,444.18,2.70,5301.20,107.60,1.18,19037.41,885.65,0.08,47904.19,2453.20,-0.01,44688.85,1950.89,0.01,15045.55
595600,705.73,884.79,1.00,2,2,2,673.75,-0.05,72636.68,1936.19,-0.00,125698.01,2647.69,0.00,116955.11,3075.39,-0.00,41269.05,1782.66,0.00,11256.24
624000,779.79,885.19,1.00,2,2,2,2607.83,0.01,68143.80,4862.68,-0.01,103054.18,4729.42,-0.01,73332.41,3672.25,0.02,21146.77,1792.46,-0.00,470.74
638800,915.78,882.00,1.00,3,3,3,9190.89,-0.02,444903.52,7961.17,-0.02,209362.39,5339.68,-0.00,41371.44,3425.11,0.01,16727.96,1897.15,-0.01,7083.35
661600,1079.09,880.14,1.00,1,1,1,7163.16,-0.01,89040.24,5728.08,0.00,98126.23,6403.01,0.01,46748.16,3362.63,0.01,3010.16,1998.22,-0.01,4432.75
691900,1219.94,883.03,1.00,1,1,1,4649.48,0.02,83181.46,5085.83,0.04,22375.43,4072.31,0.02,76938.17,3244.48,-0.00,3987.91,1804.25,0.00,6414.74
705900,1304.17,889.97,1.00,1,1,1,6037.39,0.08,101848.12,2026.64,0.07,218614.54,2208.72,0.04,133183.26,3110.32,-0.00,9588.57,1416.04,0.04,28084.03
734800,1306.65,889.34,1.00,1,1,1,88.39,-0.25,206016.67,262.12,-3.02,79187.55,741.19,0.01,50800.23,2251.36,-0.00,29721.96,892.27,0.10,18256.84
757500,1290.74,888.38,1.00,1,1,1,702.03,-3.08,34655.45,732.65,-2.92,20816.02,207.37,-2.73,41209.80,1561.36,0.01,30407.55,431.41,0.20,20495.67
772500,1279.67,883.40,1.00,1,1,1,809.12,-2.72,19483.95,185.20,-1.96,43040.23,386.06,-2.81,11994.85,321.54,0.03,82661.57,68.54,1.35,27201.24
787600,1288.63,883.22,1.00,1,1,1,593.42,-0.02,90669.61,125.54,-0.77,11975.42,525.39,-0.21,58162.09,1171.21,3.10,98819.65,176.99,2.93,12647.44
801600,1282.30,880.86,1.00,1,1,1,483.18,-2.78,75550.79,1120.29,-0.04,73565.61,243.93,3.08,54819.36,2445.49,3.09,91043.74,556.77,3.11,27405.95
816600,1321.09,881.82,1.00,2,2,2,2587.19,0.02,203201.07,569.84,2.94,112367.53,2519.01,3.05,151677.01,3707.76,3.09,84164.34,1069.45,3.12,34181.28
832400,1265.09,884.33,1.00,2,2,2,3547.79,3.10,388059.74,5944.78,3.06,340473.03,4524.01,3.05,126898.52,4042.11,3.10,21273.46,1572.73,3.13,31863.94
847400,1138.57,896.36,1.00,2,2,2,8472.84,3.05,328843.48,7873.00,3.06,128551.27,7435.92,3.08,194462.23,4005.85,3.12,5063.48,1879.85,-3.13,20629.25
868800,979.47,907.67,1.00,3,3,3,7453.48,3.07,48445.10,8706.33,3.09,41190.35,6850.94,3.10,28114.74,3647.45,3.13,16855.36,1957.26,-3.13,3621.72
883600,823.75,911.11,1.00,1,1,1,10524.24,3.12,209537.21,6028.74,-3.14,182762.86,5117.00,-3.14,118215.38,3831.68,3.13,12451.04,1811.44,-3.13,9853.30
913400,710.59,906.03,1.00,1,1,1,3801.01,-3.10,226058.33,2210.93,-2.99,129368.23,2942.20,-3.06,73799.55,3389.15,3.13,14850.15,1791.41,3.14,953.69
927800,727.16,896.22,1.00,1,1,1,1337.19,-0.53,345439.77,1029.78,-0.52,214200.58,891.81,-2.82,144870.04,2564.57,-3.11,57788.97,1869.73,3.13,5457.17
949500,742.88,887.61,1.00,1,1,1,826.01,-0.50,23609.65,810.08,-0.27,14498.52,919.58,-0.27,79817.67,1543.34,-3.04,47512.88,1638.75,3.13,10663.92
964200,755.57,888.32,1.00,1,1,1,864.78,0.06,31774.66,878.61,0.09,20994.77,549.07,-0.28,25206.28,480.41,-2.82,73528.27,1190.54,3.11,30513.71
978900,768.61,889.86,1.00,1,1,1,893.25,0.12,4122.78,232.48,-0.30,45551.58,44.22,-1.60,36729.93,227.71,-0.61,43677.12,448.21,3.04,50626.47
994200,762.23,886.24,1.00,1,1,1,479.94,-2.63,88134.04,600.18,-2.93,52988.90,132.50,-2.79,8054.05,57.45,-1.61,13238.62,480.61,0.03,60571.28
1022900,742.78,884.36,1.00,1,1,1,680.59,-3.05,10857.10,285.70,-3.02,11034.48,301.76,-2.98,6031.78,296.77,0.01,10635.37,1290.68,-0.01,28250.95
1059500,743.70,884.01,1.00,1,1,1,26.91,-0.36,19256.71,48.33,2.82,6633.87,377.45,3.12,2701.21,1007.81,0.02,19427.96,1811.23,-0.02,14224.49
1073500,740.46,885.13,1.00,1,1,1,244.97,2.81,19418.88,600.59,2.97,39484.79,571.86,0.08,67717.18,1979.53,0.03,69409.41,2180.83,-0.02,26401.88
1088100,726.79,887.02,1.00,2,2,2,945.13,3.00,48379.57,1629.36,0.06,151874.17,2323.90,0.04,120042.87,3003.35,0.03,70126.94,2026.56,-0.01,10653.07
1103000,788.43,888.18,1.00,2,2,2,4137.47,0.02,340483.12,3880.14,0.03,151191.04,4570.25,0.04,150772.34,3956.43,0.03,63965.67,1944.65,0.01,5795.11
1141600,934.31,892.44,1.00,3,3,3,3780.87,0.03,9300.53,6186.21,0.03,59747.44,6813.83,0.03,58142.47,4641.82,0.03,17757.33,1885.88,0.00,1539.50
1156700,1120.46,898.81,1.00,1,1,1,12335.03,0.03,566505.01,12080.70,0.03,390380.05,7207.92,0.03,26098.76,4435.47,0.02,14201.33,1851.05,-0.00,2337.05
1171400,1294.20,901.68,1.00,1,1,1,11820.40,0.02,37894.93,9055.72,0.02,205844.12,7878.82,0.02,45695.03,4206.35,0.01,15778.65,1950.47,0.00,6812.46
1186400,1389.37,903.78,1.00,1,1,1,6346.40,0.02,364947.34,3561.49,0.01,366306.50,4246.97,-0.02,242565.25,3489.86,0.01,47767.40,1914.35,-0.00,2513.21
1200400,1397.48,902.42,1.00,1,1,1,587.21,-0.17,412184.88,794.11,-2.73,307414.87,926.34,-0.17,238177.35,2997.36,-0.01,35311.87,1945.45,-0.01,2540.61
1215100,1368.45,894.74,1.00,1,1,1,2042.69,-2.88,176124.71,1206.10,-2.89,29912.50,400.59,-2.74,87235.80,1690.04,-0.04,89086.33,1708.45,-0.02,16136.89
1237300,1354.37,891.37,1.00,1,1,1,652.26,-2.91,62644.73,181.79,-2.77,46210.79,552.14,-2.84,7139.25,621.16,-0.15,48383.58,925.31,0.02,35321.02
1266700,1359.71,891.32,1.00,1,1,1,181.86,-0.01,28228.49,49.37,-1.50,5911.16,160.96,-2.68,13403.85,394.88,-2.79,33545.10,212.65,2.73,38178.99
1281800,1354.53,889.18,1.00,1,1,1,371.52,-2.75,36000.91,129.08,-2.47,7233.27,348.74,-0.09,32676.21,657.87,-2.89,17762.17,1604.36,3.05,92993.96
1296600,1356.69,888.92,1.00,1,1,1,147.14,-0.12,34124.44,873.13,-0.00,66040.02,389.01,-2.84,48932.05,932.81,-3.02,19703.26,2937.09,3.09,90213.84
1310900,1379.94,889.14,1.00,1,1,1,1625.64,0.01,103484.04,614.80,-2.91,103355.29,790.62,-2.93,28300.44,2614.46,-3.14,118391.76,3435.01,3.11,35177.78
1332400,1335.28,883.84,1.00,2,2,2,2091.77,-3.02,172650.26,2106.85,-3.00,69577.92,1911.32,-3.05,52546.13,4823.88,3.11,102925.25,3736.57,3.13,14302.07
1347400,1303.77,878.51,1.00,2,2,2,2130.00,-2.97,7419.36,3504.64,-3.08,94243.92,5983.86,3.14,272374.98,6531.55,3.09,113964.02,3860.69,3.14,8525.15
1361700,1232.78,877.59,1.00,2,2,2,4964.98,-3.13,201339.97,11037.18,3.10,528608.07,9349.73,3.09,236442.13,7878.53,3.09,94194.12,932.81,-3.02,205460.71
1375600,992.79,891.25,1.00,2,2,2,17293.71,3.08,888178.24,14208.42,3.07,229705.95,12335.23,3.08,215160.57,7301.57,3.10,41941.61,2614.46,-3.14,121798.72
1397100,731.05,913.06,1.00,2,2,2,12215.77,3.06,236852.97,13328.46,3.06,41355.37,13794.25,3.07,67885.31,7270.22,3.11,2491.17,4823.88,3.11,102925.25
1412600,501.20,930.58,1.00,3,3,3,14872.08,3.07,171486.15,13313.70,3.08,13448.95,8351.52,3.09,351239.49,7262.32,3.11,2161.89,6531.55,3.09,110287.76
1427600,325.82,939.13,1.00,1,1,1,11705.85,3.09,212449.27,4224.85,-3.13,606961.92,5467.05,3.13,193560.52,13794.25,3.07,436302.41,7878.53,3.09,89798.39
1457100,313.20,929.31,1.00,1,1,1,542.16,-2.48,383058.79,530.18,-1.66,142637.49,2841.73,-3.02,90511.46,8351.52,3.09,184549.56,7301.57,3.10,19762.32
1471600,323.77,915.90,1.00,1,1,1,1177.71,-0.90,89615.17,1064.91,-2.31,49742.77,530.18,-1.66,191911.50,5467.05,3.13,200235.02,7270.22,3.11,3693.80
1486800,291.78,906.04,1.00,1,1,1,2202.10,-2.84,187287.30,2202.10,-2.84,91436.56,1064.91,-2.31,47451.98,2841.73,-3.02,175663.68,7262.32,3.11,2204.56
