%@metadata width_px 1920.0
%@metadata height_px 1080.0
%@metadata width_mm 540.0
%@metadata height_mm 254.0
%@metadata distance_mm 620.0
% The number after speed, direction denotes the step size that was used for the calculation.
% Acceleration was calculated between two adjacent samples of the already low pass filtered velocity
@RELATION gaze_labels

@ATTRIBUTE time INTEGER
@ATTRIBUTE x NUMERIC
@ATTRIBUTE y NUMERIC
@ATTRIBUTE confidence NUMERIC
@ATTRIBUTE handlabeller_final INTEGER
@ATTRIBUTE EYE_MOVEMENT_TYPE {UNKNOWN, FIX, SACCADE, SP, NOISE, BLINK, NOISE_CLUSTER, PSO}

@DATA
0,69.15,755.94,1.0,1,FIX
14600,71.66,758.59,1.0,1,FIX
29300,47.42,762.58,1.0,1,FIX
50900,71.8,761.03,1.0,1,FIX
65100,82.08,765.04,1.0,1,FIX
79700,93.33,761.74,1.0,1,FIX
93900,56.9,754.91,1.0,1,FIX
129300,59.35,759.18,1.0,1,FIX
143400,74.95,765.19,1.0,1,FIX
157600,85.07,759.58,1.0,2,SACCADE
179300,107.24,773.67,1.0,2,SACCADE
207600,119.96,771.13,1.0,1,SP
221500,203.12,759.85,1.0,1,FIX
236300,309.06,762.65,1.0,1,FIX
257400,275.53,758.49,1.0,1,FIX
271500,268.44,758.95,1.0,1,FIX
286300,282.19,762.9,1.0,1,FIX
300700,250.02,757.73,1.0,2,SACCADE
321600,300.33,759.0,1.0,2,SACCADE
335600,268.27,767.65,1.0,1,SP
349500,443.75,766.52,1.0,1,FIX
370900,518.19,769.57,1.0,1,FIX
385400,587.49,775.41,1.0,1,FIX
399900,578.16,772.14,1.0,1,FIX
428300,529.08,759.67,1.0,1,FIX
449900,550.11,772.1,1.0,2,SACCADE
464400,511.71,764.4,1.0,2,SACCADE
478600,559.29,770.71,1.0,2,SP
513600,785.85,774.36,1.0,1,FIX
527700,793.03,774.44,1.0,1,FIX
542200,782.44,767.35,1.0,1,FIX
577200,796.41,778.05,1.0,1,FIX
591400,766.95,768.95,1.0,1,FIX
606500,820.03,782.86,1.0,1,FIX
620800,801.95,775.02,1.0,1,FIX
641800,771.37,777.93,1.0,2,SACCADE
656400,805.32,775.14,1.0,2,SACCADE
670500,806.03,772.73,1.0,3,SACCADE
685100,945.21,778.06,1.0,1,FIX
707200,1181.74,786.36,1.0,1,FIX
720900,1230.75,790.53,1.0,1,FIX
735100,1183.52,782.55,1.0,1,FIX
749600,1160.89,796.7,1.0,1,FIX
764300,1150.23,784.94,1.0,1,FIX
799600,1142.98,781.57,1.0,1,FIX
813900,1170.54,775.25,1.0,1,FIX
829300,1141.3,783.57,1.0,1,FIX
850900,1149.39,779.37,1.0,1,SACCADE
879200,1165.04,785.09,1.0,2,SACCADE
893300,1202.93,788.11,1.0,2,SP
915200,995.21,785.31,1.0,1,FIX
929600,877.77,771.7,1.0,1,FIX
957900,927.41,783.35,1.0,1,FIX
979500,907.76,779.32,1.0,1,FIX
993900,929.71,776.95,1.0,1,FIX
1008300,853.4,781.11,1.0,1,FIX
1022300,928.06,781.48,1.0,1,FIX
1036300,888.69,775.22,1.0,1,FIX
1057500,909.66,780.83,1.0,1,FIX
1071500,846.6,775.1,1.0,1,FIX
1085600,899.29,777.38,1.0,1,SACCADE
1107500,893.5,776.29,1.0,2,SACCADE
1121500,921.55,779.14,1.0,2,NOISE
1135500,812.93,767.94,1.0,1,NOISE
1149500,672.07,768.17,1.0,1,NOISE
1170600,647.2,765.57,1.0,1,NOISE
