@RELATION gaze_labels

%@METADATA width_px 1920
%@METADATA height_px 1080
%@METADATA width_mm 540.00
%@METADATA height_mm 254.00
%@METADATA distance_mm 620.00


@ATTRIBUTE time INTEGER
@ATTRIBUTE x NUMERIC
@ATTRIBUTE y NUMERIC
@ATTRIBUTE confidence NUMERIC
@ATTRIBUTE handlabeller1 INTEGER
@ATTRIBUTE handlabeller2 INTEGER
@ATTRIBUTE handlabeller_final INTEGER
@ATTRIBUTE speed_1 numeric
@ATTRIBUTE direction_1 numeric
@ATTRIBUTE acceleration_1 numeric
@ATTRIBUTE speed_2 numeric
@ATTRIBUTE direction_2 numeric
@ATTRIBUTE acceleration_2 numeric
@ATTRIBUTE speed_4 numeric
@ATTRIBUTE direction_4 numeric
@ATTRIBUTE acceleration_4 numeric
@ATTRIBUTE speed_8 numeric
@ATTRIBUTE direction_8 numeric
@ATTRIBUTE acceleration_8 numeric
@ATTRIBUTE speed_16 numeric
@ATTRIBUTE direction_16 numeric
@ATTRIBUTE acceleration_16 numeric

%The number after speed, direction denotes the step size that was used for the calculation.
%Acceleration was calculated between two adjacent samples of the already low pass filtered velocity

@DATA
0,257.56,283.21,1.00,1,1,1,0.00,0.00,0.00,760.75,-1.40,0.00,513.68,0.67,0.00,332.47,-0.02,0.00,2671.53,0.20,0.00
21900,260.36,266.79,1.00,1,1,1,760.75,-1.40,34737.35,513.68,0.67,50341.47,509.26,0.47,4535.22,196.30,0.92,12236.98,2679.42,0.15,6038.66
36600,272.34,294.83,1.00,1,1,1,2074.43,1.17,186731.01,509.26,0.47,6756.55,332.47,-0.02,18180.35,130.57,0.25,8396.15,2425.82,-0.01,32915.33
51300,273.69,273.59,1.00,1,1,1,1447.59,-1.51,233286.49,477.03,-1.04,45935.76,196.30,0.92,18230.60,3869.78,0.20,254380.02,2450.02,0.16,28251.48
66000,279.50,282.77,1.00,2,2,2,738.51,1.01,142233.05,229.40,2.78,45667.22,130.57,0.25,8396.15,2671.53,0.20,81520.65,2746.77,0.19,20852.70
80700,267.38,275.95,1.00,2,2,2,945.99,-2.63,111159.43,465.37,1.54,30403.77,3869.78,0.20,254380.02,2679.42,0.15,8996.38,2504.63,0.09,24036.12
96100,279.86,296.77,1.00,3,3,3,1576.38,1.03,158668.30,7056.74,0.19,452746.31,4572.47,0.21,45680.61,2425.82,-0.01,31419.17,2834.10,0.13,22553.93
118200,527.29,325.65,1.00,1,1,1,11272.06,0.12,469925.95,7191.16,0.17,7846.37,4509.60,0.13,17464.78,2450.02,0.16,18791.71,1002.37,0.10,82909.87
147500,643.93,360.60,1.00,1,1,1,4155.75,0.29,246281.67,2384.90,-0.03,166557.78,3854.28,-0.02,30467.06,2746.77,0.19,10461.94,2349.21,0.29,47048.74
162300,632.42,322.39,1.00,1,1,1,2696.85,-1.86,410434.37,1599.77,-1.50,184583.51,1467.59,0.07,161933.97,2504.63,0.09,23873.72,2826.60,0.26,32890.34
191900,649.03,289.76,1.00,1,1,1,1237.11,-1.10,67432.85,728.59,0.37,65552.64,924.45,0.07,18350.74,2834.10,0.13,11734.14,2745.65,0.23,3949.96
214100,667.66,335.88,1.00,1,1,1,2240.68,1.19,143788.58,2795.96,0.83,97648.66,522.67,-0.25,20619.35,1002.37,0.10,82536.40,2812.16,0.27,6062.02
228800,718.92,365.65,1.00,1,1,1,4032.43,0.53,180153.43,839.69,-1.33,226847.21,1641.85,0.66,94019.71,2040.86,0.43,77328.55,2797.94,0.26,2090.75
243500,673.54,311.90,1.00,2,2,2,4785.30,-2.27,591088.75,642.47,-0.53,41057.11,254.57,0.38,95135.66,2978.13,0.34,65343.10,2918.34,0.25,8314.88
258100,735.14,356.09,1.00,2,2,2,5192.12,0.62,678175.00,1041.70,1.31,93225.64,3693.67,0.55,235813.91,3213.33,0.42,22679.25,2677.40,0.22,17425.95
272900,681.55,341.46,1.00,2,2,2,3753.02,-2.88,595110.45,7084.87,0.63,426170.52,5529.94,0.39,132738.51,3266.70,0.37,11592.65,1962.77,0.28,48966.69
287600,904.21,478.95,1.00,3,3,3,17802.06,0.55,1457700.48,8319.76,0.34,172937.56,4540.57,0.35,69198.80,2875.25,0.34,27200.53,1311.98,0.25,44329.99
324700,1088.14,484.35,1.00,1,1,1,4959.68,0.03,370172.07,3439.68,0.02,139431.29,5447.92,0.37,24588.66,3470.37,0.39,16570.23,1650.18,0.32,9485.09
339500,1082.71,481.78,1.00,1,1,1,405.81,-2.70,360396.52,568.91,1.17,219772.94,2405.59,0.11,215034.71,2535.36,0.34,64030.64,1104.62,0.55,42318.73
354100,1094.63,499.77,1.00,1,1,1,1477.82,0.99,125836.26,817.43,0.86,22527.85,632.52,0.32,122793.56,2991.21,0.34,31223.61,230.24,2.80,86440.37
368800,1098.43,499.86,1.00,1,1,1,258.42,0.02,91629.91,985.37,-0.12,58558.64,90.65,-0.35,38403.66,771.27,-0.15,158918.81,384.56,2.70,10678.19
383600,1123.47,496.16,1.00,1,1,1,1710.61,-0.15,98414.90,610.32,-2.03,89239.09,203.18,-1.31,11353.98,133.38,-0.26,43166.79,337.26,2.27,10883.64
405700,1088.34,479.72,1.00,1,1,1,1755.07,-2.70,150176.24,734.14,-2.79,22920.06,990.68,-2.63,43502.96,1173.56,-2.98,58667.72,301.12,2.49,3522.35
420400,1098.14,486.76,1.00,1,1,1,821.08,0.62,174594.12,1422.90,-2.83,46962.00,294.91,-2.38,48241.70,3146.50,-2.86,135092.40,353.42,2.41,3918.43
450100,1028.17,460.46,1.00,2,2,2,2516.84,-2.78,111663.56,243.27,-0.73,52544.82,2294.48,-3.00,69431.23,3033.50,-2.97,11522.13,863.24,-2.85,24963.76
464800,1106.20,479.57,1.00,2,2,2,5465.07,0.24,542152.41,3648.81,-3.10,260312.49,5308.22,-2.89,206633.48,3245.95,-2.94,15824.86,1714.91,-2.94,58404.12
479700,920.28,455.57,1.00,3,3,3,12581.74,-3.01,1209599.03,9948.92,-2.91,429641.82,5153.28,-3.03,51009.47,2556.32,-2.99,47355.40,1556.36,-2.92,10824.40
516900,602.01,359.32,1.00,1,1,1,8938.35,-2.85,108659.51,6027.12,-3.01,107574.38,6251.75,-2.96,31352.58,2853.79,-3.01,8073.20,1631.20,-2.95,2402.16
531000,613.75,415.09,1.00,1,1,1,4042.15,1.36,811584.94,1075.36,1.38,457185.12,2758.69,-2.98,247811.85,2448.75,-2.99,28967.55,923.66,-3.07,51263.08
545800,607.82,389.85,1.00,1,1,1,1751.97,-1.80,391472.70,1022.80,-0.02,91484.36,725.55,1.68,195106.79,3300.77,-2.96,57850.15,1094.34,-2.99,12869.99
575500,659.25,414.20,1.00,1,1,1,1915.96,0.44,111282.16,584.10,1.98,46190.71,335.60,-0.65,33190.81,1862.72,-2.89,48706.62,423.71,2.88,24465.33
598100,595.72,417.90,1.00,1,1,1,2815.87,3.08,203094.44,767.51,-2.56,46088.13,356.84,-2.82,27139.77,304.92,2.15,79075.11,710.46,-3.06,15158.41
612400,635.57,398.67,1.00,1,1,1,3094.45,-0.45,405432.37,1396.46,-1.96,61272.53,867.78,-2.54,37364.48,1213.15,0.33,92385.39,384.74,-3.12,22897.35
626900,580.36,380.73,1.00,1,1,1,4003.86,-2.83,454881.52,952.32,-2.52,53691.21,336.62,-2.44,36807.12,1068.60,0.31,10166.24,483.42,2.78,13196.18
656300,601.47,374.48,1.00,2,2,2,749.13,-0.29,157847.86,397.83,1.83,39190.68,2265.30,0.46,88212.18,2147.85,0.32,36717.49,82.81,-0.24,19240.71
678400,575.02,400.52,1.00,3,3,3,1679.43,2.36,107100.84,6091.98,0.49,272226.42,2497.54,0.31,19059.27,2039.81,0.18,14446.85,1171.20,0.30,49811.70
693100,799.58,479.42,1.00,3,3,3,16191.58,0.34,1156274.28,6875.53,0.21,133494.84,5794.87,0.37,224912.12,2020.91,0.21,4812.26,1103.70,0.20,8505.74
707800,772.80,442.31,1.00,1,1,1,3113.49,-2.20,1281062.76,5540.40,0.22,90889.83,5251.40,0.22,67402.35,2808.83,0.38,59736.83,1222.67,0.13,10177.86
722500,958.67,514.39,1.00,1,1,1,13561.98,0.37,1106270.36,3607.09,0.25,131951.24,1930.62,-0.19,242361.42,2645.11,0.21,31808.25,846.41,0.13,25601.34
736800,874.11,468.34,1.00,1,1,1,6733.19,-2.64,1416637.57,2448.14,-2.27,403783.88,3198.66,0.44,138639.07,2813.26,0.16,15415.30,1098.18,0.15,17644.80
752300,911.92,458.38,1.00,1,1,1,2522.54,-0.26,563952.64,2977.99,0.61,347062.51,992.33,-1.78,250060.94,996.32,0.00,118499.68,1253.66,0.13,10161.17
774600,966.28,532.97,1.00,1,1,1,4138.65,0.94,178794.69,930.57,-0.26,111408.05,752.00,-0.21,55614.61,1464.33,-0.04,21132.58,1888.79,0.26,29927.51
789300,945.18,449.49,1.00,1,1,1,5857.33,-1.82,667984.50,2956.73,-2.09,225644.54,374.78,1.01,48811.39,572.69,-2.23,126241.08,2149.39,0.33,20123.39
803900,923.43,457.68,1.00,1,1,1,1591.95,2.78,427374.94,1209.46,2.16,251047.50,1672.59,-1.66,137957.80,303.40,-0.01,54425.29,2194.62,0.25,12563.88
819200,925.22,479.64,1.00,1,1,1,1440.39,1.49,119577.52,1373.00,-0.61,165774.63,476.09,-3.09,109384.25,616.48,-0.11,20648.05,1387.67,0.04,58175.33
833900,957.27,434.19,1.00,1,1,1,3783.29,-0.96,338470.67,724.08,-2.10,102001.25,106.73,1.55,33714.69,1137.44,0.02,36151.13,1641.02,0.23,26688.49
870400,906.62,447.57,1.00,2,2,2,1435.27,2.88,136137.66,718.24,2.35,31357.88,961.95,-0.35,27436.94,1806.63,0.46,25161.11,871.67,-0.11,23859.47
900200,923.69,467.95,1.00,2,2,2,892.01,0.87,66640.12,2359.20,0.00,97638.69,2051.30,0.47,52508.55,1772.51,0.35,6816.48,1386.68,0.28,22355.87
914900,1011.60,447.83,1.00,3,3,3,6135.53,-0.22,393518.31,5555.39,0.28,228164.48,3698.91,0.42,112489.64,1667.67,0.05,35761.38,907.02,0.11,34955.80
944400,1159.38,536.81,1.00,1,1,1,5847.40,0.54,152255.14,5089.38,0.58,55506.24,3842.81,0.32,13595.00,1830.11,0.39,20898.47,664.88,0.06,8330.20
966700,1232.04,592.43,1.00,1,1,1,4103.21,0.65,81940.28,1788.87,0.45,149017.79,2631.40,0.22,56152.86,2044.81,0.12,25325.22,307.13,2.29,39811.57
980900,1218.11,565.35,1.00,1,1,1,2144.62,-2.05,430334.60,3402.39,-1.70,326184.87,1494.54,0.21,80069.10,2661.80,0.32,53915.46,692.13,2.49,27864.41
995800,1219.37,494.23,1.00,1,1,1,4773.57,-1.55,205198.46,1306.01,-0.21,238223.00,1830.22,-1.67,180988.16,1269.26,0.24,93973.89,812.43,2.63,10540.60
1010400,1255.83,557.49,1.00,1,1,1,5001.15,1.05,645212.32,293.49,-1.37,83670.98,1070.93,0.30,168014.30,85.36,0.80,82046.14,1366.51,2.70,38282.89
1025300,1221.05,485.74,1.00,2,2,2,5351.41,-2.02,694358.46,1169.48,0.84,91719.28,575.87,-3.00,110205.86,2837.25,-2.93,195204.91,1125.79,2.79,18057.66
1040800,1279.47,584.04,1.00,2,2,2,7377.51,1.03,820498.89,1188.27,3.04,135310.05,1332.28,-3.00,48801.13,3665.69,3.10,74256.80,1368.22,3.06,26459.11
1055600,1185.25,489.54,1.00,2,2,2,9016.75,-2.35,1099319.17,3236.42,-2.81,150048.29,5069.21,3.04,255962.07,4131.46,2.94,53487.49,1495.20,3.12,10189.13
1077500,1167.32,544.94,1.00,2,2,2,2658.93,1.88,479452.43,8282.14,3.04,251832.50,7903.54,3.14,132488.72,5358.94,3.06,62184.75,2337.76,-2.92,43557.00
1092200,883.58,519.20,1.00,3,3,3,19381.26,-3.05,1290640.18,13998.26,3.05,388855.27,7395.32,2.91,123759.98,4689.83,3.03,47093.78,2537.77,-2.87,16824.97
1107000,756.26,584.42,1.00,3,3,3,9665.58,2.67,834115.33,6517.85,2.70,551784.03,10012.49,3.03,189196.47,5544.20,-3.02,98990.12,3665.69,3.10,100299.54
1121400,711.42,600.34,1.00,1,1,1,3304.35,2.80,444784.25,5979.88,2.98,127966.27,4306.93,3.01,396350.88,4410.41,-3.09,81604.27,4131.46,2.94,54973.26
1136100,584.39,611.66,1.00,1,1,1,8675.69,3.05,376719.12,3190.90,-2.77,244969.65,3367.09,-2.74,151579.51,4633.29,-2.92,54614.18,5358.94,3.06,92642.59
1158200,601.96,557.83,1.00,1,1,1,2561.98,-1.26,450948.61,3212.07,-1.85,128669.17,2703.31,-2.21,77096.94,2281.70,-2.79,108047.62,4689.83,3.03,31324.82
1173000,551.63,497.75,1.00,1,1,1,5295.76,-2.27,303985.58,3422.69,-1.55,68474.52,2679.59,-1.79,76205.06,3367.09,-2.74,73856.24,5544.20,-3.02,98990.12
1187600,603.97,457.23,1.00,1,1,1,4534.20,-0.66,486509.08,2245.00,-1.72,87041.27,2036.99,-1.69,47162.50,2703.31,-2.21,116701.54,4410.41,-3.09,80486.40
1217200,536.56,399.67,1.00,1,1,1,2994.59,-2.43,200049.34,1179.27,-1.95,38110.96,2245.00,-1.72,7504.88,2679.59,-1.79,38102.53,4633.29,-2.92,27122.58
1231900,584.58,408.72,1.00,1,1,1,3324.43,0.19,415428.09,3324.43,0.19,277577.23,1179.27,-1.95,76740.44,2036.99,-1.69,46841.66,2281.70,-2.79,162438.93
