@RELATION gaze_labels

%@METADATA width_px 1920
%@METADATA height_px 1080
%@METADATA width_mm 540.00
%@METADATA height_mm 254.00
%@METADATA distance_mm 620.00


@ATTRIBUTE time INTEGER
@ATTRIBUTE x NUMERIC
@ATTRIBUTE y NUMERIC
@ATTRIBUTE confidence NUMERIC
@ATTRIBUTE handlabeller1 INTEGER
@ATTRIBUTE handlabeller2 INTEGER
@ATTRIBUTE handlabeller_final INTEGER
@ATTRIBUTE speed_1 numeric
@ATTRIBUTE direction_1 numeric
@ATTRIBUTE acceleration_1 numeric
@ATTRIBUTE speed_2 numeric
@ATTRIBUTE direction_2 numeric
@ATTRIBUTE acceleration_2 numeric
@ATTRIBUTE speed_4 numeric
@ATTRIBUTE direction_4 numeric
@ATTRIBUTE acceleration_4 numeric
@ATTRIBUTE speed_8 numeric
@ATTRIBUTE direction_8 numeric
@ATTRIBUTE acceleration_8 numeric
@ATTRIBUTE speed_16 numeric
@ATTRIBUTE direction_16 numeric
@ATTRIBUTE acceleration_16 numeric

%The number after speed, direction denotes the step size that was used for the calculation.
%Acceleration was calculated between two adjacent samples of the already low pass filtered velocity

@DATA
0,657.16,407.53,1.00,1,1,1,0.00,0.00,0.00,3684.24,-2.43,0.00,1549.01,-2.42,0.00,1437.12,-2.77,0.00,706.87,-2.32,0.00
29500,574.68,336.74,1.00,1,1,1,3684.24,-2.43,124889.53,1549.01,-2.42,72388.71,1000.02,-1.85,30003.57,596.73,-2.30,32052.21,389.97,-1.32,20197.32
44100,605.91,362.36,1.00,1,1,1,2766.43,0.69,441800.00,1000.02,-1.85,60623.66,1437.12,-2.77,78536.49,826.91,-2.79,28240.28,397.53,-2.48,29533.79
66300,564.41,301.41,1.00,1,1,1,3321.66,-2.17,271462.16,1552.89,3.09,73989.93,596.73,-2.30,42591.90,684.46,0.86,65893.03,464.88,0.80,38766.49
80900,548.84,365.29,1.00,1,1,1,4503.17,1.81,490812.20,581.67,2.78,69447.35,826.91,-2.79,28240.28,706.87,-2.32,95276.48,1537.92,0.39,77181.80
95400,548.56,307.35,1.00,1,1,1,3995.42,-1.58,581771.91,771.52,-1.31,83219.16,684.46,0.86,100884.50,389.97,-1.32,41091.10,3118.52,0.55,111728.38
110100,554.69,343.53,1.00,1,1,1,2496.06,1.40,440210.44,1653.51,0.53,136046.52,867.66,-0.63,72301.24,397.53,-2.48,29332.88,4218.00,0.43,80148.60
124700,590.40,331.77,1.00,1,1,1,2575.15,-0.32,263360.16,1228.64,-0.23,77944.81,663.59,-0.49,15878.90,464.88,0.80,58946.31,3344.48,0.25,76502.28
139600,589.97,335.25,1.00,1,1,1,235.08,1.69,180112.47,1210.00,-1.63,105533.41,252.19,-0.96,30443.95,1537.92,0.39,75627.80,1476.04,0.22,125461.55
162000,587.64,286.73,1.00,2,2,2,2168.81,-1.62,107180.04,701.55,-2.93,54660.06,276.44,0.65,16983.42,3118.52,0.55,72324.18,1990.74,0.42,27582.40
176900,564.39,329.76,1.00,2,2,2,3282.73,2.07,353022.21,2012.92,1.27,163415.55,2578.91,0.64,154528.36,4218.00,0.43,79072.78,1531.56,0.18,41253.77
191200,605.06,342.86,1.00,2,2,2,2988.25,0.31,337481.90,6726.71,0.59,372151.51,6304.55,0.65,260547.25,3344.48,0.25,78107.22,1678.52,0.28,14541.28
205900,726.99,437.54,1.00,3,3,3,10501.04,0.66,527880.92,10983.75,0.55,290553.51,8962.23,0.46,204728.70,3668.91,0.33,30562.32,1802.20,0.22,10922.62
220700,882.14,510.85,1.00,1,1,1,11594.54,0.44,178809.03,11215.95,0.39,116640.36,6449.49,0.23,207832.63,4192.20,0.52,59724.56,2223.08,0.31,31008.82
235700,1036.03,564.84,1.00,1,1,1,10872.52,0.34,91474.87,4250.92,-0.47,603787.43,4943.51,0.18,102363.35,3332.12,0.24,90019.72,3010.38,0.30,52524.69
257400,1020.92,439.58,1.00,1,1,1,5814.10,-1.69,664390.87,1961.51,-1.38,157561.77,2483.15,0.21,113508.58,2667.44,0.21,30865.68,2836.97,0.32,8847.34
272100,1049.22,494.67,1.00,1,1,1,4213.16,1.10,671711.16,3657.25,1.37,375653.23,1589.13,-1.73,231072.97,2033.00,0.12,45467.06,2704.67,0.27,13714.96
286800,1042.71,544.87,1.00,1,1,1,3443.84,1.70,162692.03,1483.13,-2.11,345663.02,103.19,-0.80,104055.05,1731.95,-0.00,25468.84,2798.33,0.24,8447.90
316200,1015.62,438.55,1.00,1,1,1,3731.87,-1.82,239722.33,1707.55,-1.70,23198.82,196.02,-1.33,4055.09,2213.97,0.11,18067.04,2895.80,0.26,3796.96
353200,1027.79,432.48,1.00,2,2,2,367.62,-0.46,99232.07,1042.04,0.78,70604.45,1349.89,-0.23,34422.47,2472.02,0.41,19653.97,2870.75,0.29,2572.82
367700,1053.62,476.45,1.00,2,2,2,3517.01,1.04,242155.02,4055.21,0.46,212915.30,4618.34,0.40,249162.16,1995.11,0.18,47498.57,2313.97,0.24,39522.36
397100,1187.65,510.82,1.00,1,1,1,4706.56,0.25,113796.34,8877.87,0.34,165600.24,5353.55,0.43,25547.14,2088.43,-0.16,23477.62,1706.68,0.09,22985.43
412000,1423.82,609.21,1.00,1,1,1,17170.78,0.39,841004.07,6893.23,0.41,137182.74,4340.28,0.23,92113.15,2522.67,0.29,73354.75,1163.76,0.10,36458.07
434200,1422.52,612.02,1.00,1,1,1,139.42,2.01,773736.32,1577.95,-2.07,369098.27,3320.37,-0.10,73759.62,3126.98,0.37,29376.72,1142.92,0.30,10066.57
448800,1395.98,558.26,1.00,1,1,1,4106.72,-2.03,287362.86,4228.60,-1.69,193652.31,868.21,-1.84,244539.04,2670.19,0.34,31793.07,1150.69,0.32,2149.79
463800,1407.91,487.71,1.00,1,1,1,4770.09,-1.40,187071.17,442.71,-0.35,276442.31,406.59,-1.01,44443.63,1694.79,0.21,67717.63,1221.51,-0.05,29253.87
478400,1408.26,553.70,1.00,1,1,1,4520.26,1.57,633949.73,3670.77,1.31,256172.59,770.42,1.35,75194.62,233.84,-2.89,132087.32,1647.16,0.39,50897.80
493100,1435.24,591.73,1.00,1,1,1,3171.88,0.95,180216.19,1666.66,1.62,145749.50,1060.64,1.57,23834.07,809.48,-2.35,42214.60,1423.77,0.34,15991.27
507800,1405.78,602.64,1.00,1,1,1,2136.82,2.79,289755.39,1178.17,-2.25,181152.20,754.00,1.87,27453.47,393.53,1.92,70798.23,1255.28,0.34,11465.93
530000,1407.91,557.92,1.00,1,1,1,2016.58,-1.52,156078.17,327.42,-3.05,44082.29,1488.77,-2.59,82491.32,323.97,1.48,7644.62,111.64,-2.80,61573.16
544700,1393.75,601.54,1.00,1,1,1,3119.63,1.88,346451.85,2024.55,-2.84,116051.22,400.43,3.06,80869.89,670.15,0.88,30155.02,2621.16,-3.07,171002.47
559400,1351.12,540.09,1.00,1,1,1,5087.80,-2.18,503770.84,501.79,2.92,109450.71,507.86,-1.45,48098.46,386.99,-2.52,71383.51,2832.36,-2.96,25838.45
574400,1379.20,604.75,1.00,1,1,1,4699.51,1.16,649334.31,2075.39,-0.20,171805.10,1120.43,0.28,86666.17,240.55,-2.71,10554.44,2574.04,-3.02,20969.92
589100,1411.59,528.14,1.00,1,1,1,5658.56,-1.17,648185.36,2399.13,0.20,63228.80,719.17,0.47,29709.60,2030.53,-2.92,122142.09,2552.13,-2.94,14472.70
610900,1465.06,621.96,1.00,2,2,2,4953.61,1.05,436648.07,1041.28,2.06,132044.74,234.98,-1.73,40291.31,4887.72,-3.08,133161.95,670.15,0.88,142381.34
625700,1393.61,561.74,1.00,2,2,2,6313.94,-2.44,749700.06,3190.13,-2.79,217305.34,3831.86,-3.03,255204.24,4518.92,-3.03,28802.77,386.99,-2.52,70901.19
640400,1376.75,589.44,1.00,2,2,2,2205.92,2.12,476160.60,8219.30,-2.89,343846.02,10255.92,-3.06,437126.32,4513.40,-2.96,23976.90,240.55,-2.71,10769.84
655000,1160.51,501.21,1.00,2,2,2,15996.10,-2.75,1081985.54,15048.49,-3.10,493854.09,8113.43,-3.01,149562.26,4434.78,-2.89,20993.00,2030.53,-2.92,122978.68
684700,710.80,558.98,1.00,3,3,3,15266.36,3.01,269192.16,8107.31,-3.07,233947.28,7569.71,-2.98,20638.14,10255.92,-3.06,199698.39,4887.72,-3.08,97741.77
721500,622.85,461.33,1.00,1,1,1,3571.10,-2.30,368370.84,1977.69,-2.08,196113.67,4828.98,-2.82,78688.30,8113.43,-3.01,59337.20,4518.92,-3.03,11583.72
736200,661.50,469.86,1.00,1,1,1,2692.14,0.22,406142.14,2986.53,-1.34,137441.49,1977.69,-2.08,247075.98,7569.71,-2.98,41697.46,4513.40,-2.96,23976.90
765700,653.15,332.85,1.00,1,1,1,4653.00,-1.63,202753.47,4653.00,-1.63,67431.58,2986.53,-1.34,68487.80,4828.98,-2.82,98160.32,4434.78,-2.89,10389.76
