@RELATION gaze_labels

%@METADATA width_px 1920
%@METADATA height_px 1080
%@METADATA width_mm 540.00
%@METADATA height_mm 254.00
%@METADATA distance_mm 620.00


@ATTRIBUTE time INTEGER
@ATTRIBUTE x NUMERIC
@ATTRIBUTE y NUMERIC
@ATTRIBUTE confidence NUMERIC
@ATTRIBUTE handlabeller1 INTEGER
@ATTRIBUTE handlabeller2 INTEGER
@ATTRIBUTE handlabeller_final INTEGER
@ATTRIBUTE speed_1 numeric
@ATTRIBUTE direction_1 numeric
@ATTRIBUTE acceleration_1 numeric
@ATTRIBUTE speed_2 numeric
@ATTRIBUTE direction_2 numeric
@ATTRIBUTE acceleration_2 numeric
@ATTRIBUTE speed_4 numeric
@ATTRIBUTE direction_4 numeric
@ATTRIBUTE acceleration_4 numeric
@ATTRIBUTE speed_8 numeric
@ATTRIBUTE direction_8 numeric
@ATTRIBUTE acceleration_8 numeric
@ATTRIBUTE speed_16 numeric
@ATTRIBUTE direction_16 numeric
@ATTRIBUTE acceleration_16 numeric

%The number after speed, direction denotes the step size that was used for the calculation.
%Acceleration was calculated between two adjacent samples of the already low pass filtered velocity

@DATA
0,1240.53,983.59,1.00,1,1,1,0.00,0.00,0.00,5856.55,-0.31,0.00,1986.25,-0.41,0.00,817.04,-0.24,0.00,645.21,-0.08,0.00
15700,1328.21,955.92,1.00,1,1,1,5856.55,-0.31,373028.66,1986.25,-0.41,247547.84,579.15,2.41,161917.86,1732.73,2.73,161920.05,171.02,1.60,43591.00
31500,1297.92,958.67,1.00,1,1,1,1925.32,3.05,490405.31,579.15,2.41,160893.07,817.04,-0.24,85792.48,652.76,2.33,73494.00,158.86,2.39,8072.42
47100,1314.69,968.08,1.00,1,1,1,1233.07,0.51,193810.39,464.47,2.10,12552.43,1732.73,2.73,162958.00,767.97,2.67,16828.95,144.36,3.01,6011.32
63000,1290.51,971.29,1.00,1,1,1,1534.32,3.01,165239.50,2915.03,2.80,162000.51,652.76,2.33,73031.78,645.21,-0.08,87141.27,303.12,-0.07,28129.27
78700,1227.97,999.15,1.00,1,1,1,4360.50,2.72,186093.09,859.62,2.45,135397.80,767.97,2.67,16721.76,171.02,1.60,43591.00,80.76,-1.38,18676.66
94500,1269.59,988.49,1.00,1,1,1,2719.26,-0.25,446584.33,1014.23,-0.16,114535.64,514.42,0.15,77317.91,158.86,2.39,8072.42,98.94,-1.64,1849.78
117400,1266.71,992.84,1.00,1,1,1,227.89,2.16,126300.95,1495.60,-0.20,21139.55,1175.00,-0.18,30938.51,144.36,3.01,4095.05,487.16,-0.48,19932.96
133100,1326.14,976.84,1.00,1,1,1,3919.69,-0.26,260720.79,1306.41,-0.19,12150.38,203.96,-0.89,65542.95,303.12,-0.07,28487.60,85.74,-2.86,35185.16
164800,1327.57,981.41,1.00,1,1,1,151.07,1.27,123542.69,959.93,-3.10,71038.25,348.74,-0.72,4771.06,80.76,-1.38,9249.96,245.89,3.14,5214.24
180500,1280.68,974.89,1.00,1,1,1,3015.67,-3.00,196395.97,815.27,-2.87,15888.61,175.80,-0.56,11298.57,98.94,-1.64,1861.56,366.56,-3.12,7702.80
211100,1291.23,971.23,1.00,1,1,1,364.87,-0.33,109304.02,1288.73,-0.11,67534.56,1249.39,3.09,45918.69,487.16,-0.48,14917.15,855.27,-3.13,15971.91
226900,1340.08,968.04,1.00,1,1,1,3098.73,-0.07,173968.68,1985.55,2.90,206839.76,139.22,-2.82,70922.19,648.44,-3.14,69823.29,461.66,-3.05,25107.66
242600,1230.49,986.16,1.00,2,2,2,7075.22,2.98,647355.39,1551.98,3.10,35628.55,676.62,-0.33,50462.20,506.24,-2.81,14923.74,241.10,-2.46,18640.56
273100,1268.44,970.86,1.00,2,2,2,1341.50,-0.38,275070.15,2529.56,-0.28,132908.51,1625.56,3.07,74950.82,620.40,-2.94,4442.82,473.07,-2.76,8282.81
287800,1340.37,954.55,1.00,2,2,2,5017.61,-0.22,251668.51,1738.71,3.04,289265.74,493.73,-0.92,135068.72,1690.67,-3.11,73770.85,477.98,-2.73,974.29
303700,1215.52,976.35,1.00,2,2,2,7971.24,2.97,816665.99,2740.48,3.13,64129.77,1339.56,-2.96,102115.05,1355.59,-3.09,21181.42,590.36,-2.89,8835.52
319500,1253.51,955.96,1.00,2,2,2,2728.88,-0.49,670674.30,1125.88,-2.52,123542.87,4520.98,3.11,204136.04,487.38,-2.64,59620.09,409.01,-2.58,14927.35
335200,1186.63,955.77,1.00,2,2,2,4259.92,-3.14,432228.01,6313.39,3.10,348269.85,1066.19,-2.87,224199.23,1059.94,-2.87,38055.92,303.92,-2.44,7390.41
351000,1054.81,964.17,1.00,2,2,2,8360.07,3.08,260713.30,1138.35,3.07,327563.31,1320.04,-3.11,24200.45,1555.91,-3.05,34396.90,679.98,-2.97,28183.57
366600,1150.96,958.17,1.00,2,2,2,6175.97,-0.06,931797.12,3766.35,-0.09,314383.61,823.73,-2.75,39694.08,575.41,-2.57,69043.49,623.59,-2.89,4967.11
382000,1171.05,953.25,1.00,3,3,3,1342.88,-0.24,315589.31,777.81,-2.20,273999.86,1191.22,-0.36,122167.22,342.92,-2.23,18001.60,530.31,-2.81,6788.42
405600,1132.99,933.73,1.00,1,1,1,1812.39,-2.67,125460.44,1061.54,-2.69,22047.13,338.26,-1.84,51272.52,312.20,-1.04,15544.18,495.46,-2.89,2243.09
421400,1133.42,934.98,1.00,1,1,1,83.88,1.24,118600.87,229.03,-0.35,77953.71,731.90,-0.64,43505.04,334.66,-0.54,10281.20,685.28,-3.00,12722.43
453000,1143.18,929.99,1.00,1,1,1,346.83,-0.47,11643.27,1916.38,-0.22,53471.88,1006.56,-0.23,13948.64,226.22,-1.44,8281.96,323.00,-2.61,12861.44
468800,1222.15,915.49,1.00,1,1,1,5081.16,-0.18,300629.23,2190.67,-0.21,17364.98,458.79,3.04,92561.18,577.16,-2.93,38241.80,272.55,-2.77,4355.44
484200,1209.99,915.54,1.00,1,1,1,789.50,3.14,380514.34,4061.31,2.96,405928.56,197.36,-0.60,41459.69,65.45,-3.06,33267.45,117.45,-2.27,11594.14
500000,1097.53,938.46,1.00,1,1,1,7263.74,2.94,410843.78,1146.31,3.04,184804.12,1854.57,3.02,128586.35,56.41,-1.66,5002.79,493.22,-0.27,34926.12
531600,1155.95,921.17,1.00,1,1,1,1927.77,-0.29,290689.26,431.90,-2.90,23860.90,948.27,2.95,28824.45,85.45,-2.84,2616.50,215.93,-0.75,10037.54
547300,1077.69,933.59,1.00,1,1,1,5046.68,2.98,443477.88,762.09,2.81,29361.21,398.44,-0.36,85530.53,301.44,2.93,14697.50,157.38,-2.50,18439.61
579100,1121.67,932.82,1.00,1,1,1,1383.24,-0.02,201864.60,1188.95,-0.15,61123.85,332.22,2.95,22891.88,305.83,2.88,552.16,67.99,-3.09,3376.44
594000,1132.59,925.28,1.00,1,1,1,890.64,-0.60,54328.27,359.23,-0.66,59981.42,1258.86,-0.08,106691.04,660.16,-0.15,64730.40,125.65,-2.96,3952.45
609900,1130.38,926.01,1.00,1,1,1,145.98,2.82,64872.12,1370.97,0.00,69850.46,677.08,-0.11,36623.61,312.57,-0.18,21888.84,64.95,-2.92,3822.19
625600,1175.91,925.32,1.00,1,1,1,2900.20,-0.02,193622.43,1056.48,0.06,20618.44,1069.79,-0.03,25421.09,392.68,-0.16,5121.86,69.56,2.59,3205.12
641400,1163.59,928.15,1.00,1,1,1,800.02,2.92,233307.97,771.05,-0.08,19794.97,1112.68,-0.18,11208.90,71.17,-3.12,29289.64,112.26,3.04,3659.18
657300,1200.28,923.43,1.00,1,1,1,2326.43,-0.13,196451.50,1229.16,-0.40,34827.94,695.41,-3.12,113165.45,268.79,3.08,12453.97,40.91,2.85,4562.29
673000,1199.40,913.09,1.00,1,1,1,660.95,-1.66,152309.37,2192.73,3.13,214314.05,664.80,3.06,4842.93,43.34,-3.11,14374.72,115.53,0.33,9593.77
688300,1132.32,924.55,1.00,1,1,1,4447.86,2.97,297458.41,1920.34,2.92,32376.90,1350.71,3.10,44912.83,201.25,0.03,15986.24,535.28,-0.11,28315.31
719800,1111.66,932.57,1.00,1,1,1,703.40,2.77,119405.07,800.07,3.06,35948.68,970.93,2.97,12906.84,112.84,-0.61,4140.56,400.23,-0.08,4302.27
735600,1094.61,927.77,1.00,1,1,1,1121.17,-2.87,44358.34,450.56,-0.49,77650.16,912.87,0.02,118679.62,824.38,2.98,58682.41,292.30,0.03,7222.32
751500,1124.25,925.82,1.00,1,1,1,1868.15,-0.07,185467.18,3464.11,-0.01,193156.14,1053.78,-0.21,16726.43,159.58,2.17,45556.92,110.32,0.24,11688.85
767300,1204.41,926.30,1.00,1,1,1,5073.66,0.01,203356.44,1688.10,-0.13,113813.48,268.26,2.12,79314.60,670.94,-0.07,49355.33,273.02,0.02,10560.58
782800,1176.64,918.97,1.00,1,1,1,1852.97,-2.88,444105.42,3907.75,3.01,361022.20,1006.95,0.09,74231.44,895.93,-0.07,14515.67,43.87,0.41,15027.79
797900,1085.87,942.01,1.00,1,1,1,6201.83,2.89,309196.62,524.37,0.90,278275.40,415.88,-0.31,42814.94,886.14,-0.00,4156.82,259.67,3.09,19838.04
813900,1186.81,931.72,1.00,1,1,1,6341.02,-0.10,781811.30,3738.70,-0.17,219677.16,774.07,0.09,26547.55,255.89,0.20,39868.55,16.62,-2.52,15434.66
837600,1232.22,917.28,1.00,1,1,1,2010.94,-0.31,185320.09,1136.47,-0.17,109799.73,1794.54,-0.11,44246.81,341.33,0.02,4283.09,76.23,3.11,2694.63
853500,1231.14,923.98,1.00,1,1,1,426.79,1.73,140649.48,689.13,2.65,113474.25,293.95,3.07,131338.58,96.03,1.67,22735.09,62.15,-2.27,3875.83
869200,1213.00,927.51,1.00,1,1,1,1177.08,2.95,70367.39,1505.16,3.00,56726.01,319.09,0.41,37918.40,227.96,-0.39,18177.45,70.47,-0.16,7360.83
900200,1161.51,933.57,1.00,2,2,2,1672.55,3.02,16339.95,898.50,-0.01,77380.88,722.09,2.98,32422.53,140.27,-1.20,5359.82,71.36,2.58,4481.60
916200,1255.23,927.27,1.00,3,3,3,5870.85,-0.07,471360.82,434.91,-0.02,28983.81,976.02,3.14,17976.81,728.87,3.08,49907.13,117.38,-2.86,5480.11
931900,1175.29,933.22,1.00,3,3,3,5105.82,3.07,699146.56,2834.71,3.14,208250.94,519.64,-0.61,91363.24,769.58,-3.10,5824.82,148.22,0.09,16846.72
963600,1120.86,927.78,1.00,1,1,1,1725.42,-3.04,107871.39,644.40,-0.86,103913.68,1596.11,-3.13,64398.18,573.16,-3.11,6202.19,424.79,-0.16,8951.02
979300,1195.27,910.12,1.00,1,1,1,4870.71,-0.23,415660.49,293.43,-2.95,52944.41,832.54,-2.94,50468.94,360.44,3.07,13854.03,196.32,-0.19,14561.33
1008500,1107.92,925.32,1.00,1,1,1,3036.26,2.97,270668.66,2113.26,3.06,62746.26,81.46,-2.56,25944.94,555.51,-3.02,7308.19,407.58,3.05,20662.83
1024800,1099.44,918.08,1.00,1,1,1,684.19,-2.43,162759.63,257.65,-0.12,145446.71,1238.48,2.85,72882.03,306.34,-0.21,52176.50,511.14,2.93,7111.43
1039000,1115.73,924.42,1.00,1,1,1,1230.56,0.37,133099.08,680.63,1.25,47587.39,1014.23,-0.14,158163.71,657.57,-0.07,25148.46,478.98,3.02,3708.08
1054700,1105.95,937.36,1.00,1,1,1,1033.32,2.22,115258.78,1746.87,-0.14,111874.13,2000.30,0.04,64934.67,361.54,0.20,20601.75,343.98,3.01,8598.69
1070500,1170.19,916.54,1.00,1,1,1,4273.96,-0.31,326254.88,3738.72,-0.12,126113.52,1431.14,-0.03,36919.93,31.46,1.18,21836.81,380.34,3.04,2379.54
1085800,1221.35,923.19,1.00,1,1,1,3372.33,0.13,123827.98,1194.70,0.10,168980.58,2034.07,-0.12,40560.64,327.04,2.04,20102.12,428.26,3.02,3172.18
1109500,1216.56,921.02,1.00,2,2,2,221.81,-2.72,151270.09,660.69,-0.11,23803.04,890.47,2.94,123303.87,385.30,2.71,10127.21,225.52,2.90,8692.85
1124400,1246.71,920.42,1.00,2,2,2,2023.31,-0.02,149368.02,3508.72,3.07,279805.80,2068.98,2.91,79128.24,326.50,2.94,6635.60,402.84,2.84,11974.09
1140100,1109.50,929.15,1.00,2,2,2,8756.54,3.08,686515.50,5398.30,2.93,126123.70,2401.34,2.98,23013.77,249.46,2.49,9437.69,400.08,2.85,386.57
1156000,1079.93,956.29,1.00,3,3,3,2524.62,2.40,438661.97,1377.67,2.75,254731.61,2952.84,3.00,34967.23,1189.08,3.00,61544.91,505.52,2.86,6641.67
1171700,1069.26,945.75,1.00,1,1,1,955.31,-2.36,169121.67,617.76,-2.59,72209.27,419.93,0.30,212552.43,1138.01,3.00,3302.70,26.09,2.28,30827.04
1187000,1063.66,946.19,1.00,1,1,1,367.07,3.06,50135.38,1540.56,-0.09,135061.11,434.68,-2.92,55809.70,1081.42,2.99,3889.14,212.95,-0.37,15442.00
1218400,1140.89,938.96,1.00,1,1,1,2470.05,-0.09,90353.18,362.30,2.99,60583.36,146.66,-2.90,9173.58,739.02,2.89,11272.66,769.25,-0.12,17996.04
1234200,1046.77,948.84,1.00,1,1,1,5989.45,3.04,535404.64,2615.20,3.09,142737.97,165.91,0.02,19669.68,743.04,3.11,10537.12,510.59,-0.21,16688.03
1250100,1058.08,943.06,1.00,1,1,1,799.21,-0.47,423982.99,694.77,-0.07,208166.60,1844.80,3.01,126342.70,254.90,-0.35,62137.51,603.54,-0.22,5865.37
1281100,1079.27,946.54,1.00,1,1,1,692.61,0.16,15375.08,1337.90,2.89,65340.16,1013.74,3.02,26817.65,623.23,-0.30,11899.03,477.10,-0.24,4092.22
1296900,997.38,958.40,1.00,1,1,1,5237.22,3.00,373496.71,2700.09,3.04,87867.06,572.10,-0.24,100211.29,1698.57,-0.19,68439.43,815.91,-0.17,21616.37
1328600,951.74,960.15,1.00,2,2,2,1440.68,3.10,120111.84,2453.92,-0.24,162214.43,1180.11,-0.36,19442.56,1971.06,-0.17,8666.77,1048.03,-0.22,7468.18
1344400,1110.54,930.47,1.00,2,2,2,10224.82,-0.18,737468.50,6976.85,-0.21,286366.17,5221.88,-0.17,257453.90,2019.72,-0.18,3221.22,886.12,-0.17,10614.24
1360100,1166.58,913.83,1.00,2,2,2,3722.92,-0.29,416138.71,9421.31,-0.15,159415.11,5572.68,-0.16,22642.67,2023.94,-0.19,1551.97,1050.22,-0.19,10473.59
1375800,1403.22,887.40,1.00,3,3,3,15166.70,-0.11,733822.01,4637.32,-0.11,305052.29,3762.07,-0.17,115363.00,2365.02,-0.20,21726.90,954.15,-0.18,6119.40
1406800,1381.78,889.65,1.00,1,1,1,695.31,3.04,511677.30,167.89,-1.84,150546.65,2893.42,-0.13,28434.36,3225.64,-0.17,27885.70,1267.59,-0.18,10115.40
1422800,1401.11,879.80,1.00,1,1,1,1355.34,-0.47,126238.66,364.33,-0.42,23654.89,526.61,-3.10,213375.34,1624.87,-0.14,100110.63,983.03,-0.19,17806.53
1438800,1392.45,884.93,1.00,1,1,1,629.04,2.61,123969.63,1263.80,2.99,101150.56,313.84,-0.26,51975.64,1554.13,-0.13,4577.18,1012.96,-0.20,2060.03
1454100,1362.02,885.87,1.00,1,1,1,1989.79,3.11,96121.04,272.29,-0.05,100319.17,767.40,2.83,70653.32,166.08,-0.08,90736.73,1185.52,-0.22,11319.12
1469800,1400.88,884.51,1.00,1,1,1,2476.66,-0.03,284486.31,412.59,2.44,41426.72,53.53,-0.31,52288.69,452.70,-0.18,18337.84,1412.02,-0.18,14765.37
1493100,1349.73,896.25,1.00,1,1,1,2252.38,2.92,202042.50,125.00,-3.00,14717.15,937.14,-0.01,38031.61,227.91,3.02,29200.46,1071.65,-0.17,14612.23
1509000,1396.03,883.80,1.00,1,1,1,3015.59,-0.26,331262.99,2526.50,-0.14,166460.47,555.51,-0.15,24824.37,76.51,-3.11,9606.59,1160.87,-0.11,6938.76
1524300,1427.80,885.39,1.00,1,1,1,2079.35,0.05,79679.51,1121.46,-0.12,91854.73,279.75,-0.60,21397.73,86.17,-2.76,1989.60,772.89,-0.07,25491.39
1555800,1448.14,877.51,1.00,1,1,1,692.27,-0.37,46809.83,1296.42,-3.12,76563.71,193.94,3.09,14505.85,330.33,3.06,8130.74,871.33,-0.07,3125.00
1570700,1367.66,884.03,1.00,1,1,1,5418.41,3.06,408401.01,2272.89,3.04,67185.17,1004.97,-3.09,54530.79,485.23,-0.27,54482.08,832.45,-0.04,3219.28
1585400,1381.23,884.62,1.00,1,1,1,924.03,0.04,431042.66,571.91,-2.97,117616.56,1576.23,3.03,41410.18,783.74,-0.08,21878.32,549.23,0.01,19364.55
1601600,1350.24,881.09,1.00,2,2,2,1925.74,-3.03,175818.48,921.72,3.02,25240.85,769.34,-0.13,144783.94,1352.40,-0.07,35107.93,547.90,-0.04,1680.92
1616900,1352.43,888.27,1.00,2,2,2,490.28,1.27,141718.42,2088.28,-0.05,196606.53,1734.01,-0.08,63168.15,1274.73,-0.03,5981.16,469.87,-0.01,5212.53
1632600,1414.90,877.96,1.00,2,2,2,4032.65,-0.16,254599.60,3509.53,-0.09,90748.77,3677.00,-0.04,123933.21,1831.24,-0.05,35476.13,648.74,-0.07,11595.19
1664000,1517.13,874.18,1.00,3,3,3,3257.92,-0.04,28665.28,4720.59,-0.03,39184.77,3108.12,-0.06,18280.87,1129.81,0.01,22475.60,379.88,0.10,8988.06
1679800,1637.60,870.84,1.00,1,1,1,7627.55,-0.03,276574.24,2715.46,-0.02,126919.61,2525.09,-0.03,37208.02,1134.51,-0.01,1561.59,274.06,0.08,6708.86
1711800,1646.89,871.07,1.00,1,1,1,290.50,0.02,229295.99,357.16,-0.02,73697.07,556.38,0.27,62499.15,1214.38,-0.03,2545.97,340.84,0.08,2086.76
1727600,1654.66,870.43,1.00,1,1,1,493.73,-0.08,13120.44,2797.13,2.97,199432.43,1370.87,3.07,120560.17,806.65,0.03,26093.00,583.02,-0.01,15531.19
1743400,1559.74,885.83,1.00,1,1,1,6086.36,2.98,416374.05,3984.30,3.08,78265.05,1637.64,3.03,17388.04,159.16,1.97,55429.07,373.97,0.01,13239.26
1759200,1529.02,878.48,1.00,1,1,1,1999.35,-2.91,272842.19,501.62,-2.95,221591.14,1810.23,3.04,10977.98,859.38,2.98,49758.31,899.45,-0.05,33334.04
1774900,1544.23,882.83,1.00,1,1,1,1007.62,0.28,191484.95,434.23,0.28,59549.53,829.33,2.96,62745.95,762.89,3.00,6284.16,529.44,-0.04,23580.31
1790200,1541.96,882.19,1.00,1,1,1,154.14,-2.87,75931.82,1205.67,2.81,103364.00,322.53,2.49,36695.79,891.76,3.04,8685.53,201.38,0.04,21506.48
1806300,1508.40,895.08,1.00,1,1,1,2232.42,2.77,131112.41,834.03,2.83,23112.23,47.29,0.87,20394.01,528.02,-3.13,23064.24,82.48,2.92,17507.35
1829100,1511.07,892.12,1.00,1,1,1,174.67,-0.84,104797.25,1015.04,-0.25,81063.13,75.13,3.09,4834.62,649.72,-0.13,51536.01,358.01,3.06,12131.17
1844900,1546.36,885.36,1.00,1,1,1,2274.25,-0.19,135295.11,868.50,-0.36,11314.02,301.74,-2.66,15214.11,208.00,-3.13,54180.00,897.44,3.04,34147.47
1860600,1536.67,882.49,1.00,1,1,1,643.46,-2.85,182232.57,1829.37,-3.14,169415.24,1502.89,-0.23,111009.29,446.23,-3.12,15174.79,266.87,2.91,40394.11
1875800,1489.83,885.33,1.00,1,1,1,3087.42,3.08,163980.59,1950.98,-0.19,247629.03,427.15,-3.05,125864.50,135.73,-2.37,23592.45,458.69,3.12,13577.09
1905900,1623.53,866.16,1.00,1,1,1,4487.31,-0.14,251448.68,523.99,-0.13,47451.85,786.21,-3.11,11984.12,140.48,-0.62,7046.88,300.26,3.14,5267.00
1921700,1513.70,882.33,1.00,1,1,1,7026.65,3.00,728730.17,4682.94,3.04,329540.63,67.48,-1.12,51637.20,1013.80,3.07,71895.88,628.46,3.14,20772.32
1937500,1476.25,880.50,1.00,1,1,1,2372.91,-3.09,298807.23,449.22,-3.02,268730.97,1216.41,3.00,79441.16,231.88,0.17,78488.62,1194.10,3.06,36058.23
1969100,1492.57,879.66,1.00,1,1,1,517.18,-0.05,91391.36,1119.45,-0.02,49534.68,1594.60,3.03,12033.80,405.48,3.10,20060.43,1628.11,3.06,13734.42
1984500,1528.85,879.46,1.00,1,1,1,2356.05,-0.01,119451.25,3363.18,2.98,290553.64,1060.46,0.09,171580.91,1101.72,3.08,45221.30,1614.44,3.02,4323.14
2000200,1389.29,896.20,1.00,1,1,1,8953.03,3.02,719555.27,1015.49,0.21,275570.53,928.66,3.02,126017.93,985.30,3.13,8270.57,1334.06,3.01,17884.54
2031700,1575.75,889.36,1.00,2,2,2,5923.31,-0.04,471877.67,676.15,-0.25,16096.20,1012.15,-3.13,4720.38,1834.04,3.03,27262.56,1232.18,3.00,3236.01
2047500,1420.27,888.27,1.00,2,2,2,9840.47,-3.13,997485.00,3009.40,-3.07,231421.22,503.85,-2.88,34075.74,3224.92,3.02,88044.24,1524.32,2.99,18508.74
2079300,1432.90,878.64,1.00,2,2,2,499.39,-0.65,322014.60,1634.33,-3.09,43264.53,5280.02,3.08,151071.29,3325.72,3.00,4211.59,1983.98,2.99,14454.90
2094700,1343.25,884.06,1.00,2,2,2,5832.42,3.08,406060.58,8819.54,3.01,468808.36,5512.44,3.02,24995.62,1638.81,2.97,109628.46,1281.82,3.02,45688.65
2110400,1160.97,914.54,1.00,3,3,3,11770.89,2.98,382299.95,11367.34,2.99,162950.76,6823.28,2.96,86832.39,2892.78,3.03,80364.69,1231.18,2.99,4272.69
2126200,989.44,939.13,1.00,1,1,1,10967.87,3.00,53506.45,4909.54,2.88,411829.07,3234.36,2.88,228469.08,2808.86,2.98,11242.29,1353.20,2.99,7731.10
2142400,1009.20,955.12,1.00,1,1,1,1569.14,0.68,746315.22,3424.97,0.03,509259.17,384.59,2.19,181906.84,3133.73,2.95,20467.37,1312.44,2.98,2573.37
2165200,1122.96,942.93,1.00,1,1,1,5017.81,-0.11,178273.70,3505.01,-0.13,24989.51,334.19,0.86,19547.82,1677.36,2.94,63899.78,818.96,2.96,21672.48
2181500,1145.01,936.74,1.00,1,1,1,1405.30,-0.27,223291.05,3692.80,3.02,441572.74,162.30,0.13,14721.98,471.08,2.74,74762.44,1549.44,3.02,45019.88
2197400,1004.91,957.21,1.00,1,1,1,8904.93,3.00,647809.19,3974.22,2.98,19905.72,207.13,-1.59,17712.05,845.38,-0.00,81290.78,766.69,2.97,49367.83
2213200,1020.60,956.58,1.00,1,1,1,993.83,-0.04,626192.74,3826.34,-0.23,493393.75,671.17,3.09,44868.21,1066.17,-0.11,15415.82,826.13,3.00,4018.34
2229000,1122.65,929.72,1.00,1,1,1,6679.18,-0.26,361563.10,2674.03,-0.21,73039.25,1581.61,-0.18,142340.56,134.61,-0.06,58970.98,931.09,2.93,7699.13
2244600,1102.72,939.10,1.00,1,1,1,1412.06,2.70,517424.77,696.53,2.70,215106.52,2089.08,-0.13,33125.16,131.63,2.77,16859.61,358.34,2.79,37052.70
2260400,1102.89,939.08,1.00,1,1,1,10.40,-0.15,90000.67,1529.62,0.01,137804.77,292.00,0.56,118503.86,1399.93,-0.15,96753.86,246.02,0.04,37563.04
2276100,1150.90,939.63,1.00,1,1,1,3058.65,0.01,194164.40,838.56,0.07,44216.00,322.91,0.17,7689.59,1361.99,-0.24,7547.91,448.69,-0.12,13339.33
2307200,1142.04,941.79,1.00,1,1,1,293.44,2.90,107515.20,502.53,2.98,42845.64,1254.85,-0.12,30578.57,223.23,2.84,50957.98,218.38,-0.07,7426.89
2323000,1127.65,943.50,1.00,1,1,1,916.68,3.02,39643.74,1911.55,-0.25,152699.80,808.28,-0.46,35224.27,262.90,2.86,2539.50,241.59,2.88,28978.56
2338700,1200.39,926.92,1.00,1,1,1,4751.39,-0.22,360749.08,2730.87,-0.38,55382.45,784.66,-3.09,98188.58,268.08,3.08,3652.25,299.91,-0.29,34485.05
2354600,1207.89,911.73,1.00,1,1,1,1065.71,-1.11,261756.13,3424.41,3.03,383787.13,829.84,3.04,8602.62,31.64,-2.87,14990.97,351.02,-0.27,3264.86
2370400,1092.52,939.11,1.00,1,1,1,7504.76,2.91,520607.16,3215.28,2.88,33820.05,1788.33,3.04,60663.93,294.00,-0.07,20506.91,39.00,-0.51,19827.76
2401200,1063.13,950.37,1.00,1,1,1,1021.95,2.78,210818.61,678.02,3.06,82827.74,718.09,2.74,36408.29,341.58,2.92,20578.11,200.20,-0.45,5236.71
2417100,1060.96,941.67,1.00,1,1,1,563.98,-1.81,77091.44,1752.16,-0.15,152775.60,1016.46,-0.01,107028.08,696.61,3.10,23014.90,171.53,-0.25,2928.40
2448800,1145.63,938.19,1.00,2,2,2,2673.40,-0.04,89631.31,2684.52,-0.02,30567.31,165.55,0.38,27303.67,557.35,2.94,5382.77,105.43,-1.00,3761.98
2464500,1188.17,938.51,1.00,2,2,2,2709.10,0.01,8635.85,2306.13,2.90,316085.47,398.07,-0.34,18783.48,273.44,-0.36,52766.55,186.32,-0.43,7218.01
2480200,1075.26,955.25,1.00,1,1,1,7270.07,2.99,634112.70,3074.21,-3.07,72040.88,403.97,-2.77,47890.78,707.37,-0.38,27645.24,256.55,-0.32,4738.35
2496300,1090.68,931.16,1.00,1,1,1,1776.66,-1.00,530607.64,1676.46,-0.51,283445.21,903.35,-2.89,31319.32,653.13,-0.16,9600.33,400.05,3.09,40433.46
2512100,1121.80,928.91,1.00,1,1,1,1974.86,-0.07,106987.32,1357.17,-0.17,38748.23,1447.49,-0.48,139477.40,265.57,-0.85,30235.71,60.89,0.12,29122.09
2527800,1132.84,924.06,1.00,1,1,1,767.88,-0.41,81388.78,1217.89,-0.42,22714.58,985.29,-0.08,42218.98,149.68,-1.48,10758.15,371.81,-0.19,20029.98
2543500,1156.68,913.22,1.00,1,1,1,1667.94,-0.43,57335.28,631.11,0.12,47897.51,772.52,-0.33,19643.11,917.17,-0.28,55648.36,323.09,-0.33,4349.32
2559300,1152.58,926.44,1.00,1,1,1,876.29,1.87,148348.33,352.22,-0.02,18124.43,916.57,-0.08,16441.50,86.21,2.99,63463.94,304.84,-0.26,1795.48
2575100,1167.80,913.02,1.00,1,1,1,1284.78,-0.72,131865.78,1225.15,-0.18,55642.13,562.70,0.14,24448.59,710.39,-0.14,50417.96,37.46,-1.35,18321.10
2590300,1189.96,919.76,1.00,1,1,1,1523.87,0.30,91075.67,707.56,0.19,40850.88,873.56,3.05,93897.37,482.30,-0.09,15134.68,292.92,-3.08,19807.65
2622300,1200.58,919.45,1.00,1,1,1,331.79,-0.03,37939.60,2061.17,3.02,85724.21,683.69,0.02,48596.63,55.91,2.16,16232.42,220.06,-0.43,15546.70
2645000,1078.01,933.07,1.00,1,1,1,5432.83,3.03,253902.62,684.98,-0.21,120887.76,168.17,-0.15,22846.14,64.46,-2.25,4274.97,157.76,-0.37,2802.28
2660800,1226.39,914.04,1.00,1,1,1,9468.17,-0.13,943070.35,4027.00,-0.12,211707.23,697.51,3.13,54710.38,168.56,2.49,11319.98,210.75,-0.40,3373.68
2676600,1204.32,917.60,1.00,1,1,1,1415.05,2.98,688770.77,2398.69,3.06,406610.69,1116.68,-0.20,114335.11,558.82,2.98,26399.97,260.86,-0.59,4243.30
2691900,1152.03,920.10,1.00,1,1,1,3420.94,3.09,132094.22,1856.68,3.12,36298.05,1272.11,2.96,156118.18,457.68,3.01,6705.66,215.28,-0.40,4127.56
2707700,1146.59,918.98,1.00,1,1,1,351.77,-2.94,195017.09,286.74,2.05,109975.48,1559.43,2.98,18234.31,413.04,-0.32,54866.75,64.46,-2.25,15240.01
2723500,1147.88,928.15,1.00,1,1,1,586.01,1.43,49246.28,1309.10,2.78,70492.75,260.36,2.73,82830.40,348.17,-2.96,46698.77,168.56,2.49,11319.98
2739300,1107.83,933.44,1.00,2,2,2,2557.04,3.01,166358.10,310.32,3.13,64718.46,176.41,-2.83,10928.13,243.72,-1.71,22578.58,558.82,2.98,26399.97
2770700,1133.24,928.32,1.00,3,3,3,825.43,-0.20,107676.65,674.56,-0.63,30083.91,484.03,-0.65,19212.86,464.69,-0.47,14345.67,457.68,3.01,3267.41
2786200,1133.39,914.79,1.00,3,3,3,872.43,-1.56,68944.83,1621.59,-0.47,61989.83,1131.92,-0.53,42176.32,176.41,-2.83,38949.52,413.04,-0.32,55928.69
2801800,1178.09,905.26,1.00,1,1,1,2929.84,-0.21,183813.35,1598.03,-0.49,2051.22,1198.76,-0.45,7169.75,484.03,-0.65,38672.03,348.17,-2.96,47297.47
2832700,1199.01,879.93,1.00,1,1,1,1063.12,-0.88,71136.21,917.71,-0.43,22140.48,1598.03,-0.49,13014.21,1131.92,-0.53,21156.41,243.72,-1.71,11545.04
2848500,1217.07,887.44,1.00,1,1,1,1237.67,0.39,87093.44,1237.67,0.39,57627.13,917.71,-0.43,43300.05,1198.76,-0.45,7078.99,464.69,-0.47,28509.74
