@RELATION gaze_labels

%@METADATA width_px 1920
%@METADATA height_px 1080
%@METADATA width_mm 540.00
%@METADATA height_mm 254.00
%@METADATA distance_mm 620.00


@ATTRIBUTE time INTEGER
@ATTRIBUTE x NUMERIC
@ATTRIBUTE y NUMERIC
@ATTRIBUTE confidence NUMERIC
@ATTRIBUTE handlabeller1 INTEGER
@ATTRIBUTE handlabeller2 INTEGER
@ATTRIBUTE handlabeller_final INTEGER
@ATTRIBUTE speed_1 numeric
@ATTRIBUTE direction_1 numeric
@ATTRIBUTE acceleration_1 numeric
@ATTRIBUTE speed_2 numeric
@ATTRIBUTE direction_2 numeric
@ATTRIBUTE acceleration_2 numeric
@ATTRIBUTE speed_4 numeric
@ATTRIBUTE direction_4 numeric
@ATTRIBUTE acceleration_4 numeric
@ATTRIBUTE speed_8 numeric
@ATTRIBUTE direction_8 numeric
@ATTRIBUTE acceleration_8 numeric
@ATTRIBUTE speed_16 numeric
@ATTRIBUTE direction_16 numeric
@ATTRIBUTE acceleration_16 numeric

%The number after speed, direction denotes the step size that was used for the calculation.
%Acceleration was calculated between two adjacent samples of the already low pass filtered velocity

@DATA
0,1354.07,863.62,1.00,1,1,1,0.00,0.00,0.00,1536.57,3.00,0.00,1554.55,2.98,0.00,520.75,-0.11,0.00,235.76,2.76,0.00
31200,1306.61,870.41,1.00,1,1,1,1536.57,3.00,49248.94,1554.55,2.98,928.58,1127.71,-0.12,85958.33,333.82,3.00,27385.05,810.40,-0.09,33281.05
47000,1281.90,875.04,1.00,1,1,1,1591.01,2.96,5454.54,1127.71,-0.12,169740.49,520.75,-0.11,38424.23,1431.66,-0.10,111724.74,1079.27,-0.11,17075.78
62800,1341.98,866.02,1.00,1,1,1,3844.68,-0.15,343985.13,3616.18,-0.14,157509.75,333.82,3.00,54076.80,366.74,-0.16,67442.46,596.77,3.05,106073.43
78500,1394.71,859.26,1.00,1,1,1,3386.63,-0.13,29593.32,1823.54,3.01,346476.51,1431.66,-0.10,112436.37,235.76,2.76,38144.72,1169.93,2.97,36781.56
93800,1285.94,873.44,1.00,1,1,1,7169.90,3.01,689969.34,796.13,2.88,67963.74,366.74,-0.16,69646.47,810.40,-0.09,67867.23,567.90,2.64,42927.56
109500,1370.90,865.73,1.00,1,1,1,5433.75,-0.09,802630.69,2522.09,-0.14,211045.67,984.87,2.90,86034.45,1079.27,-0.11,17184.55,1394.68,2.86,54093.60
125300,1364.62,862.45,1.00,1,1,1,448.16,-2.66,368087.62,1108.87,2.92,229630.67,1716.72,-0.10,170601.04,596.77,3.05,106073.43,1467.24,2.89,5278.80
156800,1319.76,877.38,1.00,2,2,2,1500.92,2.82,39116.51,1186.09,-0.04,72544.80,797.37,-0.12,29203.19,1169.93,2.97,18332.40,694.16,2.86,24561.43
172800,1420.91,860.25,1.00,2,2,2,6412.29,-0.17,493680.68,3720.23,-0.17,159312.53,1370.31,3.04,135474.40,567.90,2.64,41049.48,522.08,2.73,11853.40
187600,1432.69,857.99,1.00,2,2,2,810.07,-0.19,378542.66,5375.22,3.06,613986.52,1408.07,3.02,2962.04,1394.68,2.86,57383.07,599.02,2.87,7444.51
203100,1258.60,873.65,1.00,2,2,2,11277.04,3.05,779571.60,6468.73,2.99,74955.72,2658.87,2.88,82532.13,1467.24,2.89,5380.97,610.32,2.80,2890.34
218800,1233.10,887.94,1.00,3,3,3,1861.81,2.63,611982.78,1294.67,2.46,343722.16,3397.08,2.89,47084.38,1136.72,2.88,21069.54,779.78,2.87,11285.29
257000,1204.56,917.81,1.00,1,1,1,1081.34,2.33,23204.83,1680.75,2.67,13150.70,1560.94,2.79,48470.86,1660.05,2.86,13711.55,611.92,2.84,4433.49
272800,1152.05,928.79,1.00,1,1,1,3395.48,2.94,163166.27,2008.50,3.04,46622.26,986.12,2.76,36486.08,2043.66,2.94,25921.61,651.95,2.90,3390.49
304000,1110.69,927.78,1.00,1,1,1,1325.99,-3.12,68150.55,248.03,-2.85,57140.79,591.45,2.78,12659.10,651.65,2.60,46390.86,562.04,2.79,3577.13
319700,1140.92,925.40,1.00,1,1,1,1931.39,-0.08,207212.22,1617.52,0.13,118639.46,584.77,-3.04,17440.20,457.13,2.66,12592.80,472.34,2.92,7285.48
335500,1161.21,934.42,1.00,1,1,1,1405.15,0.42,61129.48,1111.93,-3.10,172572.12,939.00,0.01,96346.15,679.79,3.01,18701.74,591.23,2.94,7544.16
350200,1107.03,924.10,1.00,1,1,1,3751.73,-2.95,348971.37,308.64,-0.70,92266.13,432.95,-0.12,34892.64,139.05,-0.62,54791.42,447.61,2.87,10091.21
365300,1168.25,928.50,1.00,1,1,1,4064.44,0.07,516750.98,1951.87,-0.03,113931.07,799.65,-3.09,81372.81,618.07,-0.04,33611.59,241.43,0.19,44517.14
381100,1167.32,922.25,1.00,1,1,1,399.86,-1.72,263914.54,1459.21,3.10,215886.24,813.09,-0.12,101702.06,229.13,-0.45,26510.12,437.55,-0.06,13411.44
412100,1100.02,931.53,1.00,1,1,1,2191.28,3.00,71716.30,135.91,-1.19,49026.04,369.31,-0.13,14315.94,543.62,-0.45,10144.63,476.85,-0.23,2817.53
427800,1169.65,916.35,1.00,2,2,2,4539.01,-0.21,428397.30,3083.62,-0.07,192830.51,144.71,-1.14,20215.13,1221.36,-0.15,45944.41,433.39,-0.22,2781.75
443600,1196.92,924.76,1.00,2,2,2,1806.13,0.30,195943.56,153.74,-1.10,190318.92,1803.80,-0.24,108720.04,1089.16,-0.24,10761.58,798.69,-0.19,23147.77
475100,1172.97,909.88,1.00,2,2,2,895.24,-2.59,85132.55,1033.60,-0.59,28642.89,1626.26,-0.16,7284.70,1334.83,-0.20,7913.04,655.17,-0.18,4560.40
490300,1237.00,897.87,1.00,3,3,3,4286.57,-0.19,327875.26,3974.05,-0.11,203676.43,1809.76,-0.26,16817.32,1682.96,-0.19,22958.67,714.14,-0.23,4475.41
506100,1295.44,896.56,1.00,1,1,1,3699.32,-0.02,55379.92,3071.90,-0.10,57139.26,3203.80,-0.15,89846.88,753.99,-0.14,58875.11,691.39,-0.14,4228.02
522100,1334.22,888.25,1.00,1,1,1,2478.55,-0.21,84207.65,2465.57,-0.21,42557.73,1555.29,-0.12,103127.14,979.91,-0.28,15874.18,640.79,-0.21,4223.89
538100,1372.58,880.02,1.00,1,1,1,2452.59,-0.21,1625.11,306.54,-0.27,134975.17,219.93,2.90,110850.90,1112.89,-0.12,13201.18,625.67,-0.22,1017.45
560600,1345.60,885.12,1.00,1,1,1,1220.75,2.95,163248.66,2469.36,2.92,123357.18,57.92,-1.01,11763.11,913.73,-0.09,8941.18,384.56,-0.17,10755.24
576300,1280.46,900.31,1.00,1,1,1,4259.86,2.91,193670.45,298.54,-3.11,138927.61,438.83,2.87,30762.74,135.59,-0.09,49563.26,155.36,-3.14,34278.66
591600,1336.35,884.84,1.00,1,1,1,3789.87,-0.27,526015.88,1216.73,-0.18,98677.24,340.40,0.00,50473.78,215.79,-0.06,5252.93,193.11,-0.17,22690.72
623200,1336.57,889.89,1.00,1,1,1,160.15,1.53,121169.02,758.22,0.01,15652.59,452.54,-0.16,4060.77,56.28,-3.04,8592.67,278.33,0.01,3002.53
639000,1372.28,885.19,1.00,1,1,1,2279.91,-0.13,145527.22,686.34,2.91,90783.61,351.20,0.04,8118.83,842.09,2.94,49900.13,136.58,0.02,8971.92
654700,1315.51,894.78,1.00,2,2,2,3667.43,2.97,378752.28,60.28,2.78,39914.50,366.98,-0.38,9651.76,1011.55,3.04,12225.90,129.16,2.90,16782.74
686400,1369.61,886.20,1.00,2,2,2,1728.02,-0.16,170201.79,1065.36,-0.32,35507.10,2012.94,2.98,74844.99,552.75,2.79,15642.18,380.50,2.96,7942.35
702000,1363.40,879.12,1.00,3,3,3,603.96,-2.29,135426.58,4962.39,2.98,385715.90,2465.77,3.03,30032.27,613.37,2.90,5609.24,437.78,2.92,3824.11
717800,1215.80,911.14,1.00,1,1,1,9559.28,2.93,587453.40,7724.54,2.99,174849.26,1902.89,2.90,40059.58,609.85,3.00,3964.02,686.70,2.94,15760.97
733600,1122.14,916.21,1.00,1,1,1,5936.36,3.09,241555.96,1280.54,0.09,567863.37,1870.23,2.86,4606.33,381.44,2.95,14536.22,631.29,2.89,3901.86
748500,1254.94,914.76,1.00,1,1,1,8913.43,-0.01,996406.88,4415.94,-0.04,211525.45,836.20,-0.20,181514.08,1077.90,2.99,46776.07,541.06,2.89,6058.79
763300,1253.18,910.64,1.00,1,1,1,302.93,-1.98,610412.52,624.65,-0.60,263565.36,1774.75,-0.08,64216.44,888.25,2.90,14187.07,596.58,2.89,3753.73
794300,1278.52,898.55,1.00,2,2,2,905.71,-0.45,30435.18,132.92,-0.83,16006.43,451.59,-2.97,71468.70,520.38,2.92,11876.91,852.68,2.97,8475.28
810000,1257.35,906.05,1.00,2,2,2,1430.26,2.80,148594.32,1833.56,2.97,123585.85,134.35,-2.98,20206.54,283.86,2.30,21207.85,608.16,2.91,15802.89
826600,1220.19,908.78,1.00,2,2,2,2244.97,3.07,56858.15,466.11,2.95,82384.34,1996.50,2.93,112777.81,534.88,3.00,22049.55,920.24,2.98,19059.52
841900,1242.76,908.91,1.00,3,3,3,1475.51,0.01,242986.82,2136.76,2.91,109228.61,2388.67,2.89,26186.92,580.90,2.88,5444.36,733.95,2.91,12735.33
864600,1141.24,927.78,1.00,1,1,1,4548.78,2.96,264508.23,3982.27,2.89,81326.94,669.57,2.77,76056.95,1134.25,2.95,24519.41,111.85,2.68,27556.31
880400,1094.31,947.22,1.00,1,1,1,3215.26,2.75,98323.47,1088.74,-0.05,319860.80,1092.07,2.82,26878.35,871.05,2.89,17067.40,192.66,0.25,18167.77
896900,1176.36,925.96,1.00,1,1,1,5137.18,-0.25,505049.09,2364.97,-0.18,78358.82,189.88,-3.13,55443.80,754.61,2.96,7900.13,400.74,2.95,35209.77
912700,1169.45,933.48,1.00,1,1,1,646.13,2.31,360175.72,1496.27,3.11,243770.74,803.61,-0.24,62578.71,572.75,2.93,11597.57,405.48,2.98,732.98
928500,1129.11,927.65,1.00,1,1,1,2579.57,-3.00,144159.57,805.45,3.08,43770.50,875.57,3.13,105608.93,320.13,-0.05,56338.53,92.69,3.07,19831.12
944200,1144.13,935.13,1.00,1,1,1,1068.72,0.46,229942.34,253.51,-3.02,35551.33,134.74,-1.76,54934.30,588.30,-0.21,17639.83,475.29,-0.14,36166.45
959900,1121.21,926.71,1.00,1,1,1,1555.60,-2.79,166910.88,817.47,-0.40,66582.89,734.54,-0.04,48816.52,276.04,2.86,55021.61,1017.71,-0.09,34605.92
975700,1167.86,925.14,1.00,1,1,1,2954.71,-0.03,280684.43,1390.04,-0.02,44306.38,413.77,-0.16,20782.03,248.09,-3.08,5929.04,679.18,-0.16,21700.70
1007100,1186.81,925.50,1.00,1,1,1,603.33,0.02,74918.61,202.54,0.51,38852.19,186.55,0.70,10377.73,796.89,-0.22,33045.75,918.88,-0.14,7652.09
1022600,1176.13,929.81,1.00,2,2,2,742.61,2.76,85095.09,1136.93,2.90,83375.79,401.14,2.98,34932.35,1629.33,-0.19,53749.32,1285.99,-0.18,23856.39
1054300,1134.64,938.09,1.00,2,2,2,1334.71,2.94,19576.21,961.67,3.11,8808.43,881.06,-0.37,40255.57,2528.35,-0.11,28766.83,1053.78,-0.16,7347.00
1070100,1130.47,931.12,1.00,2,2,2,514.31,-2.11,79705.40,3886.89,-0.31,304925.35,2854.42,-0.19,126139.89,1750.34,-0.17,49862.95,1021.95,-0.20,3165.02
1085900,1251.56,900.46,1.00,3,3,3,7905.52,-0.25,510630.80,8819.89,-0.16,316896.49,6198.87,-0.15,212018.61,1465.36,-0.15,18147.90,1213.26,-0.16,12373.98
1100400,1394.09,887.26,1.00,3,3,3,9871.95,-0.09,165435.02,8697.99,-0.07,57292.83,5031.39,-0.17,81033.01,1919.07,-0.17,31336.42,920.38,-0.21,20524.77
1116100,1513.58,881.83,1.00,1,1,1,7618.31,-0.05,145857.31,1399.91,-0.21,465857.07,2087.48,-0.06,188875.14,2546.87,-0.18,40004.77,928.98,-0.16,3340.60
1132000,1437.37,878.08,1.00,1,1,1,4798.91,-3.09,780129.05,2115.83,3.05,220719.03,1001.31,-0.10,68391.12,2442.59,-0.17,6646.84,891.22,-0.17,2517.47
1163600,1413.45,890.53,1.00,1,1,1,853.19,2.66,129277.45,748.70,0.04,90503.88,365.43,-2.92,42827.82,1684.21,-0.13,24115.50,1062.86,-0.18,5441.80
1179400,1472.82,879.58,1.00,1,1,1,3820.94,-0.18,293882.72,2402.55,-0.20,106728.83,388.22,-0.15,46887.73,143.38,-0.51,98210.04,1026.29,-0.18,2315.31
1194300,1485.68,875.61,1.00,1,1,1,903.59,-0.30,196341.59,267.22,-2.31,171110.42,1200.70,-0.29,54891.31,761.64,3.13,59736.53,824.95,-0.24,13980.82
1210000,1467.31,873.55,1.00,1,1,1,1177.97,-3.03,129837.26,200.08,-1.69,9990.18,980.22,-3.11,137118.75,13.46,2.72,47730.34,598.24,-0.18,14663.22
1225700,1484.95,869.37,1.00,1,1,1,1154.89,-0.23,146394.77,1755.42,3.07,111926.23,1217.50,3.06,17200.16,585.98,-0.27,38170.36,391.07,-0.12,13342.37
1241700,1411.79,877.41,1.00,1,1,1,4599.80,3.03,359231.24,2205.66,2.99,30088.08,456.86,2.97,47703.49,58.49,-2.69,39439.05,416.48,3.10,50434.77
1264400,1400.63,882.63,1.00,1,1,1,543.10,2.70,180153.49,613.40,0.06,123681.56,40.90,0.30,21752.25,826.07,3.09,34158.76,441.92,-3.13,1533.20
1280500,1435.55,878.90,1.00,2,2,2,2181.16,-0.11,167732.53,2882.38,-0.14,141939.23,795.78,-0.02,47021.76,986.93,2.99,11543.02,66.90,-3.05,23309.05
1294900,1487.66,870.20,1.00,2,2,2,3668.94,-0.17,103968.67,1042.48,-0.09,127937.19,470.80,-3.11,87931.45,719.50,3.00,18576.85,194.16,-3.02,8839.21
1309800,1465.97,876.23,1.00,2,2,2,1510.48,2.87,347210.70,2671.71,3.05,249274.11,1391.84,2.99,62557.28,892.71,3.04,11811.72,269.45,-3.07,5092.46
1341200,1364.48,881.62,1.00,1,1,1,3236.68,3.09,57072.34,2523.26,3.00,6007.23,1278.83,3.01,3649.25,165.73,-3.05,23273.80,423.81,3.00,5425.30
1372800,1308.50,897.99,1.00,1,1,1,1845.68,2.86,47500.64,138.06,0.80,82519.14,2113.18,3.06,26540.31,115.02,-3.00,1622.49,258.57,3.12,5357.15
1388500,1369.05,886.30,1.00,1,1,1,3927.35,-0.19,367358.82,1319.30,-3.01,91090.01,84.67,-0.19,139963.61,774.39,3.04,42251.65,552.89,3.03,18871.38
1403900,1267.81,892.75,1.00,1,1,1,6587.05,3.08,681463.33,147.99,-1.08,89546.05,1396.80,-0.20,85203.41,431.63,-3.10,22860.65,343.72,3.01,13591.98
1435700,1372.35,880.14,1.00,1,1,1,3311.19,-0.12,311155.46,3141.28,-0.11,96213.99,182.75,-2.96,49295.88,104.74,2.37,11543.20,105.53,3.04,7493.70
1451400,1416.09,876.10,1.00,1,1,1,2797.88,-0.09,33139.39,564.69,2.94,235935.02,1577.37,-0.16,111507.16,471.71,-0.29,36098.63,166.49,-0.02,17313.74
1467200,1354.91,883.65,1.00,1,1,1,3901.47,3.02,423961.90,789.03,-3.03,19212.66,321.44,2.55,118576.91,388.71,3.08,54112.53,189.21,-0.07,1538.18
1483100,1391.23,873.37,1.00,1,1,1,2373.71,-0.28,393580.15,237.34,1.88,48828.74,388.95,-3.13,13864.73,197.54,-0.01,36857.61,48.17,2.38,14363.80
1514000,1351.48,894.21,1.00,1,1,1,1452.39,2.66,123196.95,163.07,2.86,6452.59,584.54,3.01,6712.53,53.06,2.32,7669.38,172.62,0.06,6742.35
1537100,1382.76,875.79,1.00,1,1,1,1571.54,-0.53,130866.24,1191.79,-3.06,45053.22,1083.34,2.93,21737.01,457.74,0.02,21408.11,498.60,-0.13,14313.28
1552900,1305.27,890.41,1.00,2,2,2,4990.65,2.96,410827.62,2651.73,2.94,97688.91,248.07,-0.49,83762.83,1199.00,-0.09,47207.10,453.03,-0.07,3373.70
1568800,1300.38,892.54,1.00,2,2,2,335.39,2.73,293349.27,1939.44,-0.07,288170.68,1378.55,0.02,73449.44,393.11,0.22,52422.05,812.66,-0.07,22618.29
1584800,1366.98,885.96,1.00,2,2,2,4182.58,-0.10,281433.58,4067.22,-0.08,132990.35,3140.67,-0.10,111184.78,463.27,-0.13,10334.71,653.23,-0.01,10262.43
1615900,1491.37,877.66,1.00,3,3,3,4008.59,-0.07,6999.04,3960.16,-0.11,5356.81,1960.76,-0.03,38316.15,544.46,0.04,3794.80,479.62,-0.03,5594.06
1631600,1551.20,865.69,1.00,1,1,1,3886.54,-0.20,33773.80,1223.67,2.88,329525.31,676.51,-0.02,81807.77,1431.68,-0.07,56819.26,863.61,-0.05,24468.60
1647300,1454.22,887.46,1.00,1,1,1,6331.14,2.92,650765.72,4212.19,2.99,191030.79,499.73,3.11,74917.07,1459.58,-0.08,1965.76,491.31,0.05,24110.42
1663100,1419.94,885.07,1.00,1,1,1,2174.59,-3.07,271708.40,329.90,-0.99,280855.14,723.09,2.89,16313.44,1249.53,-0.04,13646.66,496.70,-0.04,3018.14
1678900,1459.91,878.72,1.00,1,1,1,2560.98,-0.16,297802.10,2810.93,-0.09,165731.05,963.35,-0.16,106645.12,503.87,-0.09,47247.31,449.26,0.02,3540.82
1694300,1507.26,876.83,1.00,2,2,2,3077.17,-0.04,39776.50,1472.56,-0.05,87079.27,1725.53,-0.05,50445.15,545.87,0.03,4846.02,488.29,-0.02,2853.55
1725700,1528.73,875.09,1.00,3,3,3,685.98,-0.08,76176.01,1192.06,0.01,9270.68,1174.04,-0.07,17593.17,593.91,-0.05,2158.01,915.82,-0.03,13616.08
1757400,1582.47,877.28,1.00,1,1,1,1696.95,0.04,32158.95,880.53,-0.10,10404.68,1262.80,-0.06,2837.28,528.70,0.03,2478.17,578.59,0.08,10900.52
1773200,1570.34,870.92,1.00,1,1,1,866.84,-2.66,158738.51,1366.84,-0.14,30878.99,301.66,0.26,62065.93,370.64,-0.00,10032.94,188.09,0.44,25820.40
1803600,1645.04,868.75,1.00,1,1,1,2458.30,-0.03,106644.72,405.52,2.48,56890.73,942.51,3.00,40331.15,292.22,2.94,21693.95,909.93,2.80,34597.55
1818600,1555.82,882.24,1.00,1,1,1,6015.73,2.99,564083.82,4395.32,3.00,269945.48,616.70,2.98,21752.17,401.52,0.14,45573.05,1121.19,2.73,14746.53
1834500,1510.53,887.51,1.00,1,1,1,2867.75,3.03,198189.14,1027.83,-3.03,214353.26,3009.79,3.04,150618.09,260.12,2.51,38653.64,941.58,2.52,17850.09
1850300,1523.43,878.69,1.00,1,1,1,989.20,-0.60,238710.10,1663.91,-3.13,41086.27,537.47,0.06,224161.64,248.78,2.22,4628.45,1405.74,2.90,40280.33
1866000,1458.12,886.98,1.00,1,1,1,4193.56,3.02,324461.35,1812.46,0.08,221282.61,610.62,0.30,9812.29,2568.70,2.89,151455.71,1407.06,2.99,8202.58
1889200,1593.70,884.45,1.00,2,2,2,5845.13,-0.02,432092.64,2432.48,0.14,27212.33,388.55,0.83,14592.04,3056.12,2.81,23014.48,1173.10,2.98,10087.05
1904800,1551.60,900.01,1.00,2,2,2,2877.49,2.79,552217.27,1108.42,2.77,220706.46,2299.90,2.74,157483.60,2542.63,2.66,42045.46,1465.17,3.01,18831.84
1935500,1545.86,903.03,1.00,4,4,4,211.09,2.66,86917.84,6031.72,2.91,160797.97,6250.26,2.84,129290.50,3454.59,2.93,39119.99,915.38,3.05,17974.61
1951500,1277.39,964.46,1.00,4,4,4,17213.45,2.92,1063099.64,13624.79,2.85,475964.65,5241.76,2.74,72905.98,2703.54,2.99,48697.74,1401.17,3.08,30420.22
1967800,1124.82,1031.07,1.00,4,4,4,10213.03,2.73,455460.57,4481.73,2.38,603160.44,8436.00,2.98,219881.97,2990.36,3.03,18675.06,1074.53,3.07,20042.88
1982800,1175.90,1061.30,1.00,4,4,4,3956.94,0.53,862129.95,3609.24,-2.73,302358.90,3458.91,-3.05,343690.32,2632.95,3.05,24198.87,874.28,3.10,13446.76
1998100,1024.55,987.41,1.00,4,4,4,11007.82,-2.69,977476.88,5235.42,-2.34,152732.26,1829.14,-1.09,293085.73,1784.57,-3.12,57753.53,627.91,3.06,16202.88
2013700,1063.09,945.34,1.00,2,2,2,3657.05,-0.83,804162.97,5170.11,-0.36,558856.70,1652.44,-1.84,82336.35,553.89,-2.05,102103.94,691.85,3.04,4198.24
2029500,1176.73,930.86,1.00,2,2,2,7250.21,-0.13,319349.86,1650.55,-0.11,227141.36,3597.24,-0.33,245294.01,1047.50,-0.88,61719.38,851.74,3.12,10952.27
2061300,1141.14,936.33,1.00,2,2,2,1132.22,2.99,263588.27,2561.04,-0.29,30690.31,2360.95,-0.27,39171.95,1121.55,-1.17,10159.15,422.99,-3.04,13657.84
2077000,1293.43,896.52,1.00,2,2,2,10025.87,-0.26,710362.15,3510.24,-0.39,63523.12,617.12,-0.45,111935.80,1803.62,-0.30,87904.10,750.14,-3.10,20924.63
2092200,1241.54,895.27,1.00,3,3,3,3415.20,-3.12,877737.35,1397.60,3.01,320800.80,1403.87,-0.34,52219.74,1027.24,-0.20,51853.84,553.89,-2.05,44369.29
2123600,1228.91,905.37,1.00,1,1,1,515.03,2.47,96784.64,110.61,1.01,46085.11,311.17,-0.04,35367.36,905.70,-0.27,4426.05,1047.50,-0.88,31056.25
2139300,1244.33,899.67,1.00,1,1,1,1047.00,-0.35,98366.92,1985.61,-0.11,123516.37,162.59,1.84,25038.56,1809.71,-0.17,58096.53,1121.55,-1.17,20577.12
2171100,1322.69,895.34,1.00,1,1,1,2468.04,-0.06,47156.96,263.45,2.16,68044.89,1271.98,-0.16,42413.34,186.10,-0.12,51067.47,1803.62,-0.30,43399.19
2186800,1237.38,910.08,1.00,1,1,1,5514.35,2.97,507704.12,247.59,-0.92,32534.89,2244.81,-0.07,62731.80,162.59,1.84,18477.88,1027.24,-0.20,50202.44
2202000,1327.32,889.25,1.00,1,1,1,6073.81,-0.23,762075.33,5952.46,-0.13,380387.33,36.14,-1.70,147847.22,1271.98,-0.16,88733.18,905.70,-0.27,9143.29
2217700,1419.87,887.12,1.00,1,1,1,5896.48,-0.02,78627.18,197.22,2.48,389978.80,5952.46,-0.13,379159.67,2244.81,-0.07,62731.80,1809.71,-0.17,58096.53
2233700,1322.39,893.10,1.00,1,1,1,6103.81,3.08,749880.65,6103.81,3.08,371391.99,197.22,2.48,382666.69,36.14,-1.70,140454.86,186.10,-0.12,101496.59
