%@metadata width_px 1920.0
%@metadata height_px 1080.0
%@metadata width_mm 540.0
%@metadata height_mm 254.0
%@metadata distance_mm 620.0
% The number after speed, direction denotes the step size that was used for the calculation.
% Acceleration was calculated between two adjacent samples of the already low pass filtered velocity
@RELATION gaze_labels

@ATTRIBUTE time INTEGER
@ATTRIBUTE x NUMERIC
@ATTRIBUTE y NUMERIC
@ATTRIBUTE confidence NUMERIC
@ATTRIBUTE handlabeller_final INTEGER
@ATTRIBUTE EYE_MOVEMENT_TYPE {UNKNOWN, FIX, SACCADE, SP, NOISE, BLINK, NOISE_CLUSTER, PSO}

@DATA
0,285.76,644.89,1.0,1,FIX
14200,282.16,634.89,1.0,1,FIX
35900,285.0,645.7,1.0,1,FIX
50500,317.6,640.48,1.0,1,FIX
65200,340.59,639.71,1.0,1,FIX
79100,290.07,616.9,1.0,1,FIX
93900,288.29,632.94,1.0,1,FIX
115400,315.53,568.54,1.0,1,FIX
129400,283.25,628.31,1.0,1,FIX
144400,425.67,576.07,1.0,1,FIX
158200,328.03,597.23,1.0,1,FIX
173000,320.35,582.91,1.0,2,FIX
194200,322.15,615.57,1.0,3,FIX
208700,271.52,626.47,1.0,1,FIX
222800,254.09,559.12,1.0,1,FIX
237000,283.2,588.6,1.0,1,FIX
258300,268.94,598.45,1.0,1,FIX
286900,279.39,533.69,1.0,1,FIX
301100,274.83,604.83,1.0,1,FIX
322300,284.19,591.73,1.0,1,FIX
351200,280.16,557.04,1.0,1,FIX
365200,269.54,583.76,1.0,1,FIX
387400,285.79,563.34,1.0,1,FIX
401800,260.78,566.38,1.0,2,FIX
416300,268.56,554.99,1.0,2,SACCADE
431000,271.07,564.97,1.0,2,SACCADE
445200,277.13,571.08,1.0,3,SP
466700,504.28,591.68,1.0,1,FIX
481300,678.08,505.0,1.0,1,FIX
495400,707.41,520.6,1.0,1,FIX
509500,670.48,540.15,1.0,1,FIX
531700,656.88,518.28,1.0,1,FIX
545800,698.59,513.57,1.0,1,FIX
560600,671.38,506.84,1.0,1,FIX
575000,732.57,516.94,1.0,1,FIX
589000,619.03,525.51,1.0,1,FIX
611300,644.44,560.15,1.0,1,FIX
625700,715.35,522.37,1.0,1,FIX
640000,589.64,548.77,1.0,1,FIX
675500,653.91,551.64,1.0,1,FIX
689900,661.1,567.42,1.0,1,SACCADE
718500,758.41,513.34,1.0,2,SACCADE
733500,616.43,530.03,1.0,2,SACCADE
754500,837.96,505.66,1.0,3,SP
768800,1029.68,535.61,1.0,1,FIX
783900,1212.25,546.95,1.0,1,FIX
798200,1095.99,541.57,1.0,1,FIX
819800,1147.64,503.5,1.0,1,FIX
834000,1061.46,546.31,1.0,1,FIX
848600,1182.67,513.49,1.0,1,FIX
863000,1124.93,518.34,1.0,1,FIX
877600,1128.98,497.13,1.0,1,FIX
898600,1147.76,493.34,1.0,2,SACCADE
913600,1074.83,495.29,1.0,2,SACCADE
927400,1143.1,497.57,1.0,3,FIX
941800,1273.39,541.08,1.0,3,FIX
963300,1280.34,550.52,1.0,1,FIX
977300,1397.74,552.5,1.0,1,FIX
992000,1304.05,502.85,1.0,1,FIX
1006500,1372.21,518.65,1.0,1,FIX
1042200,1316.79,522.11,1.0,4,FIX
1056300,1373.31,557.31,1.0,4,NOISE
1091200,1377.33,523.31,1.0,4,NOISE
1105500,1381.54,560.47,1.0,4,NOISE
1119400,1215.16,622.71,1.0,4,NOISE
1134000,668.71,1129.21,1.0,4,NOISE
1155200,630.41,1277.89,1.0,4,NOISE
1169000,639.25,1235.83,1.0,4,NOISE
1183000,673.53,1094.4,1.0,4,NOISE
1197200,767.59,1008.9,1.0,4,NOISE
1218600,1041.94,792.96,1.0,4,NOISE
1233200,1148.29,712.63,1.0,4,NOISE
1247300,1383.73,760.22,1.0,4,NOISE
1261300,1444.23,709.39,1.0,4,FIX
1282600,1482.3,645.29,1.0,4,FIX
1296600,1536.75,651.26,1.0,4,FIX
1325100,1528.74,636.02,1.0,4,FIX
1346400,1509.98,561.67,1.0,1,FIX
1361200,1487.3,528.34,1.0,1,FIX
1375700,1527.96,595.21,1.0,1,FIX
1405000,1531.98,517.81,1.0,1,FIX
1426300,1557.43,565.39,1.0,1,FIX
1439900,1561.69,550.81,1.0,1,FIX
1475500,1525.67,551.56,1.0,1,FIX
1489900,1473.66,532.18,1.0,2,FIX
1504100,1519.1,519.19,1.0,2,SACCADE
1518700,1560.38,531.76,1.0,2,SACCADE
1533300,1571.34,503.42,1.0,3,SP
1555000,1401.05,549.35,1.0,1,SP
1568900,1184.17,533.12,1.0,1,FIX
1583400,1184.87,497.41,1.0,1,FIX
1597300,1238.15,555.89,1.0,1,FIX
1619200,1219.43,526.03,1.0,1,FIX
1634100,1208.12,527.95,1.0,1,FIX
1648100,1221.65,536.43,1.0,1,FIX
1662200,1180.48,530.35,1.0,1,FIX
1683900,1198.58,533.11,1.0,1,FIX
1697900,1197.48,524.3,1.0,1,FIX
1712300,1186.8,515.59,1.0,1,SACCADE
1726500,1204.96,513.54,1.0,2,SACCADE
1741600,1204.96,513.54,1.0,2,SACCADE
1762700,1111.34,495.66,1.0,2,FIX
1790900,548.83,501.97,1.0,3,FIX
1805000,358.21,548.92,1.0,1,FIX
1841500,447.45,559.34,1.0,1,FIX
1856000,510.4,537.14,1.0,1,SACCADE
