@RELATION gaze_labels

%@METADATA width_px 1920
%@METADATA height_px 1080
%@METADATA width_mm 540.00
%@METADATA height_mm 254.00
%@METADATA distance_mm 620.00


@ATTRIBUTE time INTEGER
@ATTRIBUTE x NUMERIC
@ATTRIBUTE y NUMERIC
@ATTRIBUTE confidence NUMERIC
@ATTRIBUTE handlabeller1 INTEGER
@ATTRIBUTE handlabeller2 INTEGER
@ATTRIBUTE handlabeller_final INTEGER
@ATTRIBUTE speed_1 numeric
@ATTRIBUTE direction_1 numeric
@ATTRIBUTE acceleration_1 numeric
@ATTRIBUTE speed_2 numeric
@ATTRIBUTE direction_2 numeric
@ATTRIBUTE acceleration_2 numeric
@ATTRIBUTE speed_4 numeric
@ATTRIBUTE direction_4 numeric
@ATTRIBUTE acceleration_4 numeric
@ATTRIBUTE speed_8 numeric
@ATTRIBUTE direction_8 numeric
@ATTRIBUTE acceleration_8 numeric
@ATTRIBUTE speed_16 numeric
@ATTRIBUTE direction_16 numeric
@ATTRIBUTE acceleration_16 numeric

%The number after speed, direction denotes the step size that was used for the calculation.
%Acceleration was calculated between two adjacent samples of the already low pass filtered velocity

@DATA
0,831.54,959.16,1.00,1,1,1,0.00,0.00,0.00,3694.24,0.18,0.00,734.53,-3.05,0.00,692.00,0.08,0.00,238.18,0.09,0.00
14000,882.44,968.36,1.00,1,1,1,3694.24,0.18,263874.40,734.53,-3.05,316190.75,1534.18,-3.08,57172.38,463.99,-3.09,82561.17,504.87,-2.78,52627.26
42300,800.61,956.19,1.00,1,1,1,2923.09,-2.99,233800.10,1534.18,-3.08,28283.16,692.00,0.08,78660.72,685.19,-2.75,10318.70,136.53,-0.98,19500.75
64200,805.57,963.51,1.00,1,1,1,403.93,0.98,146581.18,1875.14,0.09,155666.39,463.99,-3.09,52778.83,317.58,-1.48,30418.86,459.45,-0.91,14768.72
93300,895.89,964.43,1.00,1,1,1,3103.80,0.01,99417.15,779.79,0.08,37642.34,685.19,-2.75,10035.03,238.18,0.09,13585.63,386.10,-1.83,13089.67
107400,839.16,966.17,1.00,1,1,1,4025.57,3.11,505526.12,5194.88,-2.95,423403.95,317.58,-1.48,47246.32,504.87,-2.78,52254.01,417.64,-1.23,16899.47
121900,750.17,935.44,1.00,1,1,1,6492.38,-2.81,212485.40,1169.59,-2.42,291398.32,423.42,-3.07,36854.30,136.53,-0.98,38060.09,630.26,-0.44,30982.10
143000,807.95,938.60,1.00,2,2,2,2742.44,0.05,434150.22,3438.37,0.22,213258.78,632.09,-2.44,18036.51,459.45,-0.91,15328.67,226.63,-0.60,19364.88
157300,868.87,962.40,1.00,2,2,2,4573.47,0.37,150135.05,43.21,1.59,239838.68,960.33,0.07,106157.15,386.10,-1.83,26637.01,150.21,-0.74,5630.12
172000,807.93,939.85,1.00,3,3,3,4419.91,-2.79,611769.36,2144.81,-2.77,146963.77,725.84,-0.61,41355.25,417.64,-1.23,16209.70,199.83,-2.12,15334.65
186000,811.57,939.91,1.00,1,1,1,259.64,0.02,333257.70,1343.28,-0.63,219921.19,745.09,-1.27,33775.37,630.26,-0.44,32088.61,222.50,-0.77,18857.35
207300,846.14,911.77,1.00,1,1,1,2092.84,-0.68,89269.27,2087.91,-0.32,42814.25,854.56,-0.46,29845.82,226.63,-0.60,19183.05,254.48,-0.97,2656.08
222200,883.36,916.27,1.00,1,1,1,2515.89,0.12,123729.35,401.69,0.32,119510.28,629.30,-1.27,41634.93,254.28,-1.74,17467.15,394.81,-2.45,30212.95
236400,857.25,915.42,1.00,1,1,1,1839.77,-3.11,306448.06,2186.49,-2.89,182206.43,268.75,2.52,60518.66,381.82,-0.43,28273.19,602.79,-0.54,57841.99
250400,823.57,901.20,1.00,1,1,1,2611.23,-2.74,79380.69,730.02,2.89,113231.21,380.85,2.54,8024.54,323.24,-0.67,7398.42,909.46,-0.24,27168.13
272100,832.02,921.96,1.00,1,1,1,1032.93,1.18,157645.66,1366.84,0.63,88256.26,94.28,2.43,13241.26,36.11,-2.11,14762.34,764.66,-0.23,6675.46
286300,863.23,930.09,1.00,1,1,1,2271.47,0.25,130220.16,724.52,-0.12,68585.64,375.75,0.56,29136.12,527.61,-2.89,35401.11,542.78,-0.52,20288.42
300800,852.65,919.39,1.00,2,2,2,1037.57,-2.35,221208.91,877.22,-2.44,101290.56,320.57,-0.87,31476.67,923.39,-0.25,97169.20,728.96,-0.24,17530.14
314800,844.13,913.97,1.00,2,2,2,721.96,-2.57,26441.28,504.75,-2.23,28487.85,854.36,-2.55,67529.57,1206.45,-0.14,21994.33,725.71,-0.24,312.23
329300,843.89,907.99,1.00,2,2,2,412.66,-1.61,40903.22,843.63,-2.64,29807.46,1945.98,-0.27,178112.44,1267.14,-0.18,5324.00,526.70,-0.13,14537.80
350300,817.87,899.56,1.00,3,3,3,1302.39,-2.83,58224.82,3703.11,-0.17,209265.29,2137.35,-0.25,9410.47,978.53,-0.30,15197.34,350.86,-0.26,8826.13
364300,971.61,885.94,1.00,1,1,1,11024.55,-0.09,873857.25,5565.11,-0.12,133924.92,1953.53,-0.11,24749.56,1019.92,-0.19,8372.78,468.39,-0.20,8630.08
379200,977.49,879.92,1.00,1,1,1,565.20,-0.80,711527.93,766.89,0.11,323657.45,2272.87,-0.06,22440.06,1067.90,-0.14,4596.62,514.80,-0.06,5342.83
414900,1010.17,890.28,1.00,1,1,1,960.20,0.31,24306.52,428.03,0.44,10819.79,414.04,0.09,52217.62,927.32,-0.10,4092.15,525.71,-0.24,2599.58
429200,996.88,888.98,1.00,1,1,1,933.54,-3.04,131705.15,23.06,-1.40,30392.65,419.40,0.22,3836.07,1026.01,-0.06,7491.10,518.26,-0.30,2140.76
458200,1010.34,889.29,1.00,1,1,1,464.20,0.02,48168.80,430.90,0.00,14744.76,180.63,2.99,20395.23,111.01,0.19,31689.13,831.72,-0.17,11196.53
480000,1018.77,889.04,1.00,1,1,1,386.95,-0.03,3695.70,407.58,2.93,38232.16,205.24,3.08,1396.54,86.18,2.08,7349.29,995.88,-0.10,8015.17
494200,996.01,892.44,1.00,1,1,1,1620.84,2.99,141240.66,1315.15,3.12,64679.08,331.69,3.14,8964.90,221.97,-3.01,14560.41,958.11,-0.08,2943.67
509100,980.51,889.93,1.00,1,1,1,1053.60,-2.98,46654.76,270.84,-2.73,72172.56,840.49,3.08,34203.34,64.35,-0.29,18911.22,1189.53,-0.03,16089.04
522900,988.88,889.34,1.00,2,2,2,607.90,-0.07,119655.39,351.08,2.95,14441.54,288.54,-2.79,42583.44,607.16,-0.13,39403.44,542.98,0.01,46897.00
537100,970.86,891.80,1.00,2,2,2,1280.75,3.01,132942.52,303.17,-2.83,12001.75,393.24,-0.14,46566.48,902.14,-0.04,21267.50,636.06,0.08,7167.05
559000,978.48,885.94,1.00,3,3,3,438.73,-0.66,76517.75,956.29,-0.16,56346.82,1514.46,-0.10,51217.31,999.76,-0.06,4556.54,411.73,0.02,10339.23
574100,1005.81,886.29,1.00,1,1,1,1810.30,0.01,98731.52,3623.92,-0.06,177041.62,2405.16,-0.05,59408.56,1390.71,0.00,26416.76,552.12,0.08,9477.26
589700,1089.52,878.99,1.00,1,1,1,5385.98,-0.09,230077.26,4250.40,-0.02,41873.37,2407.52,-0.01,5725.18,1072.60,-0.01,20437.35,704.32,0.03,9915.88
603300,1129.91,884.37,1.00,1,1,1,2996.43,0.13,187253.65,1081.48,0.19,235226.74,2394.63,0.03,6602.82,1456.64,0.01,28353.69,43.77,0.38,48771.90
617300,1118.83,884.60,1.00,1,1,1,791.47,3.12,270039.46,892.50,0.20,13505.60,628.04,0.21,127231.76,1158.22,0.05,21518.40,249.51,3.12,20734.33
639000,1161.17,890.56,1.00,1,1,1,1970.10,0.14,126926.51,277.49,0.29,28419.31,497.53,0.32,6642.44,1109.10,0.10,3678.63,223.50,-3.12,1313.00
652900,1128.30,887.40,1.00,1,1,1,2374.93,-3.05,312516.79,145.56,1.88,22783.49,123.06,1.45,33004.26,819.67,0.16,21181.31,138.27,3.10,6194.34
666900,1159.91,894.42,1.00,1,1,1,2312.79,0.22,334206.49,351.36,2.61,18671.88,273.07,2.52,17066.77,795.89,3.06,114540.33,162.72,3.11,1750.70
681100,1119.75,892.40,1.00,2,2,2,2832.00,-3.09,361040.79,401.98,2.69,4078.73,1011.37,0.12,86320.94,1389.27,3.09,41870.60,153.04,2.84,3016.27
702200,1147.16,900.64,1.00,2,2,2,1356.56,0.29,197240.99,2043.60,0.04,113982.30,2055.78,-3.13,145156.53,1704.27,-3.13,15538.70,190.56,2.88,1799.09
716600,1192.24,895.33,1.00,3,3,3,3152.06,-0.12,137678.09,4170.25,-3.08,431491.21,2645.58,3.13,41073.37,1245.15,3.12,32020.44,511.84,3.06,22650.38
730600,1028.97,893.09,1.00,1,1,1,11663.36,-3.13,1056724.06,7319.82,-3.14,226167.54,2903.54,-3.09,22172.64,1636.43,-3.14,28068.91,617.24,3.09,7647.43
752200,931.66,894.05,1.00,1,1,1,4505.35,3.13,331484.32,2184.31,-3.10,237856.19,3069.99,-3.12,9152.06,1119.62,3.11,24056.33,538.81,3.04,3859.99
780600,919.85,888.47,1.00,1,1,1,459.95,-2.70,144243.65,462.85,-0.15,92955.39,1297.92,3.14,62412.32,1234.28,-3.14,4298.17,769.81,3.11,8283.23
795100,951.28,891.04,1.00,1,1,1,2175.06,0.08,180035.82,285.96,0.62,22552.21,74.90,0.76,93326.93,1578.78,-3.13,23807.89,503.78,3.04,18585.64
809500,926.56,893.29,1.00,1,1,1,1723.81,3.05,269763.92,333.29,2.65,36563.25,453.33,0.35,26796.00,479.52,3.14,76350.18,638.73,-3.13,10380.52
844700,936.69,898.81,1.00,1,1,1,327.82,0.50,56947.22,558.89,0.26,23688.82,81.95,3.11,15066.79,199.52,0.20,19203.97,357.99,2.96,8409.82
859200,953.38,900.52,1.00,1,1,1,1156.91,0.10,59585.07,389.58,-0.75,33231.92,278.41,0.01,24847.91,169.44,0.38,3043.42,1234.28,-3.14,61019.60
873300,944.88,891.25,1.00,1,1,1,891.97,-2.31,135994.25,214.04,-1.99,26938.08,398.40,0.06,8582.45,251.82,0.30,5943.66,1578.78,-3.13,24483.29
894700,950.28,893.58,1.00,1,1,1,274.94,0.41,53662.91,548.45,0.48,34036.15,178.77,-2.87,26835.78,311.87,-0.03,5151.91,479.52,3.14,51375.82
909200,962.34,900.34,1.00,1,1,1,953.65,0.51,46950.09,306.96,2.69,53290.32,652.36,0.25,57316.30,628.50,0.16,22555.76,199.52,0.20,46619.29
923400,942.34,897.39,1.00,1,1,1,1424.10,-3.00,164784.66,815.83,0.06,77053.51,356.68,-0.07,23509.40,178.77,-2.87,56780.75,169.44,0.38,3107.72
937700,985.55,901.78,1.00,2,2,2,3037.39,0.10,311923.11,876.06,-0.17,14485.69,861.38,0.20,36827.86,652.36,0.25,58117.92,251.82,0.30,5860.54
959200,973.23,891.99,1.00,2,2,2,731.93,-2.47,170918.48,908.39,0.30,19627.34,876.06,-0.17,15118.73,356.68,-0.07,15527.14,311.87,-0.03,5127.95
973700,1016.76,911.53,1.00,3,3,3,3290.99,0.42,276160.52,3290.99,0.42,164929.20,908.39,0.30,29102.60,861.38,0.20,36319.89,628.50,0.16,22555.76
