@RELATION gaze_labels

%@METADATA width_px 1920
%@METADATA height_px 1080
%@METADATA width_mm 540.00
%@METADATA height_mm 254.00
%@METADATA distance_mm 620.00


@ATTRIBUTE time INTEGER
@ATTRIBUTE x NUMERIC
@ATTRIBUTE y NUMERIC
@ATTRIBUTE confidence NUMERIC
@ATTRIBUTE handlabeller1 INTEGER
@ATTRIBUTE handlabeller2 INTEGER
@ATTRIBUTE handlabeller_final INTEGER
@ATTRIBUTE speed_1 numeric
@ATTRIBUTE direction_1 numeric
@ATTRIBUTE acceleration_1 numeric
@ATTRIBUTE speed_2 numeric
@ATTRIBUTE direction_2 numeric
@ATTRIBUTE acceleration_2 numeric
@ATTRIBUTE speed_4 numeric
@ATTRIBUTE direction_4 numeric
@ATTRIBUTE acceleration_4 numeric
@ATTRIBUTE speed_8 numeric
@ATTRIBUTE direction_8 numeric
@ATTRIBUTE acceleration_8 numeric
@ATTRIBUTE speed_16 numeric
@ATTRIBUTE direction_16 numeric
@ATTRIBUTE acceleration_16 numeric

%The number after speed, direction denotes the step size that was used for the calculation.
%Acceleration was calculated between two adjacent samples of the already low pass filtered velocity

@DATA
0,822.99,976.08,1.00,4,4,4,0.00,0.00,0.00,1063.48,0.51,0.00,2126.51,-2.98,0.00,8468.72,-2.59,0.00,2120.23,-2.35,0.00
14000,835.95,983.40,1.00,4,4,4,1063.48,0.51,75963.12,2126.51,-2.98,224778.88,5925.60,-2.72,278758.06,7578.84,-2.40,125632.78,3477.79,-2.46,99409.41
35200,749.15,963.78,1.00,4,4,4,4197.60,-2.92,246464.56,5925.60,-2.72,184085.51,8468.72,-2.59,127894.20,2079.78,-2.11,264875.32,3321.52,-2.37,16487.60
49700,642.56,897.68,1.00,4,4,4,8650.36,-2.59,336529.33,16523.67,-2.53,742583.82,7578.84,-2.40,121300.61,1418.27,0.17,220384.65,2506.85,-2.32,57294.81
63700,363.11,694.08,1.00,4,4,4,24696.44,-2.51,1148786.38,10346.11,-2.17,555106.20,2079.78,-2.11,401096.92,2120.23,-2.35,241253.75,1729.48,0.08,282632.10
77800,478.79,657.47,1.00,4,4,4,8605.63,-0.31,2169763.06,10054.16,0.46,1399151.31,1418.27,0.17,226636.70,3477.79,-2.46,98704.38,1076.33,0.60,68038.85
98900,680.62,850.41,1.00,4,4,4,13232.88,0.76,560171.51,10228.01,0.79,160419.82,4507.15,0.32,147489.80,3321.52,-2.37,16565.74,346.08,0.36,35332.42
112900,730.86,913.09,1.00,4,4,4,5738.21,0.90,541622.16,2876.65,-2.19,934030.37,756.08,1.34,297148.45,2506.85,-2.32,59341.05,257.19,-1.47,34337.22
127000,633.67,784.60,1.00,4,4,4,11425.95,-2.22,1217209.27,11027.87,-2.43,585821.59,4657.32,-2.48,373410.63,1729.48,0.08,280627.62,268.30,-1.74,5095.36
141800,489.83,704.58,1.00,4,4,4,11121.83,-2.63,314892.87,6186.83,-2.59,339406.75,6153.39,-2.45,101703.00,1076.33,0.60,64820.80,329.62,-2.10,8326.78
162800,444.93,668.70,1.00,4,4,4,2736.92,-2.47,401665.15,2155.32,-2.56,192044.57,1368.51,-2.18,230943.49,346.08,0.36,35500.67,439.48,-0.35,28348.43
176900,426.56,663.11,1.00,4,4,4,1362.03,-2.85,110312.53,5070.05,0.31,508409.57,1610.90,0.31,200418.75,257.19,-1.47,34093.69,820.89,0.08,32663.84
191400,583.21,712.35,1.00,4,4,4,11324.63,0.30,874938.51,5279.11,0.42,43259.04,4405.21,0.61,200407.95,1499.47,0.60,112931.43,1913.09,0.41,80312.36
212500,598.15,739.77,1.00,4,4,4,1479.89,1.07,488662.91,4254.18,0.82,102481.21,4792.78,0.61,18456.12,2178.84,0.58,32218.53,1534.37,0.52,20075.03
241100,726.72,867.61,1.00,1,1,1,6339.78,0.78,172709.89,4536.78,0.79,11418.60,3805.48,0.70,37356.21,3128.41,0.54,33441.73,1015.40,0.13,24836.25
255100,734.53,876.71,1.00,1,1,1,856.02,0.86,391917.57,3211.29,0.42,138109.29,2675.48,0.70,80716.53,3278.41,0.52,12006.58,798.62,-0.11,21728.63
269700,810.72,904.77,1.00,1,1,1,5560.99,0.35,330915.85,1153.58,0.43,140945.17,1901.23,0.36,74544.55,2168.46,0.61,77825.81,1080.68,0.33,34048.79
305300,787.26,900.65,1.00,2,2,2,669.03,-2.97,174731.87,1161.33,0.28,4704.75,1851.74,0.28,4621.28,1931.04,0.48,9952.50,1654.49,0.41,16355.76
319900,866.72,920.97,1.00,2,2,2,5617.67,0.25,430475.61,3099.40,0.19,133318.15,772.59,0.17,74503.23,1693.26,0.08,51474.21,1856.69,0.43,14159.00
334200,875.28,917.25,1.00,2,2,2,652.42,-0.41,357887.57,305.63,-0.49,200475.55,1292.57,-0.25,46598.70,1558.39,0.05,10035.75,1966.68,0.41,8402.48
356000,876.47,915.81,1.00,1,1,1,86.05,-0.88,26473.49,1068.72,-1.76,46822.92,1664.34,-0.32,17683.47,819.34,-0.13,35214.83,1344.96,0.47,28885.39
370000,868.21,879.65,1.00,1,1,1,2648.96,-1.80,185521.62,3434.60,-0.30,248152.22,1359.78,-0.34,21842.76,1137.00,-0.03,23795.82,1256.94,0.42,7636.39
383800,967.56,887.18,1.00,1,1,1,7220.03,0.08,608265.60,3165.71,0.09,96555.98,978.62,-0.45,29151.58,517.12,-0.47,51172.88,843.84,0.09,38959.70
398300,957.40,888.05,1.00,1,1,1,703.07,3.06,545845.52,966.51,3.11,284551.71,1053.50,0.25,48589.38,578.52,-0.44,4460.46,1125.31,0.01,20047.07
419900,932.69,888.42,1.00,1,1,1,1144.19,3.13,20633.07,713.34,2.81,16375.46,655.00,3.06,78046.44,494.63,-0.41,3924.37,944.86,-0.09,9718.66
433900,933.41,896.38,1.00,1,1,1,571.01,1.48,94053.58,263.37,2.82,32145.06,231.94,-2.99,30921.08,454.56,0.13,18361.55,1101.96,-0.07,11325.68
448000,925.66,890.73,1.00,1,1,1,680.74,-2.51,80939.70,487.45,-0.85,51513.28,40.57,0.79,18831.54,96.30,3.12,39008.02,942.53,-0.14,12486.00
462700,942.64,885.80,1.00,2,2,2,1202.64,-0.28,116070.81,245.07,-0.05,24703.63,181.75,-2.23,15108.78,647.53,-0.09,50585.17,1017.20,-0.10,5740.62
484200,934.52,890.28,1.00,2,2,2,431.32,2.64,75634.28,459.64,3.06,32774.33,457.82,-0.11,26701.34,1093.32,-0.06,20783.63,844.72,-0.11,8026.98
498600,926.19,887.11,1.00,3,3,3,619.21,-2.78,32906.44,727.95,-0.14,82437.51,1525.26,-0.06,74199.86,1069.03,-0.12,4776.84,631.51,0.03,16340.24
512800,955.14,887.41,1.00,3,3,3,2038.96,0.01,185112.27,4051.99,-0.06,234284.42,2165.09,-0.07,45097.37,1402.49,-0.03,24732.97,357.49,-0.04,19412.39
526800,1040.25,880.35,1.00,1,1,1,6100.46,-0.08,291050.79,3327.79,-0.06,51729.33,2248.83,-0.05,7108.63,1496.87,0.02,8324.76,512.53,0.04,11347.32
548200,1072.74,880.56,1.00,1,1,1,1518.24,0.01,214494.81,833.76,0.00,116646.10,2358.07,-0.01,6489.06,1185.33,0.00,14613.19,589.74,0.00,3749.13
562700,1070.19,880.50,1.00,1,1,1,176.46,-3.12,116873.70,1188.52,0.16,26755.63,1477.96,0.10,62291.37,793.62,-0.03,27078.21,591.11,-0.09,3785.03
577000,1106.52,886.10,1.00,1,1,1,2570.98,0.15,192031.47,2276.74,0.14,76132.60,419.01,0.30,74888.11,729.16,-0.04,4532.04,489.84,-0.02,7562.45
591900,1135.99,889.98,1.00,1,1,1,1994.63,0.13,38826.32,95.60,2.00,154752.86,386.89,3.02,52896.77,417.76,0.21,22752.15,455.34,0.30,10182.69
627600,1104.49,890.49,1.00,1,1,1,882.24,3.13,80398.99,1931.33,-3.08,53186.75,393.52,-3.07,2111.38,190.01,0.29,6410.35,206.61,0.49,7155.15
641800,1039.79,884.08,1.00,1,1,1,4578.72,-3.04,260823.44,827.10,-2.94,78792.59,286.21,2.98,9401.19,203.13,0.02,3739.52,489.34,0.32,20232.25
670300,1069.91,883.34,1.00,1,1,1,1057.04,-0.02,197516.30,1372.34,0.15,77150.16,41.82,-2.69,8880.09,254.93,3.09,16061.32,454.35,0.37,1455.60
691900,1107.74,894.59,1.00,2,2,2,1827.26,0.29,40940.34,895.20,0.18,22129.48,792.64,-0.04,38412.81,481.27,2.68,12402.34,220.43,2.36,26854.63
706200,1101.53,889.07,1.00,2,2,2,581.19,-2.41,165482.34,499.40,-1.96,86575.60,92.63,2.22,59793.51,841.15,2.91,27202.47,179.17,1.96,6193.10
720700,1102.27,881.29,1.00,2,2,2,538.65,-1.48,35003.21,1220.72,-3.11,76966.76,850.88,2.51,52581.31,359.23,1.18,66544.80,155.03,2.02,1800.37
735100,1066.27,888.11,1.00,1,1,1,2544.70,2.95,190534.99,1863.82,2.25,103027.20,1820.69,2.89,75096.82,400.78,1.44,7335.82,235.52,2.50,8403.56
750100,1067.83,923.91,1.00,1,1,1,2389.07,1.53,215447.61,2353.85,2.78,80290.08,1025.15,2.28,76777.81,954.10,2.88,65633.04,628.32,3.01,29172.61
771100,986.95,917.93,1.00,1,1,1,3861.91,-3.07,227294.59,331.36,2.39,97676.08,739.24,1.35,39340.49,481.71,2.46,26119.66,655.33,3.03,1453.34
785500,1059.24,931.90,1.00,1,1,1,5113.08,0.19,622216.35,3179.14,0.19,235162.93,1135.94,3.13,102495.91,501.61,2.49,1660.51,291.03,2.75,26702.15
799800,1076.62,934.80,1.00,1,1,1,1232.00,0.17,271440.62,2258.80,-3.03,380004.35,1037.53,0.15,151468.90,304.99,1.96,19842.42,479.22,3.01,14868.10
814000,995.25,924.88,1.00,1,1,1,5772.65,-3.02,493215.00,688.03,-2.86,111588.45,221.06,-2.22,84904.08,828.09,-3.07,55347.62,1042.09,3.13,40083.84
835500,1052.99,928.09,1.00,2,2,2,2689.76,0.06,393415.87,1548.93,-0.08,102652.32,353.42,-2.91,10795.24,484.19,-3.04,16019.67,481.71,2.46,33871.70
849900,1050.69,920.52,1.00,2,2,2,549.52,-1.87,203101.40,79.61,3.03,113089.82,604.07,-2.96,17479.77,687.51,-2.98,14374.08,501.61,2.49,1660.51
878300,1049.61,928.48,1.00,1,1,1,282.77,1.71,28699.90,2150.64,-3.10,72960.69,1743.14,-3.02,40158.54,985.09,-2.89,10772.85,304.99,1.96,9991.08
899300,944.56,915.65,1.00,1,1,1,5039.53,-3.02,240174.80,3780.23,-3.01,78444.60,1133.59,-3.09,29427.83,1155.37,-2.98,9280.98,828.09,-3.07,37425.53
913300,918.42,911.27,1.00,1,1,1,1892.79,-2.98,224982.68,661.11,0.02,316979.11,1759.99,-2.89,49222.89,1743.14,-3.02,42153.77,484.19,-3.04,24601.64
927300,963.06,915.96,1.00,1,1,1,3206.33,0.10,364062.98,858.83,-0.47,29534.65,1881.27,-2.99,15805.80,1133.59,-3.09,44141.75,687.51,-2.98,14784.77
942300,940.63,899.99,1.00,1,1,1,1836.03,-2.52,325949.80,3811.58,-3.01,302932.09,858.83,-0.47,175112.78,1759.99,-2.89,45941.36,985.09,-2.89,20396.61
964100,824.09,896.96,1.00,1,1,1,5347.56,-3.12,181641.58,5347.56,-3.12,74038.69,3811.58,-3.01,208439.51,1881.27,-2.99,10150.52,1155.37,-2.98,8940.39
