@RELATION gaze_labels

%@METADATA width_px 1920
%@METADATA height_px 1080
%@METADATA width_mm 540.00
%@METADATA height_mm 254.00
%@METADATA distance_mm 620.00


@ATTRIBUTE time INTEGER
@ATTRIBUTE x NUMERIC
@ATTRIBUTE y NUMERIC
@ATTRIBUTE confidence NUMERIC
@ATTRIBUTE handlabeller1 INTEGER
@ATTRIBUTE handlabeller2 INTEGER
@ATTRIBUTE handlabeller_final INTEGER
@ATTRIBUTE speed_1 numeric
@ATTRIBUTE direction_1 numeric
@ATTRIBUTE acceleration_1 numeric
@ATTRIBUTE speed_2 numeric
@ATTRIBUTE direction_2 numeric
@ATTRIBUTE acceleration_2 numeric
@ATTRIBUTE speed_4 numeric
@ATTRIBUTE direction_4 numeric
@ATTRIBUTE acceleration_4 numeric
@ATTRIBUTE speed_8 numeric
@ATTRIBUTE direction_8 numeric
@ATTRIBUTE acceleration_8 numeric
@ATTRIBUTE speed_16 numeric
@ATTRIBUTE direction_16 numeric
@ATTRIBUTE acceleration_16 numeric

%The number after speed, direction denotes the step size that was used for the calculation.
%Acceleration was calculated between two adjacent samples of the already low pass filtered velocity

@DATA
0,53.39,662.63,1.00,4,4,4,0.00,0.00,0.00,3509.53,2.88,0.00,1632.08,2.65,0.00,4174.48,0.71,0.00,6286.39,0.54,0.00
14400,4.57,675.70,1.00,4,4,4,3509.53,2.88,243717.60,1632.08,2.65,135898.42,844.68,0.18,163242.20,4323.63,0.63,25395.70,6765.60,0.39,77804.11
28400,12.55,684.56,1.00,4,4,4,851.67,0.84,283556.22,844.68,0.18,167906.26,4174.48,0.71,247936.95,12049.90,0.24,586928.91,6477.02,0.41,24157.26
42900,28.24,680.12,1.00,4,4,4,1124.11,-0.28,73738.50,7996.80,0.56,497828.18,4323.63,0.63,25220.55,11885.85,0.18,56663.07,6315.23,0.40,12062.68
64600,257.43,838.96,1.00,4,4,4,12850.26,0.61,560680.68,7134.52,0.67,55657.84,12049.90,0.24,378663.81,6286.39,0.54,295917.90,4800.47,0.32,72667.62
79100,229.94,841.43,1.00,4,4,4,1903.43,3.05,990575.86,15885.63,0.11,727960.49,11885.85,0.18,56663.07,6765.60,0.39,77267.53,5801.55,0.31,69239.98
108200,945.64,916.93,1.00,4,4,4,24730.97,0.11,914123.63,16732.10,0.01,65072.92,7800.87,0.48,172298.16,6477.02,0.41,11622.05,1179.46,0.63,161436.11
123200,967.79,847.98,1.00,4,4,4,4828.69,-1.26,1614015.44,5245.22,1.73,1216647.01,8567.70,0.30,109489.39,6315.23,0.40,11660.59,969.52,1.90,85858.15
158200,905.12,1176.05,1.00,4,4,4,9542.95,1.76,409935.43,4710.24,1.44,43485.73,2295.48,1.52,230468.68,4800.47,0.32,45053.92,1727.86,0.47,53087.36
173100,998.86,1080.96,1.00,4,4,4,8961.37,-0.79,1188404.94,3174.13,-1.00,498130.63,2857.10,1.46,38920.82,5801.55,0.31,67381.19,1582.82,0.33,18671.89
187300,954.94,1098.27,1.00,4,4,4,3324.22,2.77,850420.30,338.62,1.96,247029.45,1850.96,-0.88,306604.29,1179.46,0.63,330830.35,2277.34,0.25,50226.97
209200,994.21,1092.26,1.00,4,4,4,1813.92,-0.15,233278.38,876.85,-0.52,53090.48,1803.83,0.36,96786.95,969.52,1.90,58806.95,1315.82,0.23,43932.23
224000,982.89,1082.32,1.00,4,4,4,1018.07,-2.42,174905.91,4092.05,0.26,237758.01,1996.08,-0.47,103518.06,3273.32,-2.52,247634.73,502.72,-0.59,70033.70
238100,1108.63,1122.14,1.00,4,4,4,9354.50,0.31,730117.06,2961.64,-0.45,188817.51,1538.52,-2.27,198077.03,4138.37,-2.71,78073.69,465.56,-1.02,15117.63
266600,1096.41,1027.26,1.00,4,4,4,3356.81,-1.70,392657.08,4551.87,-2.58,231826.43,6310.22,-2.77,175844.88,2543.55,-2.41,65586.29,2425.24,-2.81,89984.26
288400,915.40,999.33,1.00,4,4,4,8401.41,-2.99,373221.73,16281.32,-2.93,555586.54,9024.23,-2.72,125654.64,4501.81,-2.63,96036.87,2492.60,-2.95,16361.34
302900,518.83,901.95,1.00,4,4,4,28161.87,-2.90,1365959.47,16987.61,-2.79,165191.34,6914.76,-2.74,145914.58,4738.20,-2.64,16830.97,3008.38,-2.55,83668.07
317100,457.64,831.52,1.00,4,4,4,6570.32,-2.29,1627264.71,5950.04,-0.29,1551752.11,8224.98,-2.71,94300.39,6252.41,-2.68,107674.28,2591.72,-2.65,35903.55
331600,682.30,852.55,1.00,4,4,4,15560.91,0.09,1435439.88,1822.08,-2.04,450203.62,3063.73,-2.31,381084.79,6328.37,-2.75,30185.24,2659.51,-2.63,5967.36
353900,427.04,771.86,1.00,4,4,4,12004.66,-2.84,1229247.76,8613.51,-2.82,333093.08,2925.25,-2.52,28839.97,5311.91,-2.74,45610.93,3012.88,-2.68,17201.82
368000,384.47,754.55,1.00,4,4,4,3259.10,-2.76,621266.53,4761.50,-2.75,275151.12,5849.70,-2.75,218360.38,2742.85,-2.57,187772.75,2956.23,-2.71,6729.05
382000,303.29,720.99,1.00,1,1,1,6274.66,-2.75,215405.55,3575.37,-2.61,94373.48,2893.15,-2.83,212287.61,1212.29,-2.47,110117.14,3402.83,-2.72,31945.90
411200,251.30,676.31,1.00,1,1,1,2347.66,-2.43,140773.83,1867.80,-2.93,65089.16,2648.80,-2.83,8368.22,2868.84,-2.81,60682.99,3263.58,-2.79,9699.11
432300,211.34,701.69,1.00,1,1,1,2243.48,2.58,129643.17,1868.93,2.92,37231.22,100.24,-1.17,126019.73,1665.87,-2.83,57034.03,2830.99,-2.76,21010.21
446300,187.24,690.42,1.00,1,1,1,1901.02,-2.70,143977.16,2221.07,0.11,288259.14,363.62,1.55,32646.41,1491.91,-2.90,14694.00,1512.13,-2.65,95492.51
475600,306.93,712.34,1.00,2,2,2,4152.90,0.18,205159.19,1509.58,0.22,25259.77,444.83,-2.82,22576.35,1045.69,-2.91,15238.13,1203.82,-2.73,11022.59
490200,251.88,705.03,1.00,3,3,3,3803.60,-3.01,544801.35,3680.89,-2.98,355396.69,543.41,3.10,13839.00,616.33,3.09,33364.92,1866.16,-2.86,47483.50
511100,178.06,690.71,1.00,1,1,1,3597.88,-2.95,14421.42,2366.04,-3.03,63443.84,2311.87,-2.96,85463.78,568.92,-2.91,8291.75,956.92,-2.89,43547.72
539100,136.85,692.54,1.00,1,1,1,1472.98,3.10,78316.63,1188.25,-2.92,42626.05,1225.05,-2.92,38899.22,449.52,-3.11,5570.55,999.62,-2.90,1578.93
554300,128.00,679.34,1.00,1,1,1,1045.76,-2.16,84824.42,478.31,-0.67,100892.95,696.47,-2.97,34934.32,1281.98,-2.99,55103.35,724.18,-2.98,18644.07
575200,150.37,681.80,1.00,1,1,1,1076.88,0.11,92093.10,123.92,2.64,28750.23,322.62,-2.94,17901.51,822.75,-3.05,22158.10,327.28,-3.06,19084.13
589600,124.17,681.45,1.00,1,1,1,1819.56,-3.13,200923.29,1194.17,2.95,74796.98,90.68,1.93,22285.80,218.96,2.81,43723.39,170.82,-2.51,14136.94
604300,116.24,688.34,1.00,1,1,1,714.22,2.43,93277.41,130.68,1.08,84303.95,374.60,2.63,21151.31,350.08,-2.95,13227.35,89.33,-2.52,5546.05
618400,125.95,684.77,1.00,1,1,1,733.10,-0.35,100961.62,390.67,0.39,21414.08,479.18,0.68,50410.63,316.51,2.97,8928.73,712.61,-3.11,45395.09
640000,129.16,693.60,1.00,1,1,1,434.68,1.22,39500.35,767.46,0.62,18440.76,377.89,-2.95,38514.84,107.99,-1.19,17788.90,419.66,-2.81,15578.09
654400,148.38,700.90,1.00,1,1,1,1427.90,0.36,82647.72,1327.78,-2.88,143282.87,587.78,3.10,16384.61,328.66,-0.22,19604.66,417.84,-3.00,5707.64
668700,92.33,683.80,1.00,1,1,1,4097.78,-2.85,386245.14,2143.74,-2.91,57135.29,559.56,-0.75,75193.59,357.67,-0.27,2328.89,106.51,-3.05,21783.59
683500,87.71,686.36,1.00,1,1,1,357.02,2.63,260707.23,1804.46,-0.23,259549.64,469.72,-0.94,8834.69,229.27,2.49,38956.73,39.91,1.52,8024.37
704700,155.54,668.80,1.00,1,1,1,3304.79,-0.25,172239.11,1702.06,-0.18,6402.57,943.25,-0.12,33513.39,209.05,-1.34,19469.40,15.97,-1.01,2536.51
732700,170.07,671.20,1.00,1,1,1,526.03,0.16,101136.62,274.96,0.55,53911.22,262.92,1.05,31267.29,649.79,-2.85,23917.71,11.86,-0.09,459.77
746700,165.36,674.87,1.00,1,1,1,426.54,2.48,62384.63,2250.12,2.69,172081.98,256.64,-2.93,33916.17,118.15,0.37,54830.47,142.46,0.13,9349.69
767900,98.74,705.62,1.00,1,1,1,3461.25,2.71,143750.35,863.51,-2.80,82615.07,1722.34,3.12,69547.38,274.72,0.10,7740.97,85.62,0.33,2884.12
782800,135.96,664.53,1.00,1,1,1,3720.94,-0.83,472313.43,1737.16,-2.46,65006.76,920.94,2.88,57185.69,61.12,1.86,19632.17,110.11,-0.15,3532.72
796700,59.88,674.11,1.00,1,1,1,5516.32,3.02,624776.97,1334.81,2.40,145636.18,515.16,-0.47,102769.87,307.17,2.91,20275.74,81.91,-2.18,11751.35
811100,108.00,689.93,1.00,1,1,1,3517.58,0.32,612788.75,1954.64,0.23,203026.08,276.15,0.67,32849.75,121.21,1.87,18536.34,73.27,0.26,10118.80
832800,128.53,690.44,1.00,1,1,1,946.29,0.02,121007.12,933.34,-0.26,56081.07,869.92,0.10,30152.32,342.20,-0.23,19232.36,22.94,-0.80,3003.19
860800,152.81,677.94,1.00,1,1,1,975.36,-0.48,17011.63,221.74,-1.68,33045.16,521.31,0.07,12470.00,225.93,0.75,10275.07,87.26,2.79,3872.57
874900,127.54,681.16,1.00,1,1,1,1806.50,3.02,194571.49,348.44,1.17,40028.57,245.09,0.13,19633.08,457.60,0.08,22221.08,455.78,3.14,26591.82
910100,159.46,693.78,1.00,1,1,1,975.22,0.38,76764.71,532.08,0.48,9800.34,177.66,0.88,4752.86,36.61,-0.05,11970.74,258.94,-0.20,20216.24
924000,150.70,693.24,1.00,1,1,1,631.56,-3.08,114224.62,201.14,-1.18,42156.54,78.77,-0.12,10827.87,236.83,-2.89,19568.19,402.84,-0.26,10447.49
938300,161.61,688.53,1.00,1,1,1,831.19,-0.41,99545.48,589.32,-2.48,39776.84,709.37,-3.05,55001.24,152.29,-3.14,6725.75,519.38,-0.01,11372.45
959600,134.16,680.34,1.00,1,1,1,1344.88,-2.85,96357.99,1316.39,3.12,44016.43,909.32,-2.94,10270.90,607.42,-3.04,21412.56,536.09,0.13,3620.66
974500,113.97,689.61,1.00,1,1,1,1491.19,2.71,67725.12,1403.92,3.12,5876.28,495.76,-2.80,28416.72,630.52,-0.39,80562.15,358.69,0.11,11921.61
989200,92.62,681.35,1.00,2,2,2,1557.38,-2.77,80822.34,713.61,-0.60,138693.86,1493.70,-3.05,69438.44,468.57,-0.28,11764.46,312.49,-0.07,5174.52
1003600,131.06,677.82,1.00,2,2,2,2681.00,-0.09,287108.70,1580.49,-2.97,149287.65,1670.34,-0.23,216952.39,918.93,-0.20,31511.83,310.47,0.01,1804.66
1025000,36.85,671.82,1.00,3,3,3,4411.56,-3.08,330488.75,2254.86,-0.16,176804.68,1555.42,-0.06,14289.06,625.66,0.17,18837.35,319.88,0.15,2105.08
1054100,243.39,659.14,1.00,1,1,1,7111.11,-0.06,395238.44,4113.80,0.02,66594.71,2043.60,-0.09,16935.70,725.01,0.12,3612.99,329.33,-0.11,2901.52
1068500,215.78,674.54,1.00,1,1,1,2196.00,2.63,634744.27,1702.66,0.08,167816.96,2375.85,0.13,40872.93,903.13,0.02,13599.37,875.43,0.03,38252.76
1082500,291.61,662.83,1.00,1,1,1,5480.66,-0.15,541280.16,632.24,1.23,111383.22,780.51,2.11,198759.54,772.89,0.01,9314.82,815.17,-0.04,6091.75
1104100,223.24,695.78,1.00,1,1,1,3513.39,2.69,412062.79,2335.82,2.65,107726.17,175.54,0.99,33411.67,1286.05,0.13,24356.59,653.29,0.01,7693.92
1118400,217.54,702.15,1.00,1,1,1,598.13,2.30,207660.40,421.30,-1.68,176334.50,823.37,2.83,61936.16,185.59,1.17,84135.93,782.48,-0.07,9910.76
1132400,221.92,683.93,1.00,1,1,1,1338.99,-1.34,134796.39,1182.07,-0.77,70301.98,42.23,-3.06,56047.28,1273.14,0.13,84997.45,764.68,-0.09,1639.05
1146500,241.50,679.15,1.00,1,1,1,1429.38,-0.24,102402.01,319.62,1.69,102400.58,509.59,-0.47,38718.10,744.22,0.12,37518.30,814.11,-0.04,4557.29
1169000,220.51,695.54,1.00,1,1,1,1183.65,2.48,113562.52,254.34,0.36,15933.15,2057.73,0.09,73204.17,688.59,-0.11,7878.82,1012.54,0.04,9353.89
1198200,253.81,683.76,1.00,3,3,3,1209.65,-0.34,80894.67,3369.09,0.03,107181.86,1693.64,-0.01,13878.23,849.42,-0.21,6039.73,378.85,0.11,21763.42
1227000,415.85,700.84,1.00,1,1,1,5657.34,0.10,159549.20,3191.81,-0.04,9615.46,1128.08,-0.11,20239.26,663.83,-0.21,6444.60,594.06,0.01,7662.87
1248500,414.25,677.70,1.00,1,1,1,1078.67,-1.64,276276.44,1541.82,-2.90,218225.55,1160.09,-0.11,1495.44,848.25,-0.08,9792.26,360.66,0.09,10998.45
1276800,341.38,682.13,1.00,1,1,1,2579.63,3.08,98507.43,1238.21,-3.03,12472.74,1028.75,-2.64,73757.92,793.99,-0.09,1933.17,472.72,-0.17,5561.11
1291500,361.36,671.56,1.00,1,1,1,1538.01,-0.49,274188.21,661.00,-1.68,86029.79,294.12,-2.68,49992.26,658.76,-0.11,9288.00,480.22,-0.32,4807.24
1312400,338.73,658.75,1.00,1,1,1,1244.11,-2.63,116959.70,932.51,-0.13,54326.07,238.39,0.12,25096.42,197.82,-2.19,37041.99,682.05,-0.12,11187.30
1326500,393.74,667.43,1.00,1,1,1,3949.37,0.16,364041.93,1078.25,0.95,73870.54,71.00,2.99,21806.90,88.93,-2.78,9491.79,1511.45,-0.00,59396.37
1341000,356.58,683.90,1.00,1,1,1,2802.85,2.72,447204.03,1277.93,3.01,139427.01,977.18,0.29,71851.30,192.90,-0.46,18048.26,1782.17,-0.01,18716.47
1355600,356.86,672.23,1.00,1,1,1,799.13,-1.55,220961.44,1204.50,-0.17,169997.05,161.65,0.59,56457.36,122.23,-1.55,11885.93,1678.47,-0.01,7107.66
1376500,398.73,676.72,1.00,1,1,1,2015.02,0.11,106617.88,1286.17,0.02,12021.73,226.93,-1.07,13909.65,713.35,-0.00,34482.57,880.94,-0.14,38852.54
1391000,402.38,673.26,1.00,1,1,1,346.60,-0.76,124819.39,1222.95,-2.98,172631.46,237.53,-1.31,3850.89,2344.28,0.03,112523.15,1186.59,0.03,24051.03
1405600,363.60,671.03,1.00,2,2,2,2660.19,-3.08,199207.92,1021.43,-2.70,25547.56,580.76,-0.41,32313.29,2969.95,0.01,43045.35,1652.63,0.03,31921.66
1435000,361.76,654.02,1.00,3,3,3,581.89,-1.68,89382.99,1560.57,-0.16,84043.00,4133.50,0.02,122845.54,2802.36,0.02,5720.18,1053.77,0.02,20372.08
1455900,441.09,658.50,1.00,3,3,3,3801.89,0.06,188475.16,10405.00,0.07,425420.92,5316.88,0.04,56903.49,1902.15,-0.04,43507.53,1267.78,0.06,10442.14
1470600,731.36,678.62,1.00,1,1,1,19793.43,0.07,1087885.99,11991.59,0.09,109102.43,6213.47,0.06,61493.17,2452.15,0.04,39217.03,905.68,0.01,24901.13
1484500,782.74,688.45,1.00,1,1,1,3763.60,0.19,1155618.25,961.58,-0.00,793846.34,3593.22,0.03,188781.20,2859.68,0.05,29401.92,1073.95,-0.06,12958.88
1499000,758.67,678.49,1.00,1,1,1,1796.79,-2.75,381743.15,3184.44,-2.94,284853.05,367.12,0.38,224188.85,1972.62,0.07,61271.13,971.15,-0.02,7755.06
1520100,671.66,665.79,1.00,1,1,1,4167.14,-3.00,116810.74,298.40,2.14,146390.92,421.58,0.18,4583.52,1771.22,0.08,9551.78,589.00,-0.09,18324.23
1534100,753.00,687.29,1.00,1,1,1,6009.23,0.26,725750.71,3352.34,0.20,248076.31,715.68,-3.13,80976.53,411.52,-2.99,155844.95,720.97,-0.07,9508.99
1563900,815.69,694.36,1.00,1,1,1,2117.03,0.11,131773.63,1021.54,-3.00,146741.21,544.37,0.28,41917.91,466.10,-2.83,2940.53,800.38,-0.11,2888.65
1600000,686.39,677.53,1.00,1,1,1,3611.88,-3.01,158690.24,1896.44,-2.99,24236.48,931.02,-2.93,40847.81,495.53,-3.02,2564.41,1055.38,0.08,8555.95
1614400,721.01,679.93,1.00,1,1,1,2410.02,0.07,418005.86,742.57,-2.72,83166.71,1167.51,-2.87,16969.01,506.35,-3.07,1939.14,940.39,0.07,8031.05
1628400,667.16,668.88,1.00,1,1,1,3927.03,-2.94,451702.85,496.30,-2.39,22549.05,240.65,-2.58,67114.27,732.62,-2.91,17570.00,116.07,0.29,59121.30
1664100,702.95,663.13,1.00,1,1,1,1015.49,-0.16,136976.65,70.87,-0.41,14803.35,1758.21,-2.99,43160.89,1231.51,-2.88,13992.49,147.20,-3.02,7346.08
1678500,670.41,667.46,1.00,1,1,1,2279.74,3.01,228817.62,4105.89,-3.11,289582.51,495.33,-2.86,88091.13,89.30,0.26,91722.79,717.43,3.08,39807.40
1693000,584.35,659.42,1.00,1,1,1,5961.00,-3.05,260232.84,1464.31,-2.92,185026.06,1332.03,-2.90,57738.26,100.17,-0.09,2392.60,1083.39,3.09,25244.98
1707000,629.71,658.23,1.00,1,1,1,3241.03,-0.03,656222.32,1125.56,-0.44,175237.86,417.23,0.44,124518.92,621.29,0.20,37574.29,1325.62,-3.14,17943.22
1728100,620.17,642.76,1.00,1,1,1,861.55,-2.12,177653.97,1494.35,0.32,48372.98,1970.30,0.13,74796.00,266.73,0.54,18034.31,1742.85,-3.10,20027.55
1756400,699.87,681.18,1.00,1,1,1,3126.46,0.45,137102.50,2846.97,0.30,47812.64,1644.52,0.22,13099.12,1013.89,2.96,43351.57,1228.58,3.13,18375.70
1770900,736.63,678.59,1.00,2,2,2,2541.49,-0.07,107696.63,1867.04,0.12,73116.10,1546.68,0.33,13944.18,1790.17,3.04,54051.72,1209.81,-3.12,2596.29
1792700,767.14,689.48,1.00,3,3,3,1485.66,0.34,60681.78,121.89,1.81,86476.49,2656.08,3.07,189155.10,2043.36,3.05,11620.18,1019.37,3.04,10572.64
1807100,735.58,682.88,1.00,3,3,3,2238.52,-2.94,258044.99,8365.81,3.13,578883.06,6288.15,3.13,252708.03,2381.37,3.06,23559.95,849.53,2.88,15956.06
1821300,527.90,693.02,1.00,1,1,1,14643.09,3.09,879560.91,14265.10,3.14,415537.81,6929.26,-3.14,46128.88,2825.02,-3.14,34738.60,776.28,2.91,5415.96
1835500,330.46,684.21,1.00,1,1,1,13918.25,-3.10,106878.12,5762.12,-3.11,599219.13,7124.98,-3.11,17581.79,2632.93,-3.13,13726.88,486.53,2.68,22698.37
1856400,325.75,686.60,1.00,1,1,1,252.57,2.67,655452.86,1449.18,-2.86,209246.82,3009.89,-3.07,197087.02,2876.31,3.12,12742.30,812.44,3.02,18748.29
1870900,281.20,669.89,1.00,1,1,1,3281.85,-2.78,214949.42,423.98,-0.57,121139.04,370.35,-0.40,230657.26,1887.41,2.98,71713.13,525.10,2.85,21344.64
1885200,336.01,679.98,1.00,1,1,1,3897.65,0.18,500116.93,1736.22,0.04,98596.80,401.56,0.41,21353.34,564.96,2.81,93252.78,1053.37,3.11,39289.83
1914900,357.54,672.74,1.00,1,1,1,764.60,-0.32,109434.56,534.55,0.79,46998.27,2437.16,0.30,68643.20,774.15,0.34,42674.63,1147.74,3.11,3177.58
1936000,355.08,699.31,1.00,1,1,1,1264.65,1.66,81626.49,3407.34,0.45,137836.04,1231.74,0.37,57456.68,259.19,0.05,25155.69,1356.72,3.13,9993.92
1950900,467.73,726.64,1.00,1,1,1,7779.53,0.24,516662.50,2128.82,0.25,93586.49,1261.27,0.52,12905.22,1056.84,0.11,53581.63,949.01,3.10,27442.91
1978900,443.61,721.72,1.00,1,1,1,878.91,-2.94,309211.10,344.14,-3.13,88025.18,200.00,-0.60,42469.39,226.91,0.32,29854.53,284.63,3.13,23735.43
2000200,450.76,726.45,1.00,1,1,1,402.32,0.58,59205.40,1620.15,-2.72,61587.96,396.26,-1.73,16861.97,191.14,0.63,3479.72,185.25,0.31,21790.35
2028500,370.30,688.81,1.00,1,1,1,3138.76,-2.70,124990.98,876.71,-1.27,61723.48,865.06,-2.74,26013.20,35.42,-0.91,6828.18,298.92,0.01,4740.87
2043000,461.89,690.61,1.00,1,1,1,6317.75,0.02,639608.69,163.37,0.72,65884.45,966.20,-2.66,8597.05,233.20,-2.08,15300.40,842.16,0.03,37475.02
2065200,374.80,692.77,1.00,1,1,1,3924.39,3.12,461249.29,2176.28,3.13,103621.99,202.82,2.66,38976.05,195.06,-1.62,4677.02,620.86,0.03,9968.41
2079300,382.90,691.30,1.00,1,1,1,583.83,-0.18,319296.66,571.80,3.01,114201.28,193.16,2.83,2381.64,489.47,-2.78,31850.47,729.52,0.22,11854.39
2093900,358.53,694.91,1.00,1,1,1,1687.38,2.99,155546.47,2304.67,0.05,196516.40,1178.50,0.01,93332.26,352.02,-0.03,56566.61,682.94,0.01,10935.35
2108400,449.89,694.54,1.00,2,2,2,6300.53,-0.00,549951.49,2936.18,-0.01,44951.23,164.29,1.39,79805.70,597.93,-0.14,17283.14,317.65,-0.06,25290.53
2122400,442.20,693.76,1.00,3,3,3,551.59,-3.04,489240.40,1837.98,3.03,340634.01,896.37,-0.13,64471.48,1131.13,-0.04,38538.58,479.82,-0.19,12106.06
2144000,384.85,701.75,1.00,3,3,3,2680.68,3.00,99474.84,740.38,-2.90,54238.98,1256.48,-0.16,16734.15,1369.84,0.16,15797.33,507.82,-0.06,3301.23
2158700,416.11,687.31,1.00,1,1,1,2342.50,-0.43,338034.37,3835.23,-0.14,308189.07,1101.40,-0.07,12583.11,1416.50,0.03,12799.35,787.31,0.08,19865.41
2186700,547.00,678.79,1.00,1,1,1,4684.42,-0.06,94166.94,2430.81,-0.01,52284.69,2460.76,0.11,49704.15,813.74,0.23,22836.60,225.87,0.30,20329.99
2208200,536.44,686.69,1.00,1,1,1,613.31,2.50,242292.41,1473.59,0.98,94329.69,1864.04,0.09,27796.43,932.04,0.01,10346.56,441.60,0.25,10062.13
2222200,576.19,722.20,1.00,1,1,1,3807.93,0.73,283964.39,976.62,0.53,52305.63,696.90,1.21,120036.00,1485.62,0.08,39948.49,202.11,0.16,17222.01
2236300,560.16,700.48,1.00,1,1,1,1914.86,-2.21,403957.81,471.83,-3.02,100876.12,721.27,0.18,49338.19,1151.65,0.10,23819.90,201.67,0.28,1775.11
2250800,562.80,720.58,1.00,1,1,1,1398.12,1.44,221404.46,621.13,-0.24,74169.55,313.06,-0.20,30834.52,227.83,2.09,87005.15,168.33,0.33,2398.78
2272200,581.81,695.15,1.00,1,1,1,1483.72,-0.93,124751.84,930.13,-0.07,15627.97,451.86,0.16,9061.91,324.06,2.28,5062.64,200.90,0.61,2780.92
2286500,595.91,718.17,1.00,1,1,1,1887.56,1.02,195760.42,405.97,0.68,48461.80,357.50,-2.88,56520.04,857.38,-2.98,51910.22,383.00,-0.03,17534.11
2315200,595.36,706.17,1.00,2,2,2,418.56,-1.62,78859.62,1057.06,-3.04,49277.90,901.73,2.77,22626.57,781.97,3.05,7531.38,189.71,0.36,7660.93
2350800,528.31,711.17,1.00,1,1,1,1888.64,3.07,54658.62,1869.34,2.94,25861.65,1652.68,-3.03,26698.96,348.89,-3.01,12593.27,214.63,2.60,10210.23
2365500,503.32,725.44,1.00,1,1,1,1957.18,2.62,57843.98,2978.12,-3.02,91884.36,1746.72,3.10,18634.02,544.20,2.75,20267.43,255.25,2.84,4692.66
2379700,442.88,700.70,1.00,1,1,1,4599.51,-2.75,262554.73,1679.66,-2.99,91564.02,347.10,3.10,98565.12,540.86,-2.93,22621.05,375.81,-3.13,10993.82
2415200,420.81,712.79,1.00,1,1,1,708.83,2.64,118014.54,1186.99,0.20,80731.96,120.80,2.58,7043.48,742.28,3.12,7065.97,229.16,3.00,4336.39
2429600,500.98,712.23,1.00,1,1,1,5567.28,-0.01,430585.13,2668.60,0.23,102994.17,793.72,-0.03,62503.79,263.39,3.09,33265.16,370.45,-3.02,11183.89
2443900,495.32,730.51,1.00,1,1,1,1337.74,1.87,427011.36,500.62,-1.28,187718.53,808.44,-0.07,2306.98,299.49,-2.77,8533.70,422.98,3.08,6220.54
2458200,505.15,698.53,1.00,1,1,1,2338.96,-1.27,257111.82,856.59,-2.37,53929.88,162.31,3.07,67884.52,153.96,0.93,30598.78,181.00,-2.98,17455.76
2480000,473.06,709.04,1.00,1,1,1,1548.73,2.83,159215.39,564.48,2.36,46489.93,581.40,-2.57,21192.92,452.69,-0.03,17663.21,356.98,0.13,24674.32
2494800,490.42,713.03,1.00,1,1,1,1203.61,0.23,179287.53,337.87,3.06,25344.35,655.18,2.71,40167.55,397.03,-3.03,57282.32,829.33,0.22,32113.60
2509900,462.99,709.84,1.00,1,1,1,1828.96,-3.03,200541.95,777.79,2.93,29505.09,170.02,0.15,53173.16,376.73,-2.62,10644.16,966.23,0.16,9935.15
2538200,457.45,720.27,1.00,1,1,1,417.46,2.06,60837.77,466.51,0.05,43593.78,590.85,-2.99,26885.94,244.39,0.29,21807.79,1185.67,0.12,7870.48
2560600,486.61,711.10,1.00,2,2,2,1364.43,-0.30,75328.44,543.33,-2.34,41954.57,207.91,-2.72,17616.10,1601.78,0.05,60983.98,1202.81,0.11,1100.29
2574900,443.64,705.90,1.00,0,0,0,3027.07,-3.02,301182.24,1380.28,-2.94,68604.12,1256.70,-0.14,100480.14,1909.11,0.19,27395.74,853.06,0.19,25121.12
2589200,447.96,703.06,1.00,0,0,0,361.81,-0.58,231588.60,3297.78,0.03,326104.54,3394.90,0.04,151773.73,2225.19,0.18,22108.08,1087.69,0.13,16771.33
2603900,539.23,708.86,1.00,0,0,0,6220.98,0.06,403787.61,7197.24,0.07,265533.88,5013.30,0.18,116905.40,2371.36,0.07,20628.37,868.26,0.20,15534.65
2625000,705.05,720.23,1.00,1,1,1,7877.42,0.07,78522.15,6458.10,0.24,67297.24,5177.60,0.20,8476.17,1968.23,0.14,20305.57,971.92,0.13,5832.52
2639400,761.65,764.42,1.00,1,1,1,4986.66,0.66,324440.61,3010.84,0.58,260295.88,3327.67,0.13,129729.72,1993.14,0.17,5333.22,705.62,0.06,18939.97
2654400,779.09,768.75,1.00,1,1,1,1197.58,0.24,261544.34,996.76,-0.50,179015.09,857.66,0.44,168300.22,2400.27,0.19,27251.49,961.11,0.15,17869.58
2682900,799.78,743.77,1.00,1,1,1,1138.16,-0.88,43655.75,469.93,-2.15,39936.11,71.64,-2.49,32559.02,1373.14,0.19,36039.95,987.61,0.07,2985.76
2704000,766.26,749.29,1.00,1,1,1,1610.28,2.98,122256.36,909.84,2.78,44011.69,478.63,0.14,25703.68,462.35,0.36,43653.81,1091.73,0.07,4935.58
2734100,756.24,760.33,1.00,1,1,1,495.18,2.31,41877.63,1411.87,0.42,71567.68,200.44,2.57,21403.24,353.23,-2.46,26740.84,1251.35,0.07,5308.07
2748600,823.74,775.00,1.00,1,1,1,4763.77,0.21,346854.90,537.97,-0.21,70841.19,147.68,-0.06,23259.72,113.03,-2.48,16569.25,1087.39,0.08,11331.42
2784300,782.66,754.72,1.00,1,1,1,1283.32,-2.68,168541.79,1020.18,-2.59,40860.65,693.01,-2.45,22608.12,223.79,-3.10,4126.17,915.63,0.05,4885.49
2798600,780.20,748.42,1.00,2,2,2,472.59,-1.94,69034.48,2624.18,-2.74,113403.80,803.99,-2.85,21967.36,381.24,-0.20,42034.53,393.63,0.24,37403.79
2812600,714.31,725.66,1.00,3,3,3,4979.10,-2.81,334768.99,659.85,2.67,161217.74,366.62,-2.58,32894.85,551.24,-0.33,12884.49,212.65,-0.36,17807.37
2826600,763.73,756.79,1.00,3,3,3,4171.70,0.56,649361.37,1440.09,0.33,139856.20,665.81,-0.23,68531.74,313.84,-2.08,48680.35,133.04,-1.19,11214.76
2848200,762.82,742.26,1.00,1,1,1,674.34,-1.63,212900.42,1397.49,-0.29,40322.44,1584.58,0.06,44657.59,428.59,-0.55,24033.35,186.81,-0.01,8459.44
2876800,830.88,736.49,1.00,1,1,1,2388.20,-0.08,86263.48,1780.21,-0.13,16191.17,511.68,-0.65,43425.34,320.71,0.03,8402.04,184.64,-0.19,1155.09
2890800,838.04,732.56,1.00,1,1,1,583.01,-0.50,133584.86,914.47,-2.94,190173.83,946.63,-0.27,36443.75,780.20,0.14,33027.38,214.54,-0.32,2842.27
2912700,798.70,730.00,1.00,1,1,1,1800.05,-3.08,105623.23,294.65,-1.90,36802.13,223.33,1.93,49896.36,279.91,-0.73,28967.92,89.34,-0.83,6536.27
2926800,834.57,722.54,1.00,1,1,1,2598.22,-0.21,309186.25,1189.69,0.63,102260.17,246.24,2.60,11063.78,664.54,0.01,34984.10,139.64,-0.95,3691.47
2941000,825.85,749.91,1.00,1,1,1,2023.23,1.88,281764.02,734.99,2.08,92781.24,59.58,-2.88,14724.22,81.42,2.93,52410.19,116.09,-0.37,5358.92
2955100,824.47,740.72,1.00,1,1,1,659.03,-1.72,186575.39,1060.06,-2.55,95206.66,480.30,0.73,37869.04,197.35,2.81,8294.25,1287.41,0.06,83924.18
2976100,795.05,729.04,1.00,1,1,1,1507.54,-2.76,62230.93,934.20,0.07,91683.21,194.49,-2.00,31584.94,351.77,0.52,24005.07,1729.68,0.04,21150.24
2990200,857.18,742.92,1.00,1,1,1,4515.77,0.22,426183.91,965.54,0.36,19725.86,161.69,3.13,13924.70,201.80,-3.13,38084.21,1940.95,0.08,15803.03
3004500,820.72,738.68,1.00,1,1,1,2567.48,-3.03,494714.51,1501.11,-3.09,170510.47,680.81,0.50,57732.78,122.87,-2.32,10337.80,1496.92,0.07,31068.39
3018900,814.15,740.85,1.00,1,1,1,480.08,2.82,148735.02,531.51,0.64,136386.32,699.15,-2.76,95662.32,1727.88,0.04,126154.57,1312.04,0.05,12948.28
3055000,842.19,754.78,1.00,1,1,1,867.27,0.46,34756.11,402.59,-1.99,25075.58,91.04,-2.78,16845.77,3057.01,0.09,36986.67,1465.48,0.05,4252.65
3069400,805.79,722.32,1.00,2,2,2,3387.05,-2.41,293733.74,799.54,-2.57,35423.35,2919.02,0.03,208713.92,2992.57,0.09,4541.80,1473.77,0.12,7384.11
3099000,812.66,735.66,1.00,3,3,3,507.13,1.10,130562.21,6014.64,0.09,227494.38,5110.15,0.05,74042.57,2616.34,0.06,12965.39,1314.07,0.02,7042.51
3120100,1109.38,750.96,1.00,1,1,1,14081.57,0.05,655622.02,10251.97,0.08,200875.47,6100.05,0.12,50344.03,2377.80,0.03,11972.07,1285.92,0.05,2212.50
3148700,1320.49,777.15,1.00,1,1,1,7437.84,0.12,233719.34,6205.07,0.14,142460.54,5614.90,0.07,19802.82,2502.75,-0.01,5492.36,1418.30,0.05,4629.99
3162800,1371.72,788.13,1.00,1,1,1,3716.00,0.21,265974.20,903.69,-2.82,503294.98,1681.26,0.01,279231.75,2974.54,0.11,41035.89,925.06,-0.10,36901.50
3184200,1290.01,767.13,1.00,1,1,1,3942.24,-2.89,357788.83,3760.10,-2.87,133547.19,1315.85,-2.82,138395.65,2850.16,0.06,9542.87,273.36,-0.04,30479.62
3198700,1241.52,752.49,1.00,1,1,1,3493.18,-2.85,32768.62,1811.86,-2.82,134755.45,1469.20,-3.00,20461.81,781.95,0.09,142669.34,275.03,3.07,37815.94
3213700,1239.35,750.10,1.00,1,1,1,215.52,-2.31,220678.46,1380.89,0.57,211251.98,1151.76,-3.01,21180.28,757.58,-2.86,102144.44,429.50,3.12,10363.31
3228500,1276.12,774.76,1.00,1,1,1,2992.00,0.59,216326.68,631.95,2.68,120786.76,321.58,2.75,59997.74,1603.74,-2.82,57249.92,245.30,2.73,15061.33
3243100,1222.73,758.41,1.00,1,1,1,3824.44,-2.84,461931.71,1550.53,-2.89,78964.11,215.27,-3.11,10597.76,2772.91,-3.06,87068.10,243.10,3.11,6398.89
3264600,1221.96,760.64,1.00,2,2,2,109.64,1.91,177763.87,250.00,-1.30,73187.60,1748.15,-2.69,72240.99,3550.65,-3.13,37760.45,1597.42,-3.06,63073.83
3279700,1225.15,749.59,1.00,2,2,2,761.80,-1.29,57702.34,1949.69,-2.57,125150.25,3975.03,-3.07,161019.00,3649.86,3.13,8766.64,2251.25,-3.08,43371.07
3308400,1150.16,714.42,1.00,3,3,3,2886.13,-2.70,99897.58,7410.14,-3.10,202331.81,6246.33,-3.12,79573.31,3747.47,-3.10,8055.37,2095.50,-3.09,5485.03
3322600,907.59,734.94,1.00,1,1,1,17142.91,3.06,1036143.69,11913.63,3.06,327511.39,6537.78,3.13,28058.90,3350.02,-3.10,27991.15,1850.99,-3.08,17301.76
3344200,724.93,747.45,1.00,1,1,1,8476.49,3.07,401322.95,5531.54,3.03,295826.16,6481.33,3.05,22778.92,3995.05,-3.06,30641.41,1976.29,-3.07,5807.21
3358200,712.00,757.79,1.00,1,1,1,1182.52,2.47,538209.19,484.10,0.35,426306.59,2579.35,3.13,279573.36,3517.57,-3.12,37596.99,2062.69,-3.11,8450.23
3372300,737.71,752.09,1.00,1,1,1,1868.04,-0.22,211026.71,1301.46,-0.58,76835.87,1279.65,-2.70,109087.76,2610.60,3.05,69030.22,2513.78,-3.09,32264.76
3386500,742.79,737.58,1.00,1,1,1,1082.39,-1.23,112028.73,2666.53,-2.71,249042.60,559.43,-2.62,50960.50,1073.32,-3.12,109125.01,2631.21,-3.09,8327.63
3408000,651.09,712.62,1.00,1,1,1,4420.59,-2.88,215123.01,1376.70,-3.12,69802.92,137.24,3.03,21233.42,559.80,-2.72,27756.29,2715.40,-3.07,5035.71
3436400,674.12,735.91,1.00,1,1,1,1153.25,0.79,191871.52,1302.21,0.51,91539.35,130.00,-2.58,3149.09,790.11,-2.95,9723.96,2757.92,-3.08,1919.01
3472300,724.08,753.65,1.00,2,2,2,1476.84,0.34,18552.87,1159.24,-0.09,20731.68,71.28,-2.99,1968.82,1524.47,-3.06,20736.87,2497.51,-3.14,8347.69
3486400,731.84,730.61,1.00,2,2,2,1723.89,-1.25,162288.29,3082.42,-2.66,290969.67,1004.52,-3.09,66219.06,2056.74,-3.09,37853.68,1749.55,-3.09,53503.72
3501500,644.50,711.59,1.00,2,2,2,5919.24,-2.93,420186.13,3152.66,3.14,100241.23,3279.37,-3.05,150735.63,1647.76,-3.09,27085.30,1048.14,-3.04,46691.46
3536600,573.57,731.20,1.00,1,1,1,2096.58,2.87,119065.44,3603.03,3.04,16172.92,4499.43,-3.10,35189.92,2040.37,-3.02,11732.72,1109.13,-2.95,3210.61
3551500,465.37,730.71,1.00,1,1,1,7262.18,-3.14,354003.64,6815.43,-3.07,223549.68,3530.70,-3.09,65127.16,2399.63,-3.01,24118.26,1210.58,-3.01,8397.43
3565900,374.39,716.92,1.00,1,1,1,6389.90,-2.99,91782.36,3625.79,-2.81,239214.75,3661.00,-2.99,27177.23,2525.93,-3.08,13580.44,1273.93,-3.01,4402.12
3579800,368.43,697.07,1.00,1,1,1,1491.03,-1.86,424995.67,1144.25,-2.56,182255.16,1319.70,-2.90,169032.20,1573.08,3.14,69298.79,851.48,-3.10,31189.34
3600900,341.00,694.81,1.00,1,1,1,1304.29,-3.06,74974.25,568.87,0.71,81038.75,164.16,-1.81,59316.57,1505.74,-2.95,14928.16,935.89,-3.03,4936.66
3615300,383.68,710.31,1.00,1,1,1,3153.23,0.35,307287.48,1172.09,0.37,46169.10,411.20,0.50,37240.22,824.90,-2.89,47469.08,1214.01,-3.01,19437.79
3629200,371.92,706.83,1.00,1,1,1,882.53,-2.85,290251.40,308.56,0.19,62636.18,269.52,-0.26,20637.02,354.10,-2.42,38418.40,1256.41,-3.03,3582.49
3658900,396.90,712.79,1.00,1,1,1,864.89,0.23,58814.88,400.31,-2.10,21759.69,424.85,-2.88,22614.62,113.81,0.33,15537.42,900.28,-3.06,12057.22
3680100,361.61,689.25,1.00,1,1,1,2001.13,-2.55,133412.86,1329.90,-2.90,51382.60,535.31,-2.56,8795.14,335.56,0.22,10512.48,1505.74,-2.95,29254.03
3694200,351.32,701.59,1.00,1,1,1,1139.67,2.27,155633.01,914.32,-2.92,29524.37,265.23,-2.47,19307.91,36.17,-2.31,25934.28,824.90,-2.89,48479.06
3708200,336.53,683.67,1.00,1,1,1,1659.16,-2.26,155661.28,1158.64,0.02,147374.36,481.18,0.55,53222.40,124.33,-1.39,7591.96,354.10,-2.42,38143.99
3722200,383.75,702.36,1.00,1,1,1,3627.18,0.38,367345.47,1555.56,0.40,45540.81,457.97,0.17,12752.27,198.64,-2.17,10024.85,113.81,0.33,32961.53
3744000,387.87,705.24,1.00,1,1,1,230.78,0.61,156100.17,150.59,2.28,73770.73,609.59,0.15,6975.12,481.18,0.55,30595.53,335.56,0.22,10223.15
3758200,380.21,706.47,1.00,1,1,1,546.43,2.98,51421.11,722.54,-2.25,53855.06,166.34,-1.73,47785.74,457.97,0.17,12572.66,36.17,-2.31,25751.65
3772200,375.13,689.34,1.00,1,1,1,1276.57,-1.86,94474.23,444.89,-1.47,36528.13,722.54,-2.25,41683.04,609.59,0.15,10861.26,124.33,-1.39,7591.96
3794200,381.83,690.54,1.00,1,1,1,309.43,0.18,65555.98,309.43,0.18,25493.99,444.89,-1.47,23245.17,166.34,-1.73,30843.52,198.64,-2.17,6379.45
