@RELATION gaze_labels

%@METADATA width_px 1920
%@METADATA height_px 1080
%@METADATA width_mm 540.00
%@METADATA height_mm 254.00
%@METADATA distance_mm 620.00


@ATTRIBUTE time INTEGER
@ATTRIBUTE x NUMERIC
@ATTRIBUTE y NUMERIC
@ATTRIBUTE confidence NUMERIC
@ATTRIBUTE handlabeller1 INTEGER
@ATTRIBUTE handlabeller2 INTEGER
@ATTRIBUTE handlabeller_final INTEGER
@ATTRIBUTE speed_1 numeric
@ATTRIBUTE direction_1 numeric
@ATTRIBUTE acceleration_1 numeric
@ATTRIBUTE speed_2 numeric
@ATTRIBUTE direction_2 numeric
@ATTRIBUTE acceleration_2 numeric
@ATTRIBUTE speed_4 numeric
@ATTRIBUTE direction_4 numeric
@ATTRIBUTE acceleration_4 numeric
@ATTRIBUTE speed_8 numeric
@ATTRIBUTE direction_8 numeric
@ATTRIBUTE acceleration_8 numeric
@ATTRIBUTE speed_16 numeric
@ATTRIBUTE direction_16 numeric
@ATTRIBUTE acceleration_16 numeric

%The number after speed, direction denotes the step size that was used for the calculation.
%Acceleration was calculated between two adjacent samples of the already low pass filtered velocity

@DATA
0,-105.63,688.54,1.00,1,1,1,0.00,0.00,0.00,1817.05,3.13,0.00,729.46,0.24,0.00,374.52,2.96,0.00,217.38,0.48,0.00
13900,-130.89,688.78,1.00,1,1,1,1817.05,3.13,130723.23,729.46,0.24,182072.01,384.92,0.24,24786.95,239.74,0.01,43979.30,434.66,0.12,17557.59
35100,-80.74,694.53,1.00,1,1,1,2380.99,0.11,197648.44,384.92,0.24,16251.82,374.52,2.96,35028.11,140.45,-2.64,17432.50,321.05,2.92,35145.54
49100,-117.72,691.95,1.00,1,1,1,2647.46,-3.07,359086.72,1705.05,-3.11,148823.46,239.74,0.01,43665.16,377.96,-0.09,35750.44,276.56,-0.29,42662.48
63400,-128.97,692.94,1.00,1,1,1,789.91,3.05,130868.73,126.64,-0.96,124273.03,140.45,-2.64,25843.99,217.38,0.48,15964.50,249.62,0.14,7975.95
77400,-115.67,689.01,1.00,1,1,1,990.60,-0.29,126553.98,1154.67,-0.07,77145.66,377.96,-0.09,35750.44,434.66,0.12,17432.18,265.30,0.22,1878.74
98500,-88.53,690.22,1.00,1,1,1,1287.42,0.04,22595.70,549.32,0.01,28842.88,652.78,0.20,14636.78,321.05,2.92,35312.10,237.42,2.53,21818.01
127200,-88.31,689.32,1.00,1,1,1,32.06,-1.33,44657.07,371.95,0.89,14758.77,590.61,0.16,2332.34,276.56,-0.29,20810.96,90.85,1.14,8325.76
142700,-78.19,703.00,1.00,1,1,1,1097.72,0.93,72163.97,680.29,0.35,26437.68,496.93,2.77,67803.06,249.62,0.14,7358.46,95.94,0.31,4838.23
157500,-68.93,696.34,1.00,1,1,1,770.53,-0.62,90030.34,1319.01,3.11,132914.00,198.25,-0.66,46567.00,265.30,0.22,1777.18,120.05,0.55,2330.68
178800,-125.78,704.52,1.00,1,1,1,2696.51,3.00,159553.19,363.27,-1.96,58218.80,160.93,-2.77,14702.56,237.42,2.53,21613.15,45.59,2.83,7215.55
207200,-75.76,679.63,1.00,1,1,1,1967.32,-0.46,162187.71,857.08,-0.17,35242.99,53.38,2.61,4737.52,90.85,1.14,8413.71,57.05,-0.06,3585.23
221200,-89.96,698.41,1.00,1,1,1,1681.63,2.22,253768.35,540.38,1.42,72942.21,122.04,0.85,10158.83,42.76,-1.80,9499.13,932.64,-0.04,62542.87
242800,-72.86,698.64,1.00,1,1,1,791.77,0.01,103843.30,901.25,2.72,42508.22,352.19,1.89,14288.92,223.03,2.82,10708.29,1135.52,0.00,9620.15
257100,-119.46,711.69,1.00,1,1,1,3384.28,2.87,290193.45,355.08,2.89,38756.48,162.24,-0.13,31255.41,229.91,-0.18,31588.74,1145.66,-0.02,1563.75
271800,-82.82,701.25,1.00,1,1,1,2591.81,-0.28,406535.44,1476.28,-0.35,124493.50,447.00,2.85,41338.32,215.73,2.73,30103.43,1089.20,-0.01,3889.70
285900,-79.55,697.03,1.00,1,1,1,378.86,-0.91,162975.58,521.15,2.83,141642.78,446.46,-0.46,63142.56,1681.09,-0.07,133721.19,984.42,-0.05,8148.36
307900,-100.71,707.08,1.00,2,2,2,1064.63,2.70,64224.83,372.49,3.03,7844.86,326.11,-2.63,31165.65,2139.20,-0.03,21133.52,1073.48,-0.06,4050.60
322800,-93.21,698.61,1.00,2,2,2,759.28,-0.85,120012.69,559.17,-1.61,46661.42,2905.12,-0.07,213658.26,2622.42,-0.07,33111.50,1212.09,-0.08,9530.17
336800,-101.33,690.93,1.00,3,3,3,798.67,-2.38,77440.14,5691.50,-0.07,407229.27,4245.22,-0.05,95810.36,2145.53,-0.05,34322.24,1230.55,0.03,10271.79
366200,153.19,681.22,1.00,1,1,1,8663.63,-0.04,314299.70,6673.47,-0.00,36232.82,4464.71,-0.04,7687.56,1970.41,-0.03,6041.47,1184.13,-0.05,3633.39
387400,236.34,689.77,1.00,1,1,1,3942.84,0.10,226018.83,2976.46,0.03,174572.53,4136.32,-0.01,16436.90,2419.02,-0.08,21778.39,1024.23,0.02,8187.17
401700,258.79,684.89,1.00,1,1,1,1606.46,-0.21,172517.17,365.68,-2.88,233130.92,807.38,0.13,233534.88,2200.27,-0.07,15362.82,1251.90,-0.04,16533.56
416000,226.24,687.06,1.00,1,1,1,2281.40,3.08,271163.17,1930.89,3.08,111049.00,234.66,-0.82,48791.65,2512.48,0.00,24921.49,1056.29,-0.08,14078.82
430000,204.24,688.10,1.00,1,1,1,1573.04,3.09,50663.72,614.21,-0.39,180004.73,599.94,-2.90,53137.67,626.59,0.03,134731.60,1626.49,-0.02,41179.47
452000,246.72,678.71,1.00,1,1,1,1977.19,-0.22,160797.09,582.85,-0.63,6707.10,537.85,0.12,51618.30,140.57,2.41,33381.55,2586.17,-0.03,43634.03
466100,221.26,675.72,1.00,1,1,1,1817.75,-3.02,265399.82,650.97,0.72,54606.19,460.64,-0.15,10856.94,160.00,2.58,2293.07,2952.36,-0.01,26189.86
481000,260.97,691.09,1.00,1,1,1,2857.51,0.37,311403.03,514.30,0.56,10945.87,450.18,2.37,58211.37,120.95,-0.68,18823.74,3072.42,0.06,16692.60
494900,233.80,683.61,1.00,1,1,1,2027.31,-2.87,350995.37,839.91,2.84,89095.01,360.29,0.86,40184.32,1325.45,0.00,88781.57,2177.52,0.08,64433.13
530200,221.47,703.25,1.00,2,2,2,656.88,2.13,55043.64,297.46,1.17,26054.96,257.07,-2.43,17437.91,2745.57,0.01,40236.76,1824.65,0.05,10079.87
544100,239.53,697.07,1.00,2,2,2,1373.45,-0.33,138755.81,704.33,-0.96,64572.40,1893.53,0.03,151027.09,3646.94,0.02,64873.53,1634.79,0.06,13665.98
580000,241.63,674.55,1.00,3,3,3,630.22,-1.48,34949.96,3634.53,-0.05,90549.13,5806.29,-0.04,109156.90,3596.40,0.10,7946.40,1743.29,0.07,3078.61
594400,422.14,688.38,1.00,1,1,1,12572.43,0.08,873468.74,15170.58,0.02,801966.90,7036.73,-0.01,86163.61,3395.21,0.08,14692.67,1844.62,0.06,7124.39
608700,676.90,685.06,1.00,1,1,1,17816.58,-0.01,378506.52,13110.35,0.00,145841.45,10189.44,0.13,235590.53,3569.97,0.03,18100.93,2311.27,0.22,39618.39
622600,791.86,688.82,1.00,1,1,1,8274.66,0.03,687631.58,5474.01,0.41,602879.49,5718.76,0.11,321735.04,3228.67,0.03,24563.76,2312.53,0.18,5480.85
637200,819.89,747.45,1.00,1,1,1,4451.30,1.12,504955.62,1112.47,1.65,357242.03,1414.18,0.30,297195.99,3645.05,0.09,32288.33,2583.29,0.37,37049.79
658900,788.75,729.08,1.00,1,1,1,1665.96,-2.61,272234.63,921.79,-2.47,82967.75,618.03,2.64,87423.87,2446.49,0.10,55233.39,2864.78,0.32,14465.47
687700,783.54,718.38,1.00,4,4,4,413.55,-2.02,46549.72,1008.63,-2.74,9670.50,755.31,-2.76,20708.82,1986.96,0.52,36131.59,2609.45,0.47,16314.16
701900,748.79,712.22,1.00,4,4,4,2484.79,-2.97,159607.06,690.76,2.93,41899.23,258.60,-2.77,34979.62,1100.93,0.79,68526.30,2933.91,0.65,41635.48
722800,759.84,723.49,1.00,4,4,4,755.11,0.80,149767.26,655.33,0.42,61211.23,2768.25,0.66,144367.65,1950.03,0.92,41555.50,3065.78,0.65,6360.01
737200,769.92,721.66,1.00,4,4,4,711.39,-0.18,47830.53,6769.52,0.56,425115.89,2788.29,0.53,26111.87,2544.77,0.70,53657.88,2348.53,0.79,56454.49
751200,922.32,826.25,1.00,4,4,4,13203.56,0.60,907761.53,5463.50,0.54,93803.92,5433.10,0.82,206251.91,2554.03,1.18,87623.40,2090.01,1.03,41874.89
765400,901.96,801.04,1.00,4,4,4,2282.50,-2.25,1084830.09,4760.49,1.12,210244.90,5937.87,0.68,67421.84,3796.99,1.19,87543.54,1719.68,1.28,42540.15
787100,997.06,979.95,1.00,4,4,4,9337.08,1.08,533929.74,6376.48,0.77,114475.88,2897.83,1.58,216675.05,3595.96,1.22,10262.20,1395.16,1.36,15883.80
801600,1067.02,962.40,1.00,4,4,4,4974.36,-0.25,652786.92,2473.03,2.35,472796.09,5132.43,1.44,158313.89,3124.96,1.27,34700.61,1432.11,1.20,15383.81
830600,921.32,1056.34,1.00,4,4,4,5978.04,2.57,372678.35,5935.98,1.94,131230.40,2963.17,1.82,90719.03,2564.96,1.38,22178.69,1511.89,1.24,3277.00
851800,960.32,1240.62,1.00,4,4,4,8885.16,1.36,413511.51,4266.20,1.46,137978.35,2945.97,2.15,45740.75,2408.06,1.47,13006.87,1754.28,1.01,20720.99
866000,938.76,1206.35,1.00,4,4,4,2851.48,-2.13,817089.87,1536.19,-2.30,393763.42,2353.25,1.14,184930.70,1294.39,1.95,98089.19,1540.49,0.86,23484.47
894700,916.33,1191.56,1.00,4,4,4,936.25,-2.56,70939.51,1452.98,0.29,100270.89,601.55,-1.98,102951.20,1281.83,2.12,7805.40,777.06,1.33,31942.11
909300,999.01,1224.46,1.00,4,4,4,6095.06,0.38,480437.61,710.70,0.22,51086.17,327.43,-2.50,24289.97,589.87,1.46,61356.68,1151.37,3.03,100856.44
930700,941.29,1197.14,1.00,4,4,4,2983.74,-2.70,424055.18,1822.55,-2.73,117956.90,670.36,-0.87,35599.38,641.98,-0.75,51410.78,1357.15,3.09,10303.22
960000,914.17,1187.83,1.00,4,4,4,978.64,-2.81,68740.59,1085.88,-1.37,65517.07,1263.35,-2.30,45855.42,1138.97,-0.80,17036.73,2525.46,-2.84,45498.82
974300,950.70,1150.74,1.00,4,4,4,3640.25,-0.79,290770.94,1459.36,-1.14,33035.18,1219.31,-0.27,147467.17,1773.07,-1.93,114552.83,2735.50,-2.86,15250.08
989100,931.89,1149.23,1.00,4,4,4,1275.11,-3.06,308468.58,2409.54,0.24,173656.85,2878.90,-0.64,121470.11,3835.79,-2.44,165510.64,2557.77,-2.67,36771.50
1010200,1034.72,1171.30,1.00,4,4,4,4984.64,0.21,296255.10,4208.72,-0.51,139191.76,3590.33,-2.12,208488.29,4106.19,-2.46,13266.21,3124.44,-2.53,32496.47
1025100,1064.41,1075.78,1.00,4,4,4,6713.31,-1.27,536523.56,10188.39,-2.32,801271.55,7011.96,-2.47,257039.99,5991.97,-2.55,130464.84,2930.35,-2.55,13459.71
1040000,826.93,949.94,1.00,4,4,4,18037.60,-2.65,1211096.46,18354.07,-2.73,663061.60,10053.58,-2.58,213178.10,5754.90,-2.61,26946.00,3114.53,-2.57,13391.17
1054100,575.72,864.85,1.00,4,4,4,18810.70,-2.82,216780.61,10435.29,-2.78,563751.95,13212.08,-2.76,268137.05,5729.27,-2.57,12952.27,3277.71,-2.55,13008.67
1075300,481.86,821.03,1.00,4,4,4,4886.18,-2.70,658702.26,9103.22,-2.80,63034.41,7987.72,-2.78,246637.24,6875.21,-2.64,57012.19,3108.14,-2.56,8083.17
1090300,265.77,752.91,1.00,4,4,4,15104.19,-2.84,685338.33,6055.19,-2.77,203575.64,4761.73,-2.70,217350.52,6478.51,-2.74,53138.97,3260.10,-2.57,10852.57
1120000,229.65,722.78,1.00,4,4,4,1583.89,-2.45,459676.03,1413.82,-2.19,166228.99,4123.66,-2.76,23309.70,4942.58,-2.79,52715.24,3286.86,-2.62,5011.26
1134400,229.75,702.02,1.00,4,4,4,1441.73,-1.57,89999.12,1169.35,-2.70,48439.22,997.91,-2.54,219252.42,2773.95,-2.70,152484.70,3182.42,-2.61,7373.02
1149200,198.77,708.20,1.00,4,4,4,2134.51,2.94,189541.95,850.04,2.94,47555.60,1181.70,-2.92,30018.59,2126.31,-2.76,44766.37,3484.51,-2.64,21046.09
1170100,200.00,708.02,1.00,4,4,4,59.60,-0.15,104978.42,1232.07,-3.09,22088.24,287.86,-2.66,43343.19,817.38,-2.72,62666.19,3269.99,-2.75,20607.59
1184600,155.22,705.80,1.00,4,4,4,3092.09,-3.09,217277.11,690.73,-0.83,120978.92,181.40,0.26,32177.86,520.82,-2.77,20560.64,2351.70,-2.77,63442.33
1198600,213.34,693.53,1.00,1,1,1,4242.47,-0.21,519669.40,1924.36,0.10,114705.30,654.18,-3.06,59519.85,649.29,-2.96,11984.78,1523.81,-2.74,59220.97
1213200,210.00,711.16,1.00,1,1,1,1229.03,1.76,332203.09,1549.61,2.94,235396.10,211.21,-0.58,56934.00,211.60,-2.61,31199.72,1104.34,-2.75,28746.36
1235400,157.42,704.70,1.00,1,1,1,2386.45,-3.02,117684.37,1237.62,-2.85,33205.02,953.30,-3.03,50603.95,342.51,-2.86,6586.03,349.28,-2.48,34844.12
1249700,166.71,698.25,1.00,1,1,1,791.33,-0.61,211394.74,650.47,-2.34,51830.73,522.17,-2.69,34414.86,124.63,-1.12,26769.32,298.42,-2.74,6817.87
1278100,138.06,684.78,1.00,1,1,1,1114.82,-2.70,58423.40,181.04,-0.75,23878.60,164.36,-2.25,13387.18,401.16,-3.01,16029.55,315.35,-3.01,2953.25
1293200,172.45,692.85,1.00,1,1,1,2339.69,0.23,227687.70,247.38,0.68,18954.42,114.32,-1.85,4865.12,253.51,-2.72,11546.90,162.45,-2.74,10898.87
1328900,147.81,692.70,1.00,1,1,1,690.10,-3.14,84493.51,199.37,-2.63,12469.14,154.58,0.02,6103.89,189.46,-0.59,10867.26,256.40,-3.00,3013.45
1343200,163.76,687.97,1.00,1,1,1,1162.95,-0.29,128274.12,283.78,-1.26,21873.00,14.02,2.18,11385.18,116.68,-2.63,18399.21,84.83,-3.06,12017.31
1357200,150.28,685.06,1.00,1,1,1,985.08,-2.93,148670.56,278.59,0.63,32570.62,539.17,-0.14,39201.85,38.42,1.21,10585.87,216.25,3.07,9497.50
1378800,171.76,693.84,1.00,1,1,1,1074.27,0.39,94977.01,888.23,0.09,30794.98,204.00,3.05,34398.87,119.47,-2.95,6635.65,263.51,-3.02,3049.54
1393300,182.21,687.97,1.00,1,1,1,826.80,-0.51,59040.82,749.72,-2.92,112737.01,176.84,2.70,4954.06,164.77,2.92,5033.34,53.37,0.54,21586.92
1407600,150.68,689.17,1.00,1,1,1,2206.95,3.10,207473.92,1493.49,3.09,55549.68,271.61,-2.89,12387.61,263.54,2.71,7585.28,125.28,2.69,11242.65
1421600,139.99,689.94,1.00,1,1,1,765.07,3.07,103038.00,118.99,0.07,115124.61,874.61,2.97,45469.41,90.98,1.83,15500.95,145.61,2.55,1982.22
1443000,154.88,689.46,1.00,1,1,1,695.95,-0.03,68258.59,415.85,2.62,24247.11,327.71,2.53,27811.45,301.74,2.97,12912.50,45.64,1.97,5150.46
1457100,127.20,697.31,1.00,1,1,1,2040.35,2.87,192969.25,681.48,2.62,18839.89,125.73,0.88,25531.51,192.17,1.99,17846.33,129.71,-0.03,10967.49
1485400,129.79,703.79,1.00,1,1,1,246.44,1.19,73506.94,393.44,0.05,36583.41,358.59,2.71,14439.90,218.55,2.18,1674.36,506.82,-0.01,13327.58
1507000,146.81,698.24,1.00,1,1,1,829.13,-0.32,39335.51,70.36,-1.72,19114.95,594.91,0.34,41065.98,278.38,2.68,6274.23,536.95,0.07,2321.32
1521300,129.41,701.29,1.00,1,1,1,1235.29,2.97,144017.96,997.62,0.54,73000.63,175.48,1.29,35890.71,140.11,0.90,23505.93,382.83,0.01,10936.59
1535500,171.14,712.95,1.00,1,1,1,3051.18,0.27,295740.34,484.55,1.32,51644.24,699.74,2.91,51363.89,368.40,-0.10,22269.53,234.90,0.05,10456.71
1549800,132.89,714.66,1.00,1,1,1,2677.89,3.10,395632.83,1883.29,-3.08,145853.76,593.09,0.10,89173.17,1156.87,-0.09,55140.86,461.79,0.04,15867.83
1572000,102.54,708.65,1.00,2,2,2,1393.63,-2.95,61487.18,1001.32,-0.27,128307.90,323.72,-1.01,24028.29,1069.26,-0.01,5583.43,568.80,0.11,5023.64
1585400,167.24,705.13,1.00,2,2,2,4835.49,-0.05,462347.33,1987.29,-0.21,73887.88,1884.76,-0.15,126155.17,1003.16,-0.04,5422.05,355.52,0.16,16015.62
1614300,184.81,691.41,1.00,3,3,3,771.44,-0.66,146210.31,2378.94,-0.12,15020.82,2311.05,-0.06,16149.94,499.56,-0.24,18096.80,517.03,0.00,6038.82
1649700,319.10,686.76,1.00,1,1,1,3795.57,-0.03,90495.63,2618.02,0.04,13071.24,1293.33,-0.08,28779.83,938.54,-0.11,12636.77,552.35,-0.14,2353.09
1663900,314.57,696.41,1.00,1,1,1,751.01,2.01,295161.31,1211.95,2.90,267360.32,734.99,0.01,39823.65,1262.17,0.00,24522.22,458.28,0.00,8271.06
1677700,286.18,695.02,1.00,1,1,1,2059.57,-3.09,138101.49,1180.53,-3.06,28031.91,298.42,2.74,73596.19,564.14,0.02,50595.03,576.39,0.00,8558.53
1712700,257.13,691.94,1.00,1,1,1,834.60,-3.04,35063.37,239.82,0.07,40581.12,196.93,0.92,11294.81,664.57,0.06,2949.18,491.48,-0.06,2623.39
1726800,297.93,695.79,1.00,1,1,1,2906.34,0.09,265312.11,1979.91,0.26,123762.80,271.82,2.57,24645.14,162.82,-2.88,58496.16,501.46,-0.15,2941.06
1747900,324.55,709.61,1.00,1,1,1,1421.41,0.48,79437.13,939.23,2.78,132692.41,560.48,0.17,37069.42,185.67,3.06,3022.58,814.80,0.04,15852.58
1762100,266.89,707.44,1.00,1,1,1,4063.23,-3.10,379069.62,1219.96,-2.80,55380.09,234.35,-1.64,46298.42,137.85,0.32,22327.60,315.02,-0.05,35349.31
1776100,292.13,698.09,1.00,1,1,1,1922.48,-0.35,420408.96,1397.59,-0.73,161120.17,601.54,-2.86,40388.99,502.72,0.15,26256.58,65.05,1.93,24718.40
1790800,296.90,680.82,1.00,1,1,1,1218.60,-1.30,106313.38,140.44,3.02,103068.76,603.40,-0.15,80054.59,53.44,-2.53,37496.49,899.15,3.04,59338.92
1812900,287.00,698.70,1.00,1,1,1,924.86,2.08,96326.29,618.88,1.17,30399.71,456.92,0.13,9404.57,270.51,0.23,14516.72,818.58,3.09,4265.49
1827200,305.73,701.55,1.00,1,1,1,1324.78,0.15,130118.82,967.24,0.10,60214.60,149.62,2.03,36685.63,54.67,-1.45,19716.36,705.29,-3.14,8334.76
1855700,328.19,702.85,1.00,1,1,1,789.40,0.06,19078.22,406.93,-2.52,46849.86,996.91,0.26,36394.12,799.19,3.04,28529.97,578.35,3.06,4842.88
1869800,291.66,691.42,1.00,2,2,2,2714.51,-2.84,247201.34,1063.70,0.43,103917.20,486.49,-3.09,104702.02,1637.84,3.00,59547.06,502.38,3.07,5413.80
1890900,362.19,718.54,1.00,3,3,3,3581.01,0.37,298217.09,712.44,2.81,78329.71,2347.11,3.09,88318.71,1481.89,3.10,10280.42,708.42,3.14,9952.32
1905200,267.83,699.67,1.00,3,3,3,6728.96,-2.94,718623.55,6383.03,-3.10,400513.90,3561.75,3.05,85507.79,1502.53,-3.11,7612.47,422.62,-3.11,20015.70
1919800,177.91,710.05,1.00,1,1,1,6199.61,3.03,142261.88,7128.61,3.07,73160.61,4453.67,-3.10,71248.35,1654.21,3.13,11296.58,631.51,3.13,14375.61
1933700,65.13,713.36,1.00,1,1,1,8117.61,3.11,144724.73,2874.59,-3.12,307465.35,2507.10,-3.12,140075.07,903.64,3.04,54571.70,587.83,3.03,5480.44
1955100,76.47,707.69,1.00,1,1,1,592.49,-0.46,404611.84,382.80,-1.31,139605.24,1090.37,-3.09,66232.74,1590.39,-3.11,32984.16,594.20,3.14,3102.92
1984100,70.08,694.71,1.00,1,1,1,498.68,-2.03,26620.59,379.13,-0.12,14710.62,786.50,-0.09,64570.67,779.56,3.11,28072.47,600.62,-3.14,285.16
1998100,92.65,705.70,1.00,1,1,1,1792.61,0.45,157693.27,1491.63,0.16,80877.47,375.76,0.06,29913.91,503.84,-3.04,20602.84,845.54,-3.10,17606.77
2034200,143.87,706.52,1.00,1,1,1,1419.19,0.02,21764.16,383.18,0.22,30732.22,689.95,0.14,8773.67,246.98,-0.24,20519.98,749.62,-3.14,2797.83
2048600,111.53,709.93,1.00,1,1,1,2258.59,3.04,254957.25,243.32,-2.88,43499.92,69.88,-2.35,51854.55,142.51,-0.35,7380.38,626.12,-3.03,9923.99
2077300,133.73,703.85,1.00,1,1,1,802.12,-0.27,106373.65,499.38,-2.77,9029.53,449.85,-3.03,13873.08,292.70,0.12,6204.21,442.24,3.14,6735.12
2099900,87.66,700.62,1.00,1,1,1,2043.48,-3.07,124467.23,698.12,-3.09,12147.26,200.62,-2.41,13702.42,151.42,-2.51,19082.65,128.68,-0.56,24575.79
2113800,108.28,702.58,1.00,1,1,1,1490.13,0.09,254197.91,426.33,-0.11,80642.91,272.99,-2.95,10394.81,590.86,-2.95,32990.63,753.14,-0.09,46132.66
2128200,99.65,699.26,1.00,1,1,1,642.34,-2.77,146932.02,281.93,-0.26,10656.28,297.54,-2.57,7587.03,349.88,-0.24,63920.30,605.39,-0.22,11774.76
2142800,116.18,700.46,1.00,1,1,1,1134.92,0.07,120508.90,939.19,-2.85,81406.02,766.11,-2.89,33714.30,49.03,-2.59,26435.35,831.59,0.02,19152.45
2157600,73.18,691.40,1.00,1,1,1,2968.95,-2.93,276781.98,1580.54,-2.96,44251.93,833.99,-0.04,107004.34,880.76,-0.10,62174.77,582.38,-0.13,18112.57
2179000,59.88,690.24,1.00,2,2,2,623.79,-3.05,109853.10,1866.35,0.06,160776.07,145.16,-0.03,32188.63,1393.25,-0.06,24053.99,495.62,-0.24,4975.66
2207100,165.41,696.79,1.00,3,3,3,3762.58,0.06,156092.35,1589.81,0.14,11178.98,1638.32,-0.03,53137.41,1166.28,-0.20,10201.29,565.93,-0.15,3036.14
2222100,127.68,700.13,1.00,3,3,3,2524.67,3.05,418011.66,1350.45,-0.19,35970.28,3169.49,0.00,102170.29,1431.93,-0.01,24001.82,510.68,-0.11,3931.15
2243000,213.05,687.79,1.00,1,1,1,4126.73,-0.14,318134.73,5136.33,-0.05,181945.16,1594.30,-0.30,81928.20,1319.70,-0.04,5820.05,659.17,-0.05,7310.13
2257200,307.73,690.94,1.00,1,1,1,6671.89,0.03,190731.57,1920.96,-0.39,238732.03,3033.87,-0.01,110863.80,1555.87,-0.08,17063.67,725.78,-0.06,4748.10
2271500,263.59,666.75,1.00,1,1,1,3520.45,-2.64,695200.31,539.59,0.54,116102.55,903.90,-0.08,149187.33,831.98,-0.10,50655.82,1477.17,0.03,52949.16
2285800,320.94,698.92,1.00,1,1,1,4598.86,0.51,567776.86,499.18,1.10,20181.51,473.93,-2.51,90875.33,1064.68,-0.08,16329.60,1970.42,0.01,34556.13
2308300,271.89,683.13,1.00,1,1,1,2290.28,-2.83,304828.65,1258.31,-2.54,76167.53,322.65,1.11,34448.15,462.43,0.04,27050.27,1919.43,0.01,2282.73
2322700,282.76,672.51,1.00,1,1,1,1055.65,-0.77,203827.16,97.24,1.16,93176.45,529.00,-2.87,54329.33,123.62,-0.12,23678.65,2124.83,0.05,15799.86
2337100,272.99,685.70,1.00,1,1,1,1140.06,2.21,151993.37,355.08,1.74,19351.43,176.23,0.50,48743.58,1769.60,0.15,114623.53,1917.47,0.06,14400.50
2365800,280.16,687.59,1.00,1,1,1,258.31,0.26,43864.82,222.40,0.37,13197.31,506.64,0.35,11614.99,2395.62,0.02,23710.44,2131.54,0.08,7743.66
2401700,286.36,690.96,1.00,2,2,2,196.63,0.50,2289.36,936.17,0.02,20375.58,2733.79,0.09,62616.50,2442.85,0.03,1523.01,1795.17,0.11,9475.34
2416100,327.24,688.63,1.00,3,3,3,2843.34,-0.06,185990.63,6451.85,0.07,383133.29,4695.32,0.04,136752.07,2614.96,0.12,20106.29,1416.74,0.07,26691.78
2445500,568.19,711.73,1.00,1,1,1,8233.11,0.10,185031.24,8410.30,0.04,67103.48,5115.38,0.01,15092.04,2745.10,0.09,5167.65,1557.74,0.13,5801.29
2467000,754.96,706.28,1.00,1,1,1,8690.69,-0.03,53438.27,3544.35,-0.13,230455.99,5108.98,0.09,19978.47,3075.12,0.13,16441.47,1541.40,0.07,4949.48
2481600,695.06,695.13,1.00,1,1,1,4173.28,-2.96,876709.69,1088.21,2.42,307445.06,2764.29,0.10,160596.87,3264.30,0.12,13286.13,1611.96,0.11,6654.80
2495600,731.60,726.85,1.00,1,1,1,3456.42,0.71,526069.02,2138.69,0.60,187812.35,897.56,1.04,167970.03,2844.15,0.08,31491.28,992.74,0.28,46983.73
2509600,744.55,728.84,1.00,1,1,1,935.84,0.15,193640.79,1687.84,0.51,34556.15,1223.79,0.74,32469.10,1271.70,0.11,112394.14,376.08,0.53,45334.35
2531200,784.17,755.95,1.00,1,1,1,2222.56,0.60,66532.35,578.50,1.14,58759.76,122.42,-0.96,57645.28,374.74,0.52,43515.06,365.20,0.28,4258.53
2545800,753.29,747.87,1.00,1,1,1,2186.24,-2.89,297513.05,2054.46,-2.50,176476.31,213.67,3.11,20789.18,654.65,0.48,19224.88,484.98,0.21,8441.32
2560300,736.14,720.36,1.00,1,1,1,2236.16,-2.13,112801.81,1030.38,-2.45,70811.34,450.25,-1.12,40106.41,1059.12,2.92,111485.66,352.12,0.27,9306.28
2574100,730.78,729.34,1.00,1,1,1,757.91,2.11,193441.82,1761.64,0.16,195747.05,340.46,-0.39,21900.38,2445.28,3.09,102430.63,514.69,-3.02,62638.33
2595100,796.68,730.04,1.00,2,2,2,3138.00,0.01,170467.00,959.47,0.18,38217.68,2010.18,2.89,111818.63,2778.02,-3.05,23743.79,1259.84,-3.12,35689.39
2624100,778.00,737.85,1.00,3,3,3,698.13,2.75,130666.63,4941.09,3.00,202066.21,4124.87,3.09,75715.34,2321.60,-3.06,15765.48,1034.51,3.13,7895.40
2638600,583.86,760.17,1.00,3,3,3,13476.81,3.03,883282.11,11215.05,3.12,436880.39,5157.39,-3.11,75308.42,1950.73,-3.13,27657.13,1049.54,-3.13,2167.06
2659800,377.72,747.02,1.00,1,1,1,9743.18,-3.08,200654.81,5596.27,-2.93,278616.02,5502.04,-3.09,17151.15,1908.65,-3.03,9533.86,974.41,-3.12,3560.58
2674300,388.36,719.01,1.00,1,1,1,2066.90,-1.21,726828.41,1792.86,-0.54,484281.14,2031.32,-2.87,244833.87,2445.55,-3.07,37490.77,1264.82,-2.99,22369.14
2688800,422.44,720.49,1.00,1,1,1,2352.36,0.04,179229.80,953.52,-0.05,72422.82,846.19,-0.92,170483.97,2503.56,-3.05,5430.00,1064.11,-3.03,14138.00
2717500,429.50,717.03,1.00,1,1,1,274.27,-0.46,73716.99,540.07,-1.73,39894.06,249.59,-2.10,27349.06,1086.71,-2.94,49777.21,979.83,-3.14,4847.43
2738900,418.26,693.76,1.00,1,1,1,1207.64,-2.02,57799.60,1120.78,-2.81,46333.74,463.91,-2.65,13277.10,335.74,-0.42,64135.30,856.80,3.11,5985.41
2767300,376.70,698.93,1.00,1,1,1,1474.42,3.02,55566.33,801.30,2.96,20400.54,253.33,2.84,11909.60,126.76,-1.49,10408.22,1455.05,-3.06,21536.15
2782100,384.23,700.15,1.00,1,1,1,515.40,0.16,133412.23,1125.75,0.65,119242.95,343.48,1.18,30024.50,82.71,-2.32,6331.89,1100.49,-3.08,23992.26
2803200,408.78,723.51,1.00,1,1,1,1606.26,0.76,57656.55,1036.15,0.46,10552.00,172.79,-0.12,16140.39,57.17,2.90,3530.83,388.10,-0.23,69969.95
2832000,430.45,723.32,1.00,1,1,1,752.43,-0.01,41231.23,748.55,-2.19,60168.85,344.67,0.32,7036.81,368.89,0.90,13759.92,1463.63,-0.08,37542.86
2846100,390.22,697.31,1.00,1,1,1,3397.77,-2.57,287037.80,627.25,-2.49,17099.57,154.95,-0.35,17275.22,274.20,-3.01,42361.25,1763.42,0.10,29313.37
2868200,412.37,709.59,1.00,1,1,1,1145.89,0.51,205507.18,1021.72,0.63,74610.68,447.47,0.58,17007.23,450.70,0.26,32730.82,1572.31,0.12,8858.15
2882600,420.34,719.30,1.00,2,2,2,872.26,0.88,32178.24,1816.28,0.61,55211.44,806.46,-3.08,84440.68,2026.84,0.03,110503.51,1634.17,0.12,4318.61
2896600,454.64,739.15,1.00,2,2,2,2830.70,0.52,145484.42,2979.79,-2.84,338631.23,611.30,0.21,101006.81,2840.55,-0.03,59245.01,1600.66,0.14,2908.73
2911700,337.43,693.92,1.00,2,2,2,8320.32,-2.77,736766.28,811.51,-1.91,170890.57,4341.90,0.05,247664.38,3874.66,0.13,77895.12,1895.94,0.11,19850.70
2925700,446.75,716.89,1.00,3,3,3,7979.33,0.21,1160484.41,10286.24,0.11,761620.04,4863.76,-0.08,55803.37,3617.42,0.14,18420.75,1788.92,0.11,7646.07
2947200,700.50,732.95,1.00,1,1,1,11825.79,0.06,190339.90,7824.49,-0.02,126115.24,7799.99,0.13,148766.95,3578.49,0.12,3976.87,1533.11,0.05,12788.64
2975800,838.68,709.18,1.00,1,1,1,4902.60,-0.17,249894.33,5737.80,0.16,84227.27,5628.39,0.13,75942.57,3070.14,0.05,19506.46,1789.02,0.11,9660.99
2989900,942.36,772.03,1.00,1,1,1,8598.99,0.54,415549.16,3171.42,0.69,241460.89,2970.82,0.20,189489.44,4081.18,0.11,73365.66,1586.83,0.10,14412.50
3011700,926.43,781.72,1.00,1,1,1,855.58,2.60,414014.85,415.91,2.60,152817.04,1196.11,0.73,92929.92,3131.13,0.09,43722.78,1530.90,0.06,3817.62
3025900,929.56,779.79,1.00,1,1,1,259.09,-0.55,78497.93,1245.97,-2.53,80659.06,412.24,-2.62,112821.31,1082.19,0.08,144296.00,1475.23,0.02,5684.01
3040800,896.82,760.79,1.00,1,1,1,2540.24,-2.62,179352.22,809.62,-2.03,44201.65,688.78,-2.47,19281.96,871.01,0.62,37262.12,1362.72,0.01,7611.79
3055100,919.08,758.60,1.00,1,1,1,1564.11,-0.10,273959.26,143.10,-1.97,46629.29,863.28,-2.63,14907.11,429.13,-2.77,90317.23,2301.75,0.10,66608.37
3069500,895.21,757.01,1.00,1,1,1,1661.13,-3.08,223218.12,1015.20,-2.90,65021.60,616.40,0.44,102686.28,449.06,-2.47,9324.67,2783.44,0.09,33585.85
3104600,870.29,746.59,1.00,1,1,1,769.83,-2.75,27509.66,1037.84,0.49,58040.80,445.31,-2.86,30155.95,395.74,-2.31,2441.58,1777.83,0.06,28679.07
3118900,940.46,781.13,1.00,1,1,1,5469.43,0.46,436223.22,128.14,-0.01,64869.35,309.25,-2.46,14075.31,92.84,-1.75,22414.82,1276.77,0.13,35667.54
3154200,876.64,746.50,1.00,1,1,1,2056.82,-2.64,213174.83,1641.22,-2.58,49580.62,235.97,-0.89,11032.01,877.55,0.07,25648.91,975.09,-0.05,10220.15
3168600,871.39,737.74,1.00,2,2,2,709.39,-2.11,103483.13,429.64,-1.16,113508.48,592.90,-2.48,44575.32,2504.01,0.08,112953.70,1031.42,-0.02,4386.61
3197000,884.04,729.67,1.00,2,2,2,528.51,-0.57,30732.88,465.81,0.29,20942.43,2507.09,0.12,106647.11,2468.39,0.06,2382.04,986.75,-0.05,1979.32
3218900,893.81,744.53,1.00,3,3,3,812.47,0.99,43988.27,5268.00,0.21,219367.81,5934.83,0.12,156517.99,1772.91,-0.08,34422.32,998.03,0.00,2544.64
3234200,1075.85,769.81,1.00,1,1,1,12012.23,0.14,751183.20,15272.92,0.11,656411.68,5727.46,0.10,14421.15,2539.31,0.03,52361.01,971.04,-0.01,1823.67
3248400,1341.70,793.44,1.00,1,1,1,18795.53,0.09,480542.39,6388.26,-0.00,630428.02,5583.74,0.04,26874.90,2550.34,0.10,13131.14,1097.00,0.04,9488.08
3263200,1261.11,769.39,1.00,1,1,1,5682.65,-2.85,1647959.57,4328.01,-2.86,717047.47,2605.55,-0.08,203509.49,2480.68,0.09,4981.21,1189.92,0.08,7124.89
3277500,1220.72,758.41,1.00,1,1,1,2926.60,-2.88,192860.31,620.86,-2.55,261632.24,1659.64,-2.97,296102.61,2263.21,0.05,16739.35,985.23,-0.02,16363.24
3298500,1242.91,757.18,1.00,1,1,1,1058.15,-0.06,187849.54,661.46,0.81,60694.40,280.94,-2.84,65797.78,1095.41,-0.09,56539.09,1299.14,0.05,15416.62
3312600,1236.72,775.24,1.00,1,1,1,1354.66,1.90,142446.59,145.62,2.02,44311.44,48.13,2.49,18181.84,683.28,-2.91,124625.47,1334.18,0.07,3263.47
3341200,1240.22,762.78,1.00,1,1,1,452.68,-1.30,63174.85,484.74,-2.50,18610.44,149.41,-3.08,4105.46,183.04,2.86,18591.37,734.44,0.15,21153.10
3362100,1217.49,760.89,1.00,1,1,1,1091.13,-3.06,60194.05,309.76,-2.53,8386.05,145.31,-0.39,13737.57,185.44,0.63,15846.94,364.23,0.15,17713.46
3376600,1231.26,756.45,1.00,1,1,1,998.06,-0.31,141287.71,1099.67,0.33,96501.72,213.33,1.93,22758.55,63.30,0.95,8757.63,346.10,-3.08,48943.14
3390600,1247.19,770.90,1.00,1,1,1,1536.22,0.74,96570.22,586.67,1.39,68977.03,452.97,0.49,33871.77,228.42,-0.26,15291.08,1154.95,-3.03,57818.28
3412100,1234.92,776.95,1.00,1,1,1,635.83,2.68,86776.44,155.59,2.42,24316.19,292.64,0.44,7500.06,965.16,-3.14,55223.55,935.35,-3.00,10273.33
3426100,1243.05,774.57,1.00,1,1,1,604.83,-0.29,88289.57,640.05,-0.76,56827.42,312.97,-0.19,13620.92,1383.15,3.14,29859.32,928.81,3.14,9440.62
3440500,1248.15,764.48,1.00,2,2,2,784.89,-1.10,40025.46,685.20,-0.29,21540.43,1786.94,-3.03,144996.33,1652.34,3.12,18879.30,1850.51,-3.13,64017.52
3469100,1271.30,766.19,1.00,3,3,3,811.52,0.07,30977.39,3066.21,-3.13,130266.26,2625.98,-3.09,29588.56,1570.96,-3.07,6085.25,2163.90,-3.12,10996.79
3489900,1096.70,762.08,1.00,1,1,1,8396.49,-3.12,442648.22,5494.24,-3.12,116734.33,2972.64,-3.14,18021.22,1607.11,-2.96,8444.62,2427.94,-3.13,12712.66
3518200,1001.58,760.95,1.00,1,1,1,3361.29,-3.13,177935.47,2866.31,3.13,92936.85,3301.72,-3.09,12524.56,1866.92,-3.09,12201.77,2418.83,-3.08,3538.37
3533200,972.59,763.03,1.00,1,1,1,1937.61,3.07,95964.86,370.88,-2.49,172148.36,1464.02,-2.89,126092.83,3342.57,-3.12,98469.84,2523.19,-3.08,6981.43
3554100,990.96,752.92,1.00,2,2,2,1003.45,-0.50,137788.86,717.35,-1.78,23862.11,984.78,-3.12,26548.16,4425.03,-3.13,51842.18,2697.57,-3.03,10513.26
3582700,965.10,728.32,1.00,3,3,3,1248.06,-2.38,63732.91,1563.37,3.04,57488.22,3737.47,-3.11,96254.39,3800.35,-3.12,21888.49,2393.68,-3.04,10658.31
3597400,923.60,759.57,1.00,0,0,0,3534.13,2.50,241455.62,8489.09,3.07,471176.67,5622.77,3.13,129186.20,3539.61,-3.06,23651.25,2562.97,-3.04,11516.75
3620200,647.62,751.78,1.00,1,1,1,12108.88,-3.11,421191.86,10419.71,3.14,89915.90,7171.79,3.09,68541.69,3479.68,-3.04,4493.18,2433.93,-3.05,5712.13
3634100,541.19,759.73,1.00,1,1,1,7678.21,3.07,326624.14,5431.90,-3.14,358854.99,6631.66,-3.05,79805.80,3971.93,-3.01,36065.51,2749.56,-3.07,23197.56
3648400,494.45,750.78,1.00,1,1,1,3328.32,-2.95,318078.86,2236.11,-2.46,275396.70,3126.96,-2.91,249156.25,3429.25,-3.09,42518.32,2657.22,-3.07,6464.19
3662900,491.10,719.26,1.00,1,1,1,2185.86,-1.68,235127.51,1567.34,-2.04,71020.13,2246.74,-2.55,89587.20,3392.68,-3.00,19663.94,2527.09,-3.06,9056.02
3677300,473.94,710.40,1.00,1,1,1,1341.39,-2.66,127085.98,2266.31,-2.61,88179.47,812.75,-1.12,157763.78,1340.22,-2.81,145352.19,2464.92,-3.04,5497.14
3698900,420.73,677.97,1.00,1,1,1,2884.60,-2.59,71731.10,1214.01,-0.17,152307.28,763.47,-2.66,50768.33,890.60,-2.71,21382.73,2605.97,-3.07,7041.71
3713500,517.27,703.04,1.00,1,1,1,6831.29,0.25,659517.01,496.11,0.68,65728.59,259.81,-1.91,41178.65,1427.34,-2.91,39901.02,2472.79,-3.08,9613.77
3742100,437.43,691.40,1.00,2,2,2,2820.93,-3.00,337073.03,1058.76,-2.88,53359.80,366.67,1.43,21805.92,1513.21,-3.07,8523.30,2388.63,-3.03,5276.87
3763100,466.57,689.36,1.00,0,0,0,1390.79,-0.07,199535.09,552.85,2.26,46190.57,2816.26,3.14,137614.59,1453.94,-3.06,2907.36,1350.10,-2.94,50025.21
3777700,424.88,706.56,1.00,0,0,0,3088.85,2.75,303443.16,5813.58,3.06,372617.49,2524.77,3.07,23527.72,1261.22,3.04,21267.33,947.33,-2.87,28132.31
3793000,293.38,704.22,1.00,1,1,1,8596.41,-3.12,385122.78,5114.61,-3.12,59222.25,3438.72,3.12,60652.51,1602.21,-3.08,26800.90,739.22,-2.84,13732.75
3807400,273.01,703.49,1.00,1,1,1,1415.38,-3.11,498701.30,1072.93,-2.78,286151.00,2830.93,-3.08,45375.97,1276.62,-3.12,22946.35,706.80,-3.02,9228.73
3821900,264.41,693.16,1.00,1,1,1,927.16,-2.27,72765.34,958.16,-2.92,12496.35,258.80,-1.93,188644.61,1385.21,-3.08,8378.56,790.91,-3.00,5840.18
3843300,239.49,695.78,1.00,1,1,1,1170.94,3.04,47276.32,665.76,-0.19,74288.15,247.25,-1.66,3314.08,1024.07,-3.01,17301.63,580.16,3.08,11686.50
3857200,287.48,688.68,1.00,1,1,1,3490.17,-0.15,335275.78,1156.38,-0.25,35486.10,249.60,-0.95,12413.42,152.41,-2.13,67228.98,834.74,3.12,18399.52
3872000,271.64,687.58,1.00,1,1,1,1072.38,-3.07,306984.30,372.69,-2.36,93521.26,486.68,-0.23,22995.34,79.25,-1.07,8990.38,467.09,2.95,25785.39
3901000,275.94,677.14,1.00,1,1,1,389.37,-1.18,43134.00,111.31,-0.12,15508.25,90.03,-2.52,18959.09,223.17,-2.67,8255.91,1385.21,-3.08,32426.08
3923100,277.29,686.88,1.00,1,1,1,445.08,1.43,36456.70,159.03,0.95,6544.64,95.38,0.59,8388.05,60.19,-0.86,11068.34,1024.07,-3.01,16753.61
3951600,280.59,683.70,1.00,1,1,1,160.82,-0.77,19476.80,140.16,1.27,1776.98,517.63,-3.13,21046.35,191.26,2.38,8813.95,152.41,-2.13,32788.87
3965300,279.04,692.53,1.00,1,1,1,654.25,1.74,57653.46,1411.00,-3.00,107791.56,405.41,3.09,8483.32,282.05,0.71,26017.73,79.25,-1.07,9712.24
3986700,231.58,676.57,1.00,1,1,1,2339.65,-2.82,117849.30,936.00,-3.02,22240.73,468.95,2.10,19533.22,517.63,-3.13,35305.00,223.17,-2.67,11187.91
4001200,245.67,688.57,1.00,1,1,1,1276.08,0.71,245247.06,1657.07,0.77,170181.20,552.54,0.74,44466.71,405.41,3.09,8015.28,60.19,-0.86,16869.67
4015200,265.50,709.43,1.00,1,1,1,2056.15,0.81,57040.27,2291.52,0.44,64249.92,1657.07,0.77,78915.41,468.95,2.10,29857.92,191.26,2.38,17942.69
4030000,305.36,716.72,1.00,1,1,1,2737.66,0.18,109457.57,2737.66,0.18,53208.54,2291.52,0.44,60776.95,552.54,0.74,43565.36,282.05,0.71,24083.98
