@RELATION gaze_labels

%@METADATA width_px 1920
%@METADATA height_px 1080
%@METADATA width_mm 540.00
%@METADATA height_mm 254.00
%@METADATA distance_mm 620.00


@ATTRIBUTE time INTEGER
@ATTRIBUTE x NUMERIC
@ATTRIBUTE y NUMERIC
@ATTRIBUTE confidence NUMERIC
@ATTRIBUTE handlabeller1 INTEGER
@ATTRIBUTE handlabeller2 INTEGER
@ATTRIBUTE handlabeller_final INTEGER
@ATTRIBUTE speed_1 numeric
@ATTRIBUTE direction_1 numeric
@ATTRIBUTE acceleration_1 numeric
@ATTRIBUTE speed_2 numeric
@ATTRIBUTE direction_2 numeric
@ATTRIBUTE acceleration_2 numeric
@ATTRIBUTE speed_4 numeric
@ATTRIBUTE direction_4 numeric
@ATTRIBUTE acceleration_4 numeric
@ATTRIBUTE speed_8 numeric
@ATTRIBUTE direction_8 numeric
@ATTRIBUTE acceleration_8 numeric
@ATTRIBUTE speed_16 numeric
@ATTRIBUTE direction_16 numeric
@ATTRIBUTE acceleration_16 numeric

%The number after speed, direction denotes the step size that was used for the calculation.
%Acceleration was calculated between two adjacent samples of the already low pass filtered velocity

@DATA
0,295.92,510.23,1.00,1,1,1,0.00,0.00,0.00,2253.66,3.13,0.00,2890.42,-3.13,0.00,1156.62,-2.03,0.00,491.67,0.17,0.00
15300,261.44,510.67,1.00,1,1,1,2253.66,3.13,147298.13,2890.42,-3.13,41755.43,1130.81,2.97,116964.13,1215.72,-2.85,61941.71,297.35,-1.41,37680.88
29400,210.94,509.60,1.00,1,1,1,3582.21,-3.12,94474.26,1130.81,2.97,126918.53,1156.62,-2.03,97445.20,1531.29,0.12,194113.48,268.73,-1.13,6082.87
51400,221.23,517.71,1.00,1,1,1,595.30,0.67,185149.56,2362.63,-0.91,149390.85,1215.72,-2.85,43077.64,1317.19,-0.09,16675.01,580.49,-1.31,14573.37
65300,262.69,442.40,1.00,1,1,1,6184.76,-1.07,453913.62,1623.19,-2.43,200628.41,1531.29,0.12,196906.48,491.67,0.17,61167.10,197.27,-2.88,44000.68
79300,186.99,488.07,1.00,1,1,1,6314.89,2.60,862283.93,3251.34,1.05,343835.34,1317.19,-0.09,26203.58,297.35,-1.41,41179.82,141.45,-0.26,23376.51
93400,308.21,521.62,1.00,1,1,1,8920.03,0.27,995158.83,3338.22,0.19,195451.74,1932.83,0.68,95734.72,268.73,-1.13,6082.87,431.55,-3.09,40264.18
115300,305.08,510.38,1.00,1,1,1,532.84,-1.84,420363.01,1401.80,-0.02,90677.06,1051.57,-0.24,70447.41,580.49,-1.31,14639.92,91.70,1.83,19292.95
129400,358.67,520.76,1.00,1,1,1,3870.98,0.19,293359.55,1284.88,-2.29,173042.22,1078.70,-2.60,139681.67,197.27,-2.88,43376.55,27.38,-1.22,8438.10
158700,268.18,468.57,1.00,1,1,1,3565.05,-2.62,250310.09,2741.55,-2.79,58856.52,1219.65,-2.28,13103.67,141.45,-0.26,11169.66,936.12,-0.13,31529.94
180000,228.39,473.09,1.00,1,1,1,1880.05,3.03,109718.37,1140.15,-2.27,86598.90,1902.23,-2.53,36711.28,431.55,-3.09,26653.75,1537.35,-0.11,28244.30
194200,242.22,437.52,1.00,1,1,1,2687.59,-1.20,276883.84,1367.33,-1.39,76601.27,980.83,2.92,101407.20,91.70,1.83,29754.62,1709.62,-0.10,12204.04
208300,235.46,435.04,1.00,1,1,1,510.35,-2.79,194720.91,1991.42,2.24,231538.13,850.95,1.20,98558.28,396.67,-2.85,29090.15,1772.43,0.13,27810.42
223100,206.62,482.74,1.00,1,1,1,3766.07,2.11,250155.15,2900.89,1.44,139898.68,1628.49,0.96,55735.76,1701.72,0.02,141007.95,1958.78,-0.05,25519.28
237300,246.19,518.48,1.00,1,1,1,3754.63,0.73,337101.77,2943.86,0.40,204920.52,1173.18,0.82,34913.02,2882.43,-0.03,83567.84,1515.15,-0.07,31360.47
258200,301.76,523.06,1.00,1,1,1,2668.25,0.08,110127.56,1094.80,-0.29,105863.36,3425.47,-0.02,133364.84,3120.55,0.06,17752.21,1402.90,-0.02,6336.92
287300,298.65,502.85,1.00,1,1,1,702.64,-1.72,100112.57,3888.18,-0.19,96229.17,4394.41,-0.14,36522.18,3353.42,0.13,11156.01,1151.60,-0.25,12954.24
322400,546.68,474.82,1.00,1,1,1,7111.50,-0.11,204400.83,7708.75,-0.11,109566.18,4650.48,-0.13,7414.65,3436.31,-0.04,17146.50,1461.76,0.06,14311.02
337300,681.58,458.95,1.00,1,1,1,9115.75,-0.12,134536.71,6385.94,-0.03,96687.49,5338.70,0.02,67622.82,3086.61,-0.06,23724.55,1719.39,0.05,17349.49
351400,731.77,468.75,1.00,1,1,1,3627.47,0.19,409102.84,3178.52,0.37,260216.20,3451.88,-0.07,136487.73,2596.04,-0.05,34813.18,2022.22,0.15,25425.30
386300,827.05,514.59,1.00,1,1,1,3029.33,0.45,29658.50,1718.58,-0.14,53559.71,1492.76,0.24,59532.35,2596.21,-0.17,8779.45,1675.44,0.04,11549.58
400300,815.00,457.07,1.00,1,1,1,4197.61,-1.78,464489.37,1475.25,-2.43,207857.15,437.72,1.15,90963.93,1191.35,0.12,106834.65,1983.37,-0.05,24923.23
415300,794.68,486.61,1.00,1,1,1,2390.47,2.17,406537.53,2803.42,2.59,183259.55,2112.36,-2.49,167052.69,512.37,0.55,50449.33,1751.17,-0.07,15598.90
429400,745.61,499.97,1.00,1,1,1,3606.73,2.88,167281.35,2628.31,-2.51,215337.49,1623.46,2.77,133861.17,876.84,0.50,25998.25,1972.98,-0.16,20167.65
451300,718.28,430.79,1.00,1,1,1,3396.41,-1.95,213410.74,820.74,-3.00,88687.03,802.62,2.93,38433.33,757.68,-2.48,74392.46,2716.82,-0.06,35765.52
465700,716.12,495.74,1.00,1,1,1,4513.15,1.60,538031.78,2477.88,1.21,205917.10,1550.49,0.29,158938.92,211.70,-0.24,62848.06,2287.70,-0.05,29828.66
480100,743.81,497.43,1.00,1,1,1,1926.44,0.06,337357.45,4573.03,0.25,259005.57,616.01,0.65,69503.27,107.37,-0.39,7420.92,2239.39,0.07,19485.79
494100,841.86,528.23,1.00,1,1,1,7341.34,0.30,392238.83,1218.18,-1.44,347745.78,1716.84,-0.34,105452.76,1298.60,-0.43,85093.07,1877.70,-0.08,34533.00
515400,749.61,454.82,1.00,1,1,1,5534.86,-2.47,594525.11,1533.34,-1.53,16070.31,848.43,-0.25,41098.49,2891.16,0.06,86658.42,1612.66,-0.18,14703.67
545300,844.82,449.78,1.00,1,1,1,3188.57,-0.05,274205.24,1471.55,0.41,83022.68,1625.63,-0.96,37650.17,3396.10,-0.11,24297.91,1335.46,-0.09,10187.58
559400,808.97,480.69,1.00,1,1,1,3356.84,2.43,439286.10,2686.22,-0.37,137600.54,4785.89,0.00,289233.22,4014.03,0.01,54399.64,1459.61,-0.08,8900.20
573800,916.20,422.12,1.00,1,1,1,8485.03,-0.50,818617.05,8910.83,-0.08,443430.65,5525.03,-0.02,51894.23,3047.59,-0.24,91153.69,1790.50,-0.02,23860.69
596300,1136.79,455.20,1.00,1,1,1,9913.55,0.15,267483.96,7887.87,0.07,71377.08,7923.18,0.05,108516.62,3377.59,-0.04,31676.40,1942.10,0.06,9720.59
610500,1204.97,442.42,1.00,1,1,1,4885.17,-0.19,389801.80,6877.02,0.27,123931.09,5469.29,0.00,174018.34,2375.59,-0.08,70981.19,1840.03,-0.04,15716.34
624300,1322.57,505.84,1.00,1,1,1,9681.34,0.49,480812.89,2387.23,-0.29,362543.07,1915.54,-0.16,260334.75,2650.34,-0.07,20029.06,1750.69,-0.15,15443.34
638200,1268.42,423.79,1.00,1,1,1,7072.20,-2.15,1169769.81,1715.90,-2.07,231624.63,280.31,-1.10,127069.94,2311.13,0.16,47071.86,1408.06,-0.21,25391.95
673300,1282.44,431.95,1.00,1,1,1,462.23,0.53,213364.45,812.08,-3.06,41028.32,972.04,-2.53,27703.46,1135.02,0.07,33755.79,1633.97,-0.05,9202.81
702300,1216.55,419.44,1.00,1,1,1,2312.83,-2.95,94930.86,858.07,2.70,15068.30,732.67,0.85,58362.23,603.37,0.26,19127.43,918.92,0.08,25327.04
723700,1243.37,450.49,1.00,1,1,1,1917.22,0.86,186755.54,2530.07,0.56,143783.51,639.97,0.66,7607.31,537.27,-1.79,45554.92,424.73,-0.27,25317.53
752200,1323.43,486.64,1.00,1,1,1,3082.16,0.42,54951.88,2049.44,0.20,32971.15,1224.67,0.50,21061.17,120.27,0.59,22083.53,222.32,1.12,15517.97
766800,1329.86,468.45,1.00,1,1,1,1321.46,-1.23,236607.88,629.02,-2.30,176941.82,886.30,-0.58,76981.68,117.86,-2.90,16068.24,481.90,-3.08,42651.36
787900,1308.41,469.95,1.00,1,1,1,1018.76,3.07,93058.32,1751.91,-2.03,54890.44,981.09,-2.20,64251.55,773.70,2.64,32784.24,571.24,2.91,8533.63
802600,1301.94,412.29,1.00,1,1,1,3946.90,-1.68,274450.30,1426.98,-2.14,25165.92,1204.39,-2.58,31934.07,2159.21,-3.13,104553.49,1068.54,-2.97,40038.94
816500,1286.28,435.65,1.00,1,1,1,2023.83,2.16,406140.11,1431.36,2.76,131125.89,3283.91,3.13,170182.49,2919.15,-3.13,54690.62,843.86,3.01,26032.28
830900,1264.41,427.51,1.00,1,1,1,1621.03,-2.79,158385.45,5909.66,2.92,312773.37,5753.43,3.05,172951.98,2415.15,-3.08,36579.94,1003.66,3.05,11348.87
845400,1119.61,472.94,1.00,1,1,1,10465.78,2.84,637194.07,9224.85,3.09,243668.01,5290.44,3.00,37132.67,1970.57,3.09,35612.03,776.27,2.92,17568.87
866700,934.64,445.46,1.00,1,1,1,8779.14,-2.99,216452.51,4823.57,3.08,206643.68,3551.60,3.08,83027.21,2238.00,3.03,13778.68,838.96,-3.11,10083.95
881400,946.29,483.53,1.00,1,1,1,2708.17,1.27,696549.36,1207.49,0.01,410129.17,1092.32,3.01,167540.49,2010.67,3.06,16079.91,1457.38,-3.02,42568.42
909400,986.20,445.76,1.00,1,1,1,1962.73,-0.76,142481.39,1631.78,0.02,15174.96,632.60,0.05,61360.85,1988.26,3.03,2509.11,1127.32,-3.07,12016.56
930900,1027.04,485.30,1.00,1,1,1,2643.93,0.77,149920.03,81.32,2.25,78266.29,748.92,-0.43,16213.55,833.24,-3.12,54367.64,703.47,-3.00,19953.90
945400,984.36,448.03,1.00,1,1,1,3907.42,-2.42,451673.22,1324.24,-2.38,91951.22,231.03,1.85,63159.88,482.18,-0.04,90678.30,187.69,3.02,36192.87
959600,999.51,459.10,1.00,1,1,1,1320.98,0.63,367933.47,431.01,1.75,112773.84,555.34,-2.69,44869.62,375.15,-2.24,53996.34,169.50,-2.33,11401.87
973800,982.16,460.07,1.00,1,1,1,1224.13,3.09,168777.31,329.19,1.98,9290.36,308.91,-0.26,57381.56,11.87,-2.86,25742.29,216.26,0.53,26898.60
995100,994.91,469.84,1.00,1,1,1,754.27,0.65,87433.65,764.32,-0.68,50053.19,1177.00,-2.91,68355.10,543.06,-0.56,25872.29,659.88,-0.01,22875.02
1009700,1003.55,442.89,1.00,1,1,1,1938.33,-1.26,157835.74,2120.00,-2.78,177584.70,149.84,-1.43,80341.87,1680.79,-0.11,83189.67,1277.60,-0.10,42631.28
1038100,909.67,437.54,1.00,1,1,1,3311.09,-3.08,149123.15,301.16,3.02,65440.29,1169.47,-0.28,39313.61,1444.12,-0.25,11249.96,1220.45,-0.18,4055.39
1074000,984.32,445.22,1.00,1,1,1,2090.59,0.10,150427.80,3802.95,0.01,114250.67,2638.16,-0.10,41847.40,1920.70,0.01,17729.59,999.33,-0.09,6705.63
1088000,1099.41,440.13,1.00,1,1,1,8228.79,-0.04,440584.64,9363.89,-0.10,400074.36,3433.17,-0.12,57028.95,1966.69,0.00,3379.85,982.09,-0.21,8424.07
1102100,1246.17,419.33,1.00,1,1,1,10512.40,-0.14,174032.80,3138.35,-0.29,447348.46,4365.74,0.05,81213.12,1918.85,-0.11,15376.79,1040.70,-0.11,8289.30
1137600,1248.76,396.23,1.00,1,1,1,654.80,-1.46,292067.44,1790.29,0.50,63873.12,2992.96,0.13,39488.79,2573.37,-0.05,18746.82,1128.95,0.02,4512.33
1152000,1324.42,462.45,1.00,1,1,1,6982.08,0.72,512185.81,3887.96,0.73,151511.11,1139.35,-0.14,133084.80,2165.62,-0.09,28859.02,1119.51,-0.13,11039.06
1166100,1331.22,470.25,1.00,1,1,1,734.06,0.85,443650.31,1670.91,-1.26,341856.83,1316.42,0.22,33203.30,1516.47,-0.07,46083.67,1019.02,-0.14,7258.15
1187300,1342.36,406.26,1.00,1,1,1,3063.79,-1.40,168489.24,1519.91,-1.55,23058.22,848.94,-2.20,95961.33,340.30,-0.10,55487.42,976.18,-0.10,2972.55
1202500,1332.12,414.93,1.00,1,1,1,882.78,2.44,248945.18,1768.08,2.91,171109.90,751.62,-1.91,16515.77,924.94,0.55,45039.30,1350.27,-0.04,24960.43
1216600,1291.96,418.24,1.00,1,1,1,2857.96,3.06,156060.13,704.59,2.63,78641.46,834.61,2.97,72617.36,345.57,-1.29,75883.06,945.11,0.05,29608.41
1230500,1314.96,424.66,1.00,1,1,1,1717.64,0.27,324349.49,159.76,-0.94,61348.28,745.02,1.04,93421.33,327.04,-1.84,13182.18,574.60,0.17,27483.63
1245300,1294.67,414.54,1.00,1,1,1,1531.97,-2.68,218576.24,1236.62,0.71,85133.49,594.29,-0.07,48359.91,196.87,2.92,25270.75,848.36,3.01,95101.57
1280100,1361.29,464.85,1.00,1,1,1,2399.01,0.65,112504.06,886.44,0.02,22914.95,41.57,-0.44,15973.92,69.45,2.59,3821.51,996.59,2.92,4979.89
1294100,1337.92,415.24,1.00,1,1,1,3917.27,-2.01,438797.78,1690.40,-2.37,172482.06,239.93,-0.10,14380.62,386.40,2.34,22827.37,1295.95,3.13,27431.15
1315600,1318.15,423.14,1.00,1,1,1,990.22,2.76,185228.92,640.94,-3.02,57827.53,900.24,-2.27,49052.39,485.93,2.46,5234.71,996.62,3.03,14802.03
1330200,1314.94,412.55,1.00,1,1,1,758.10,-1.87,88881.12,214.65,-0.50,56555.58,1448.57,2.67,104182.45,1984.54,3.02,109151.04,1477.51,3.13,33822.12
1345000,1323.70,420.13,1.00,1,1,1,782.66,0.71,100009.86,2619.97,2.50,191397.32,1259.61,2.47,22361.74,2701.32,-3.13,52798.08,1425.52,-3.12,5035.97
1359300,1253.67,457.91,1.00,1,1,1,5564.71,2.65,411741.03,2777.39,2.48,11593.58,4894.44,3.02,271073.45,2552.89,3.01,27758.39,1020.00,2.97,32860.88
1373500,1261.00,468.45,1.00,1,1,1,903.92,0.96,404071.66,7099.16,-3.11,369667.46,4446.29,3.03,31681.88,1902.44,2.87,50613.20,1159.03,2.81,15459.81
1395100,999.61,450.88,1.00,1,1,1,12128.57,-3.07,588577.92,5643.29,-3.11,67401.46,3386.88,3.11,51244.28,2526.38,3.14,39409.15,2118.78,2.27,58706.64
1425200,969.36,460.16,1.00,1,1,1,1051.33,2.84,370522.63,1164.39,2.90,150594.39,2341.08,2.99,36434.67,2544.74,-3.11,3066.84,3077.72,2.82,55510.74
1454000,933.07,467.49,1.00,1,1,1,1285.43,2.94,9049.13,1392.45,0.67,79820.13,1201.56,-2.86,46812.33,1609.66,3.08,33129.39,4734.62,3.11,69181.74
1475600,1024.56,503.50,1.00,1,1,1,4551.94,0.37,262702.58,1579.93,-2.41,137543.21,1108.31,-2.59,14972.12,1717.79,2.89,15844.60,3458.55,2.52,123066.18
1505300,872.57,413.55,1.00,1,1,1,5946.47,-2.61,352380.27,3999.86,-2.54,82201.98,517.62,0.18,53910.68,2923.81,1.87,84008.35,3071.05,2.23,34520.23
1519100,880.91,405.33,1.00,1,1,1,848.46,-0.78,450519.29,4175.76,0.55,592217.92,988.81,2.55,101934.15,3651.71,2.59,175765.67,2326.50,2.24,54018.87
1533600,973.61,474.84,1.00,1,1,1,7990.98,0.64,545503.01,4534.12,1.07,156220.62,8183.87,1.61,526807.20,6938.69,-3.14,294979.01,1743.56,2.39,44879.88
1554900,959.54,547.33,1.00,4,4,4,3467.05,1.76,337546.91,13363.00,1.83,496279.29,8317.25,2.42,303957.47,5180.36,2.40,221284.01,1397.04,2.73,29536.31
1569500,850.46,938.49,1.00,4,4,4,27814.03,1.84,1668474.46,18080.44,2.72,973242.69,14368.38,-3.13,676030.87,5487.32,1.77,224934.45,702.13,2.68,47693.59
1584300,474.10,763.91,1.00,4,4,4,28032.49,-2.71,2875808.55,25667.93,-2.71,1306940.87,9347.88,2.38,678357.84,4117.22,1.60,107271.25,308.94,2.71,26579.12
1613400,-172.96,466.97,1.00,4,4,4,24465.41,-2.71,122634.72,6025.03,1.75,954348.09,3551.52,2.07,208230.50,2659.44,1.90,60526.75,365.04,3.09,4800.20
1634900,418.59,1063.68,1.00,1,1,1,39080.87,0.79,2910558.88,32094.84,0.68,1381117.54,5731.43,0.55,307285.89,1078.03,2.40,83241.69,628.21,-2.65,17176.89
1649000,714.88,1186.15,1.00,1,1,1,22737.65,0.39,1428811.52,15710.57,-0.14,1727038.25,16768.22,0.35,794565.01,2724.05,-1.70,245032.73,197.93,-2.55,30618.67
1663400,861.66,999.13,1.00,1,1,1,16510.03,-0.91,1682212.60,12755.60,-1.20,1015001.34,9148.29,-0.77,1054150.85,3415.36,-0.57,231715.06,131.61,-2.55,4605.18
1678200,848.18,838.36,1.00,1,1,1,10901.12,-1.65,763907.79,9592.13,-1.62,375678.07,9978.82,-1.44,428332.68,7777.91,0.01,355387.89,360.78,-2.50,15498.43
1699600,844.19,652.34,1.00,1,1,1,8694.65,-1.59,106917.27,8328.79,-1.74,76658.84,7827.79,-1.52,106614.17,6100.89,-0.97,310718.03,623.03,-2.19,13994.89
1713300,799.44,550.11,1.00,1,1,1,8145.27,-1.98,242069.42,5709.36,-1.31,286312.35,5728.03,-1.63,161035.54,5663.15,-1.43,201570.01,1707.88,-1.56,92104.50
1727300,884.71,499.47,1.00,1,1,1,7083.84,-0.54,722548.91,2859.17,-1.22,205444.28,3681.71,-1.48,153711.31,3756.28,-1.59,146026.36,1520.29,-0.76,90637.46
1742100,828.04,472.89,1.00,1,1,1,4229.04,-2.70,681448.54,2318.81,-1.80,106814.00,2155.37,-1.42,103840.83,2630.91,-1.49,79376.19,3533.05,-0.07,171794.91
1763700,865.42,417.30,1.00,1,1,1,3101.55,-0.98,259890.53,1814.99,-1.60,30262.49,1224.14,-1.88,55233.70,1547.89,-1.57,50716.67,3168.85,-0.81,112320.05
1792400,825.56,381.63,1.00,1,1,1,1863.69,-2.41,118175.52,613.58,-2.05,44997.18,856.73,-0.85,37287.30,940.27,-1.20,26067.62,3064.77,-1.06,27795.82
1827600,847.32,382.52,1.00,1,1,1,618.67,0.04,67442.59,1293.64,0.42,51582.21,338.64,-2.18,23860.98,505.03,-2.21,22508.03,2253.31,-0.86,27571.64
1842300,884.41,408.15,1.00,1,1,1,3067.31,0.60,174547.88,129.25,2.04,88818.03,389.88,0.50,48228.55,674.54,-0.80,52608.14,1982.30,-0.73,26316.50
1870700,844.81,387.49,1.00,1,1,1,1572.71,-2.66,163100.35,662.08,-2.82,23117.64,587.90,1.93,23213.26,1258.78,-0.20,28165.34,1569.47,-0.57,17674.87
1885400,857.38,399.02,1.00,1,1,1,1159.88,0.74,184341.61,1128.94,1.92,88160.19,449.04,-0.67,68061.53,2149.43,-0.00,64472.25,1496.40,-0.31,27199.73
1907300,830.72,426.34,1.00,1,1,1,1742.96,2.34,96959.33,1565.20,-0.23,108658.75,3580.58,-0.06,147237.63,3314.29,0.19,58221.23,1035.58,-0.27,21165.21
1921400,912.21,386.04,1.00,1,1,1,6447.58,-0.46,575346.47,8831.30,-0.21,515370.05,4767.53,-0.06,84185.06,2928.54,0.06,40148.82,1238.49,-0.30,14584.55
1935900,1077.90,374.42,1.00,1,1,1,11454.90,-0.07,414476.86,8863.33,-0.02,113965.94,7599.40,0.10,205778.57,2904.68,0.00,11944.46,1144.80,-0.07,19890.16
1949800,1163.88,381.00,1.00,1,1,1,6203.68,0.08,388070.50,7255.47,0.40,265392.89,6151.29,0.12,104763.06,2674.03,0.01,16718.73,1199.60,-0.07,3951.06
1971300,1314.76,473.73,1.00,1,1,1,8237.34,0.55,182718.90,4170.21,0.36,143818.85,2349.29,0.07,177028.99,2645.12,-0.04,6609.08,1339.40,0.08,10709.36
1985300,1302.45,433.10,1.00,1,1,1,3032.38,-1.87,764079.75,2400.50,-2.14,446930.69,1137.23,0.23,88531.67,2095.80,-0.10,40526.52,1086.78,-0.06,21717.71
2013700,1260.18,387.82,1.00,1,1,1,2181.07,-2.32,50787.79,1052.74,-2.55,52605.94,1605.99,-2.62,95584.35,1038.34,0.12,39022.40,1551.39,0.01,16722.08
2035500,1258.72,403.42,1.00,1,1,1,718.54,1.66,124411.78,1641.56,2.74,63781.47,1555.83,-2.45,12007.35,249.26,-0.69,40594.47,1426.45,0.08,7278.39
2049400,1206.27,410.80,1.00,1,1,1,3811.04,3.00,267030.81,2471.83,-2.38,169845.74,574.92,3.01,88905.69,746.93,-2.53,60996.77,172.02,0.40,90981.38
2063500,1208.49,355.81,1.00,1,1,1,3902.62,-1.53,420065.81,900.88,-0.81,186999.65,1265.41,-2.53,65562.78,828.52,-2.76,14167.39,241.36,2.55,25856.02
2077500,1223.81,392.54,1.00,1,1,1,2842.42,1.18,470696.04,446.36,3.04,91030.20,349.08,0.08,112614.16,62.60,0.77,63349.82,1058.01,3.12,61739.96
2099100,1192.68,357.43,1.00,1,1,1,2172.26,-2.30,229061.53,578.20,1.35,35779.07,572.70,2.00,35423.47,217.28,1.78,8872.38,1111.88,3.12,2494.41
2113000,1228.40,412.55,1.00,1,1,1,4725.05,1.00,495001.32,1125.56,1.55,41071.84,651.88,0.02,73605.06,2318.65,3.04,162662.01,1818.06,-2.95,55539.57
2127200,1193.45,389.05,1.00,1,1,1,2965.92,-2.55,531191.85,1444.12,-0.47,153600.05,1470.33,0.88,81471.56,2520.52,2.95,20479.14,1764.96,-3.04,12557.23
2142200,1265.97,393.40,1.00,1,1,1,4843.80,0.06,503422.72,1994.66,0.61,122115.25,4443.06,3.05,360412.00,3029.72,-3.12,52144.82,1611.89,-3.12,13796.62
2163600,1252.95,430.65,1.00,1,1,1,1843.66,1.91,263239.00,7794.42,3.01,437422.45,4300.07,3.04,7016.58,2359.24,3.06,34206.83,1490.86,-3.11,5729.78
2192700,875.84,445.68,1.00,1,1,1,12969.51,3.10,426507.91,9317.28,-3.13,68082.21,5822.20,-3.12,56703.20,2853.12,-3.04,23652.89,1446.23,-3.14,1936.87
2206300,855.16,424.42,1.00,1,1,1,2180.85,-2.34,854828.50,3564.30,-2.60,476698.93,4657.31,-3.05,90016.43,2643.48,-3.12,21974.44,1574.07,3.01,18068.93
2227500,769.47,381.87,1.00,1,1,1,4512.54,-2.68,120728.11,947.40,-2.31,125951.15,1572.00,-2.46,163280.64,2902.30,-3.11,12250.83,1690.48,3.08,7958.82
2256300,823.19,389.46,1.00,1,1,1,1883.72,0.14,219729.37,412.25,-0.87,34141.85,1151.65,-2.63,16778.91,2676.89,-3.05,10115.00,1267.64,3.05,14802.93
2270600,780.93,368.29,1.00,1,1,1,3305.26,-2.68,358472.26,1671.21,-2.95,133339.55,221.46,-0.13,93458.56,641.17,-2.72,145459.82,1505.79,-3.10,21015.53
2285300,775.60,380.28,1.00,1,1,1,891.99,1.99,235573.16,350.10,1.08,130033.65,151.90,0.12,5643.23,656.12,-3.05,14438.56,1399.32,3.03,16161.27
2307300,787.00,379.62,1.00,1,1,1,518.89,-0.06,55465.74,1624.01,0.18,65132.85,635.22,1.29,26976.51,395.14,2.38,22667.70,1418.01,3.00,2211.66
2321200,832.98,390.64,1.00,1,1,1,3401.37,0.24,209238.69,1018.75,1.39,113969.22,586.55,1.96,28905.03,67.05,0.28,31139.06,1498.70,-3.07,22497.41
2335700,792.22,408.08,1.00,1,1,1,3057.51,2.74,422927.38,2620.60,2.81,183730.35,1126.33,2.52,48534.60,249.53,1.05,14266.63,296.62,-2.94,83126.17
2350200,761.16,415.50,1.00,1,1,1,2202.13,2.91,66341.20,1843.95,2.94,57079.41,29.44,2.46,75651.35,430.09,1.23,13118.63,387.91,-0.49,44512.15
2370900,728.65,421.17,1.00,1,1,1,1594.56,2.97,29881.53,2114.69,-0.32,190887.22,199.83,-1.19,10918.45,620.64,1.01,10741.08,613.60,-0.20,12783.71
2385300,831.51,391.82,1.00,1,1,1,7428.42,-0.28,626090.81,2526.57,-0.35,28891.19,578.52,0.48,43744.79,216.66,2.82,48902.24,507.75,-0.15,7572.38
2399700,797.00,396.21,1.00,1,1,1,2416.02,3.02,682193.83,1908.81,2.31,299431.87,1401.56,0.31,58169.66,146.19,1.54,15564.97,638.73,-0.05,10027.71
2414300,794.07,432.59,1.00,1,1,1,2499.82,1.65,212266.91,1378.67,1.00,140132.65,370.57,2.84,117755.64,1338.98,-0.22,94119.61,684.78,-0.01,3492.40
2449800,834.09,454.48,1.00,1,1,1,1284.95,0.50,64728.06,673.52,-1.28,53242.85,420.31,1.70,12139.64,1582.72,-0.34,8294.96,517.96,-0.18,5493.42
2464100,803.61,400.44,1.00,1,1,1,4338.87,-2.08,382658.72,1719.99,-2.59,116989.00,2036.95,-0.36,158343.56,911.19,-0.18,48712.34,239.09,-1.25,31756.66
2478000,792.90,428.87,1.00,1,1,1,2185.60,1.93,430319.45,4421.09,-0.19,417531.46,2396.14,-0.79,71976.92,1131.76,-0.23,16190.04,353.47,-0.21,22419.82
2499100,955.60,371.40,1.00,1,1,1,8177.71,-0.34,461141.98,4816.12,-0.51,71461.26,2481.89,-0.20,66698.06,1160.99,-0.29,3965.10,742.86,-0.06,18802.33
2513200,941.23,346.78,1.00,1,1,1,2021.67,-2.10,623018.62,176.78,-0.67,329201.69,2728.62,-0.40,40724.29,992.84,-0.81,40260.37,790.66,-0.06,3394.48
2528300,959.65,368.20,1.00,1,1,1,1871.22,0.86,256742.99,638.57,0.79,42615.48,270.50,0.28,167208.19,581.75,-0.99,28741.88,448.64,0.10,23533.84
2542300,954.28,360.01,1.00,1,1,1,699.83,-2.15,183342.33,377.99,0.51,21147.03,137.10,2.58,26848.94,692.28,-0.39,27882.50,715.69,0.07,19098.60
2578200,976.16,377.33,1.00,1,1,1,777.37,0.67,40623.23,469.54,-2.82,23511.92,1150.28,-2.72,30109.34,283.52,0.74,17470.93,560.74,-0.24,6991.32
2592200,932.06,352.55,1.00,1,1,1,3612.76,-2.63,313013.99,2699.25,-2.70,159525.05,612.17,2.71,62810.49,405.63,1.19,13729.81,314.11,-0.72,22650.19
2627400,855.85,321.09,1.00,1,1,1,2342.39,-2.75,37438.85,933.88,2.37,71808.43,347.19,1.10,20342.33,237.29,1.41,5186.44,647.22,0.16,14426.84
2642700,898.37,385.55,1.00,1,1,1,5047.04,0.99,464579.88,5279.21,0.55,364968.46,800.72,1.01,29791.42,501.88,0.64,24300.66,576.25,-0.21,15470.71
2656800,988.50,401.67,1.00,1,1,1,6493.83,0.18,336257.85,2489.94,0.30,207882.18,2380.74,0.65,117459.68,92.20,2.07,35293.55,39.48,-2.51,42789.45
2670800,965.28,406.01,1.00,1,1,1,1687.58,2.96,578162.16,812.80,3.00,231678.04,1669.77,0.21,80162.52,305.56,2.16,15282.29,134.04,0.85,12338.88
2685400,965.50,405.02,1.00,1,1,1,69.55,-1.35,117539.93,1222.58,0.12,138236.24,285.25,-2.60,133021.51,1264.14,0.66,87779.74,168.72,0.72,2753.60
2721200,1026.45,413.42,1.00,1,1,1,1718.62,0.14,47886.34,305.89,-1.33,34172.53,779.65,-2.92,14432.68,476.49,0.09,25116.62,109.73,1.08,2129.28
2735700,969.21,390.09,1.00,1,1,1,4263.18,-2.75,409901.46,4290.35,-2.97,298158.88,510.25,0.67,86834.32,396.26,-2.42,57263.97,172.86,1.74,7574.48
2749900,905.11,392.49,1.00,1,1,1,4517.19,3.10,131463.57,1463.58,0.94,382884.93,1001.50,-2.80,105216.41,201.03,-1.48,22611.63,62.01,-3.09,12459.40
2771300,999.88,432.20,1.00,1,1,1,4801.72,0.40,425245.85,1721.36,-0.01,69180.87,543.04,-2.31,27184.30,221.64,-0.08,12775.94,340.78,0.62,18437.84
2785300,966.04,391.70,1.00,1,1,1,3769.93,-2.27,595118.05,3081.12,-2.24,310930.09,998.17,-0.24,96026.46,476.09,-2.74,48595.99,229.03,0.15,12200.64
2799400,946.01,364.43,1.00,1,1,1,2400.05,-2.20,98067.17,499.14,-1.45,195223.22,465.63,-1.61,71986.80,269.79,1.62,44202.36,66.70,-2.47,20486.16
2814500,967.76,377.23,1.00,1,1,1,1671.40,0.53,264292.18,1797.17,0.62,138095.77,73.68,-0.45,29240.21,278.83,-1.38,36238.66,102.37,-1.05,7524.12
2835500,998.66,402.33,1.00,1,1,1,1895.92,0.68,16624.76,364.26,1.37,73786.77,860.25,1.25,41554.56,590.67,-2.44,24570.02,335.58,0.11,14699.53
2849300,970.29,389.65,1.00,1,1,1,2252.14,-2.72,298029.16,961.55,2.45,61698.48,709.90,-2.70,104708.14,27.91,1.51,44222.26,311.26,-0.37,11329.23
2877800,967.42,428.38,1.00,1,1,1,1362.70,1.64,105343.44,1365.36,-2.55,50158.62,863.51,-2.77,5736.43,230.96,0.75,7426.94,464.41,-0.01,7274.60
2899700,913.03,351.48,1.00,1,1,1,4301.05,-2.19,247590.78,1647.70,-2.14,31124.49,80.86,2.12,38922.42,78.57,0.01,8231.59,557.47,-0.33,8587.57
2914100,935.34,377.90,1.00,1,1,1,2401.46,0.87,465059.99,1608.68,0.70,223468.87,497.17,-1.43,39727.38,439.93,0.19,25196.79,265.91,-0.51,20795.63
2942900,966.31,396.09,1.00,1,1,1,1247.29,0.53,44902.67,904.02,0.29,29701.23,785.35,0.36,35363.69,830.98,-0.07,14655.52,354.59,-0.19,4517.59
2957400,972.82,389.18,1.00,1,1,1,654.95,-0.82,87818.30,481.26,-0.88,58091.88,1530.75,0.27,51821.59,904.97,-0.26,12450.34,563.97,-0.18,14444.79
2993300,981.80,377.43,1.00,1,1,1,411.96,-0.92,6928.71,2072.59,0.27,53611.11,1868.03,-0.11,20492.11,983.00,-0.09,5007.86,588.70,0.26,7061.10
3007500,1072.97,416.62,1.00,1,1,1,6988.08,0.41,485849.93,4547.04,0.01,182713.52,1619.57,0.00,22527.17,859.93,0.12,15974.31,471.96,0.06,11127.10
3022300,1113.66,379.10,1.00,1,1,1,3740.10,-0.74,435362.08,1329.20,-0.61,239993.52,1474.85,-0.44,46579.15,749.77,-0.24,20351.44,673.42,0.03,13655.82
3043400,1112.11,389.32,1.00,1,1,1,490.31,1.72,195933.68,1776.62,-2.41,115947.99,364.75,-1.71,66899.21,1031.14,-0.37,14521.56,495.44,-0.41,14601.88
3057400,1067.39,337.28,1.00,1,1,1,4900.78,-2.28,373839.62,1522.10,3.04,96881.66,686.62,-2.96,47638.31,1299.80,0.28,56324.23,793.20,0.25,35923.83
3071400,1069.70,393.55,1.00,1,1,1,4022.16,1.53,602392.00,1188.18,1.47,137718.82,887.01,-1.49,76089.13,520.14,-0.08,59510.67,583.03,-0.05,20727.80
3086000,1070.66,371.11,1.00,1,1,1,1538.26,-1.53,380584.49,2139.65,-0.91,213221.35,1768.75,0.85,169150.12,505.08,0.22,10599.20,454.89,-0.35,13869.57
3107300,1116.76,332.84,1.00,1,1,1,2812.95,-0.69,99276.57,2465.30,0.63,150839.40,1004.16,0.22,53000.35,157.81,-1.78,27663.64,422.39,-0.04,6679.20
3122200,1142.88,423.53,1.00,1,1,1,6334.23,1.29,529811.28,1945.90,1.20,90083.11,1392.71,0.21,26090.41,739.23,0.76,58655.38,546.07,-0.01,8354.81
3150200,1146.95,410.66,1.00,1,1,1,481.89,-1.26,240742.70,1061.83,-0.56,85282.42,455.17,1.84,53232.67,330.67,-0.53,25736.97,183.14,-0.03,12964.57
3171500,1187.18,395.63,1.00,1,1,1,2016.19,-0.36,82660.69,1644.22,-2.31,99062.30,176.35,-1.47,29569.46,188.15,-0.85,7624.07,416.34,2.83,27913.14
3185900,1107.33,367.35,1.00,1,1,1,5882.44,-2.80,523562.80,1562.70,2.82,121136.44,844.77,-2.29,51146.77,386.43,1.94,39342.91,735.02,2.73,22485.97
3200400,1144.30,409.81,1.00,1,1,1,3882.58,0.85,652272.85,134.62,0.56,113934.34,1870.09,-2.72,79552.98,302.53,-1.68,46204.54,933.86,2.68,13950.83
3215200,1110.68,369.44,1.00,1,1,1,3549.89,-2.27,502163.62,2795.90,-2.33,197726.64,311.37,2.12,125512.82,111.75,2.91,22653.09,856.46,3.10,25841.33
3229400,1088.56,350.93,1.00,1,1,1,2031.18,-2.44,112200.15,575.93,2.31,203831.93,433.24,-1.76,48995.83,1247.51,3.03,80040.48,796.26,2.93,10939.13
3251000,1096.75,384.64,1.00,1,1,1,1606.19,1.33,160081.63,1115.94,0.48,64064.43,495.01,1.19,42770.10,1435.75,2.63,25961.58,846.34,2.85,3797.76
3279100,1137.87,376.33,1.00,1,1,1,1492.70,-0.20,76506.93,700.38,0.75,17125.29,1181.29,2.53,41835.34,1971.67,2.97,27791.51,873.30,-3.11,9914.80
3314200,1129.11,414.85,1.00,1,1,1,1125.44,1.79,62899.01,3044.63,2.86,98507.49,2259.23,2.68,31430.38,1791.16,3.03,6191.69,875.31,-3.04,1696.51
3328900,992.11,418.10,1.00,1,1,1,9322.05,3.12,619870.28,7825.89,2.86,325256.83,3546.70,2.87,95250.50,1565.90,2.87,23815.62,1439.03,3.12,39494.69
3343300,910.32,478.06,1.00,1,1,1,7042.53,2.51,372611.18,4053.07,2.88,262101.79,4266.55,-3.11,95607.89,1385.15,3.04,21077.40,1180.31,3.03,19817.24
3378300,798.76,470.10,1.00,1,1,1,3195.63,-3.07,144263.55,2785.87,-2.57,85788.66,2203.39,3.10,59271.47,1691.90,3.01,8884.68,894.88,-3.09,9498.97
3392600,794.79,403.79,1.00,1,1,1,4645.26,-1.63,369456.09,1791.86,-1.12,219022.87,1081.52,-2.18,129881.64,1753.60,-3.02,31739.76,755.63,2.97,16090.41
3406600,821.03,424.54,1.00,1,1,1,2389.33,0.67,463310.56,2352.03,0.07,169300.52,1307.58,-0.72,114349.25,1639.89,-3.09,12363.21,797.09,2.92,3944.55
3421300,862.11,408.84,1.00,1,1,1,2991.60,-0.37,184444.39,1169.10,-0.25,88253.24,1324.35,-0.24,42652.54,1170.72,-2.79,43043.53,880.76,3.06,9752.64
3443300,862.63,414.02,1.00,1,1,1,236.64,1.47,139190.82,834.87,-0.99,35925.12,1114.68,-2.93,108027.17,659.81,-0.91,68375.18,1021.68,3.10,6593.20
3458000,878.93,383.23,1.00,1,1,1,2370.02,-1.08,174858.62,2987.71,-3.08,236448.52,1527.28,3.13,34662.24,537.64,0.09,39909.72,1153.88,-3.04,13688.26
3486400,734.14,405.52,1.00,1,1,1,5158.40,2.99,240940.83,3028.57,2.96,26221.68,253.75,-1.87,51972.13,174.92,-0.80,15817.56,99.88,2.06,39404.22
3508200,729.40,410.72,1.00,1,1,1,322.46,2.31,225301.85,3436.81,-0.09,296242.04,364.58,1.83,27306.87,288.90,-3.09,19477.60,461.38,-1.17,25727.67
3522200,856.71,394.89,1.00,1,1,1,9163.85,-0.12,672227.37,5081.40,0.00,120312.74,1623.79,0.01,124967.86,320.89,-2.59,10903.47,1068.23,-0.16,65125.93
3536200,871.68,410.81,1.00,1,1,1,1560.22,0.82,595639.98,754.96,2.58,409503.41,1585.08,-0.05,6737.22,559.26,-3.14,23516.52,1331.06,0.08,27933.93
3550700,838.54,406.42,1.00,1,1,1,2305.23,-3.01,251719.74,1742.40,-3.06,84644.81,520.07,-2.99,144681.62,1706.84,0.16,155941.97,1106.08,0.10,15627.47
3565700,820.45,406.61,1.00,1,1,1,1206.26,3.13,74954.84,614.67,-2.32,90221.57,1189.52,-2.78,46054.16,1768.84,-0.26,47849.16,580.07,-0.10,36765.77
3587400,823.17,389.90,1.00,1,1,1,780.19,-1.41,71195.09,890.95,-2.32,12732.21,1798.72,0.27,137552.06,1713.50,0.10,28662.97,694.64,-0.14,5389.57
3602300,798.23,382.74,1.00,1,1,1,1741.74,-2.86,122346.13,3762.82,0.34,306805.33,1941.51,-0.38,80263.05,2047.68,0.08,22640.22,627.41,-0.13,4535.54
3631000,977.82,444.68,1.00,1,1,1,6619.13,0.33,291253.05,3933.13,-0.20,71525.89,3558.86,0.11,71571.78,2015.65,0.16,6237.80,1187.79,-0.03,19739.32
3645300,964.05,349.50,1.00,1,1,1,6724.63,-1.71,796722.02,3594.87,-0.19,23673.00,4323.03,0.13,53889.59,1275.98,-0.08,58308.77,1414.73,0.03,16980.51
3666300,1102.33,420.18,1.00,1,1,1,7394.81,0.47,597380.45,4967.09,0.36,127568.02,2255.39,0.08,98774.15,1493.25,-0.03,10838.85,968.04,0.02,21284.66
3695200,1196.27,436.16,1.00,1,1,1,3297.19,0.17,150929.26,1500.00,0.64,122893.26,937.55,0.44,48969.66,1621.00,-0.09,5627.64,952.02,-0.01,991.18
3709500,1154.30,458.89,1.00,1,1,1,3337.97,2.65,438596.36,3077.49,-2.83,316238.74,464.68,-2.11,94264.00,812.32,-0.40,61675.19,873.02,-0.11,8507.92
3745400,1049.08,389.23,1.00,1,1,1,3514.95,-2.56,98327.81,2122.68,-2.35,43461.43,1827.49,-2.56,39668.67,1251.35,0.37,24446.54,1073.60,-0.02,6036.52
3759500,1080.07,383.03,1.00,1,1,1,2241.35,-0.20,378984.37,1444.79,-0.88,173096.03,992.81,-2.25,66172.01,319.69,-0.41,74377.31,1034.90,0.09,8799.69
3774100,1075.55,357.31,1.00,1,1,1,1788.57,-1.74,194144.60,639.56,0.44,97816.71,1749.16,0.32,180830.48,321.66,-2.51,38116.48,1068.59,0.01,6421.08
3795200,1100.70,392.81,1.00,1,1,1,2061.82,0.95,178057.01,2961.50,0.70,111317.18,1099.49,0.25,31168.71,545.88,-1.97,15000.11,556.60,-0.36,27719.36
3809200,1155.02,424.32,1.00,1,1,1,4485.29,0.53,196211.32,1698.19,0.15,124968.90,1533.41,0.55,42011.49,827.01,0.08,84406.30,529.87,0.17,20371.43
3823700,1148.53,400.23,1.00,1,1,1,1720.43,-1.83,402303.04,549.04,-1.31,119041.62,318.12,-0.73,101792.12,538.51,0.48,27114.53,156.64,-0.65,30222.76
3838200,1159.18,408.95,1.00,1,1,1,949.46,0.69,176056.85,749.11,-2.45,49720.42,358.58,-1.12,9336.48,480.25,0.39,5175.83,164.70,-3.00,20427.46
3874300,1119.41,375.97,1.00,1,1,1,1431.36,-2.45,65950.22,262.22,-0.89,21873.08,234.42,1.57,16018.29,266.13,-0.24,8499.08,1222.75,-3.03,29311.02
3889100,1167.56,398.56,1.00,1,1,1,3593.63,0.44,337305.95,1801.19,0.97,127975.64,343.78,-2.18,37372.67,396.30,-2.14,36762.35,981.76,2.98,26172.87
3903100,1148.61,418.85,1.00,1,1,1,1982.86,2.32,329115.45,819.13,-2.64,182773.27,311.74,0.41,45023.15,87.07,-2.37,22305.27,1081.95,2.98,7156.31
3924300,1142.31,384.64,1.00,1,1,1,1640.85,-1.75,152822.13,1037.00,-1.87,34071.81,762.66,-2.66,50654.17,153.61,2.05,9299.67,1152.44,2.98,3350.04
3938400,1137.76,383.89,1.00,1,1,1,327.32,-2.98,110693.63,693.11,-2.70,54416.12,454.21,-1.89,38406.89,2526.03,3.01,173138.17,915.97,3.05,17434.53
3952500,1124.60,376.36,1.00,1,1,1,1074.75,-2.62,55064.51,283.87,1.33,63706.67,712.85,1.43,82457.40,2805.21,3.05,21129.94,1078.21,3.13,12740.10
3966300,1139.62,391.58,1.00,1,1,1,1549.57,0.79,188463.94,1656.38,1.15,99891.81,5322.13,3.04,391093.95,2423.17,3.09,28924.85,1007.15,-3.12,5882.48
3987600,1148.60,429.32,1.00,1,1,1,1821.08,1.34,44351.18,9456.37,3.06,476093.95,4579.81,2.98,37885.25,2657.41,3.07,11252.53,1191.50,3.14,8749.81
4002500,798.34,418.25,1.00,1,1,1,23518.92,-3.11,1614791.11,8794.15,3.13,58888.73,3877.46,3.02,48947.67,1989.21,3.03,45309.96,1380.29,-3.14,12685.16
4030300,773.13,434.89,1.00,1,1,1,1086.68,2.56,814391.18,780.69,2.75,290463.49,4511.09,-3.10,32853.35,1821.98,2.97,7253.50,1006.05,2.96,15558.11
4067000,751.90,437.70,1.00,1,1,1,583.64,3.01,16807.56,1022.52,-2.70,20774.84,302.10,-0.01,131141.74,1753.41,3.14,8254.23,990.40,2.99,886.64
4081400,725.78,412.80,1.00,1,1,1,2505.81,-2.38,151916.06,2679.39,-0.26,244913.53,436.73,-0.14,9920.40,2160.61,-3.09,29275.96,1212.49,3.08,16975.17
4095800,826.53,418.08,1.00,1,1,1,7005.86,0.05,628868.37,2049.11,0.18,83485.78,1059.42,-0.56,47618.39,605.89,-2.70,112172.26,1177.65,3.12,3753.19
4125300,814.23,429.21,1.00,1,1,1,562.12,2.41,251293.50,503.73,-1.70,76410.65,616.46,-0.07,20180.71,612.39,0.18,40955.04,662.19,2.79,20011.64
4146700,823.31,392.65,1.00,1,1,1,1760.29,-1.33,105079.81,1239.95,-2.68,49008.14,1637.69,-2.80,103576.33,747.69,0.25,6733.26,766.91,3.00,8551.48
4160900,774.69,409.59,1.00,1,1,1,3626.05,2.81,339412.11,4176.55,-2.99,212425.39,923.37,0.40,180298.51,351.97,-0.14,31286.38,173.44,-1.34,59529.73
4175800,703.26,373.71,1.00,1,1,1,5364.66,-2.68,258559.59,3550.15,0.42,513945.44,1300.65,1.18,61724.57,357.08,-2.61,44907.66,1187.41,-0.09,76813.54
4190200,869.47,452.44,1.00,1,1,1,12771.89,0.44,1259413.02,5822.56,0.54,162183.13,66.94,-1.18,93685.17,946.37,0.13,89068.45,1343.51,-0.15,12091.92
4205700,852.29,463.70,1.00,1,1,1,1325.28,2.56,871613.84,2864.08,-2.67,560066.74,1246.48,0.23,79818.30,744.88,0.35,17532.36,1624.32,-0.10,18720.58
4226600,776.37,405.52,1.00,1,1,1,4576.42,-2.49,206864.62,2880.44,-2.35,45038.59,1031.78,-0.11,20886.20,2981.31,-0.08,111213.64,1590.52,-0.08,2522.86
4240600,781.96,391.87,1.00,1,1,1,1053.74,-1.18,315629.42,5737.99,0.24,594800.75,1091.62,-0.61,37830.30,3270.03,0.02,31095.72,1357.37,0.01,18720.75
4255300,936.23,445.07,1.00,1,1,1,11101.09,0.33,754524.07,4543.22,0.25,81282.28,6001.32,-0.07,346663.87,2203.94,-0.25,88042.90,1507.89,-0.07,12469.15
4269500,909.33,423.75,1.00,1,1,1,2417.38,-2.47,944051.32,6597.66,-0.29,249960.14,4955.30,-0.02,76371.70,2489.53,-0.20,21954.63,1699.87,0.10,23522.33
4290800,1160.68,378.14,1.00,1,1,1,11993.11,-0.18,643646.69,5327.74,-0.15,71594.87,3183.04,-0.29,97183.47,2849.01,-0.07,23434.61,1540.71,-0.01,11414.61
4319600,1173.36,384.58,1.00,1,1,1,493.79,0.47,402903.24,383.58,-0.27,171787.58,3606.84,-0.11,25874.68,3044.01,0.07,15147.16,1756.34,0.04,7972.41
4334100,1176.67,373.64,1.00,1,1,1,787.76,-1.28,68984.70,1258.97,0.13,63325.14,281.32,-0.01,229454.95,2040.43,-0.15,78422.40,1022.26,-0.32,60591.33
4355700,1218.44,390.35,1.00,1,1,1,2082.86,0.38,106006.96,213.10,0.62,49785.01,884.17,0.68,31895.29,2535.32,0.04,30604.44,1209.94,-0.14,12901.42
4369600,1182.85,378.01,1.00,1,1,1,2710.29,-2.81,344738.70,1053.12,1.59,68354.91,869.83,0.52,10133.49,407.04,0.43,155655.13,1289.79,-0.07,8633.30
4384100,1217.85,420.25,1.00,1,1,1,3783.63,0.88,431786.15,1672.46,0.50,104065.11,1288.71,0.71,32317.57,254.78,0.22,11432.29,1116.82,-0.08,11970.06
4398700,1225.54,401.36,1.00,1,1,1,1396.90,-1.18,315820.54,2026.52,0.32,32860.86,568.75,0.64,49530.90,141.00,-1.91,24060.27,626.09,-0.43,39013.26
4413900,1275.09,439.50,1.00,1,1,1,4113.54,0.66,308085.95,139.27,2.60,139441.70,359.77,-1.87,58220.47,138.21,1.42,18289.06,923.51,-0.23,21958.62
4449600,1219.47,405.01,1.00,1,1,1,1833.35,-2.59,166398.51,1608.22,-2.52,43628.41,749.84,-2.42,13467.34,116.96,3.07,5273.87,148.63,2.26,29291.08
4464100,1209.25,392.79,1.00,1,1,1,1098.86,-2.27,59465.72,1481.87,-2.33,22401.30,598.33,-2.66,15291.07,720.68,-2.64,43166.06,620.26,2.93,35251.74
4499200,1168.85,351.71,1.00,1,1,1,1641.26,-2.35,15759.70,458.96,0.99,55134.12,774.36,-2.71,5078.70,720.28,-2.83,3976.32,742.56,2.98,3620.16
4514100,1221.83,411.98,1.00,1,1,1,5385.15,0.85,471439.10,969.11,1.73,47163.29,1218.18,-2.85,31185.43,628.70,-2.31,24141.37,1035.28,-3.07,24076.33
4528100,1164.36,379.36,1.00,1,1,1,4720.34,-2.63,711856.68,4026.19,-2.72,312759.43,898.80,2.91,44988.42,569.72,3.04,38796.89,952.88,-3.06,5967.03
4542400,1117.95,365.16,1.00,1,1,1,3393.56,-2.84,111166.19,1507.73,-2.87,178146.10,764.07,-1.95,76192.34,1375.86,3.00,56437.13,870.53,-3.04,5856.48
4564000,1112.16,365.04,1.00,1,1,1,268.44,-3.12,145197.18,1650.03,-0.10,143671.56,620.05,2.34,53928.53,1580.03,2.87,12545.51,979.46,-3.10,5613.69
4592200,1199.68,356.57,1.00,1,1,1,3118.01,-0.10,120028.13,1245.10,1.21,63737.83,1696.52,2.71,40462.13,2230.72,-3.00,35407.55,1060.60,-3.07,3079.34
4606200,1130.72,414.20,1.00,1,1,1,6418.87,2.45,654531.50,6338.49,2.83,465528.70,2145.91,2.86,38184.53,1887.68,-3.05,25289.17,1100.74,-3.10,3596.90
4627500,986.84,425.60,1.00,1,1,1,6776.19,3.06,188805.20,5004.29,-3.13,106957.23,4570.07,3.10,119139.34,1129.26,2.98,39822.10,950.26,2.63,27281.68
4642100,951.09,411.37,1.00,1,1,1,2635.41,-2.76,312559.36,3412.66,-2.51,203255.13,3770.19,-2.89,99675.50,1327.70,3.02,14061.31,2463.69,1.97,123824.34
4656000,908.34,368.18,1.00,1,1,1,4372.11,-2.35,159927.34,2812.25,-2.32,60679.91,748.71,-2.40,224926.82,1986.80,2.91,49091.66,4665.00,-3.00,336567.48
4670100,897.54,353.63,1.00,1,1,1,1284.47,-2.21,220274.77,1351.83,0.53,292501.13,551.00,-2.42,14048.89,1691.38,-3.04,47810.48,4453.03,-2.88,40271.02
4692400,950.86,392.94,1.00,1,1,1,2970.30,0.64,189026.69,1198.19,0.91,22697.60,961.80,0.85,67709.38,795.24,1.85,77759.72,3553.91,2.66,134676.43
4706500,924.36,388.03,1.00,1,1,1,1911.27,-2.96,337824.71,770.91,1.61,55823.96,465.23,1.78,55324.31,4132.53,1.67,237859.36,3509.75,2.55,27268.94
4721300,949.97,415.20,1.00,1,1,1,2522.84,0.82,285067.60,805.41,3.09,71948.62,1817.00,1.54,92517.15,6856.79,-3.00,551108.27,3766.68,2.56,17392.12
4749300,889.93,389.68,1.00,1,1,1,2329.91,-2.74,169633.51,2432.77,1.53,91371.85,7784.19,1.62,213397.40,6686.91,-2.85,37651.51,3593.21,2.62,10435.30
4770500,955.06,534.78,1.00,4,4,4,7502.25,1.15,440885.41,16995.18,1.57,687005.89,12234.56,-2.96,721937.10,5737.69,2.61,239653.70,3282.97,2.41,37508.38
4785200,892.35,999.81,1.00,4,4,4,31920.59,1.70,1758728.74,26946.03,-2.86,2425049.65,12904.33,-2.81,136737.14,5467.59,2.46,58433.50,2929.12,2.29,34143.65
4813600,-161.35,214.75,1.00,4,4,4,46267.33,-2.50,2386043.38,28624.68,-2.40,455191.07,9915.01,2.74,302201.41,5176.05,2.46,10269.38,3028.24,2.35,7245.91
4835100,-157.73,31.51,1.00,4,4,4,8524.53,-1.55,1948297.47,14611.25,1.19,1965696.98,7538.29,-3.11,205027.32,5590.84,2.47,19366.14,3067.65,2.25,14712.38
4863400,105.86,891.56,1.00,4,4,4,31785.48,1.27,1412487.45,23719.30,1.21,322039.07,10277.31,1.10,544919.55,5664.11,2.48,2993.15,2704.32,2.39,19149.15
4877600,196.24,975.40,1.00,4,4,4,8681.42,0.75,1736833.39,4690.32,0.66,1400413.25,12583.16,1.23,193987.69,3361.15,3.01,228921.28,2781.91,2.30,19220.65
4898600,236.54,992.45,1.00,4,4,4,2084.13,0.40,321873.98,761.78,-2.66,259151.84,3785.37,0.92,431201.65,6076.65,1.10,373897.13,2119.55,1.92,53656.12
4913600,171.95,962.65,1.00,4,4,4,4742.15,-2.71,455036.00,3234.86,1.39,250348.59,3074.04,0.50,105878.32,8094.13,1.16,137012.13,2065.97,1.61,42305.37
4927900,254.04,1085.60,1.00,4,4,4,10338.31,0.98,1020522.52,7936.23,0.50,447992.20,594.48,1.19,184913.83,1655.75,0.35,493098.09,1890.79,1.21,56520.18
4942000,370.04,1070.18,1.00,4,4,4,8298.85,-0.13,709603.78,1599.86,-1.63,629935.39,2843.66,0.75,164549.19,1132.40,0.43,37982.29,1563.52,-1.32,233796.71
4963700,250.83,1028.42,1.00,4,4,4,5820.78,-2.80,633410.21,1905.83,2.90,124756.29,1710.58,-0.98,163526.72,3377.59,0.13,106996.55,4207.52,0.32,211147.31
4977400,304.56,1086.46,1.00,4,4,4,5773.61,0.82,821344.43,2215.97,-0.62,295713.82,468.59,-2.35,122640.67,4836.28,0.09,107141.46,4429.95,0.27,22446.28
5006900,329.00,973.16,1.00,4,4,4,3929.00,-1.36,293210.38,1322.38,-0.83,32664.30,5944.52,0.06,213578.95,6261.05,-0.02,52375.24,3550.67,-0.54,109405.39
5021300,343.90,1043.77,1.00,4,4,4,5011.05,1.36,607375.73,11181.70,0.21,733842.51,7057.61,-0.11,108112.43,5742.37,-0.69,275931.02,3363.57,-0.64,28746.49
5042500,718.48,1055.43,1.00,4,4,4,17677.37,0.03,811060.48,14569.53,-0.04,217303.69,12808.94,0.11,289409.75,6087.07,-0.51,51793.37,3570.80,-0.66,10267.32
5056900,862.22,1024.57,1.00,1,1,1,10209.54,-0.21,565628.40,14899.45,0.03,71775.78,12823.86,-0.64,659306.88,7256.82,-0.76,138495.00,3555.37,-0.60,16145.13
5071800,1154.84,1068.30,1.00,1,1,1,19857.19,0.15,732270.39,17154.49,-1.27,1310124.75,8348.47,-0.99,385895.56,6192.27,-0.75,71551.04,3281.29,-0.83,55880.12
5086200,1009.39,543.97,1.00,1,1,1,37786.65,-1.84,3425101.78,13642.81,-1.86,661155.38,10581.18,-1.27,235233.73,5892.86,-0.79,28351.32,3005.77,-0.92,27161.83
5107700,1014.94,598.93,1.00,1,1,1,2569.13,1.47,1875399.74,5217.57,-1.25,457743.53,9163.57,-1.81,256453.75,5155.56,-1.10,86355.03,3280.04,-0.76,26115.92
5122100,1068.79,366.33,1.00,1,1,1,16580.00,-1.34,1321532.68,5435.14,-1.72,172786.72,1932.51,-1.49,511175.11,4389.67,-1.29,80443.95,3294.27,-0.71,11181.74
5150400,980.93,369.35,1.00,1,1,1,3106.35,3.11,623369.70,710.72,-2.81,181812.94,3016.79,-1.32,40977.46,4395.59,-1.81,80240.43,3160.38,-0.65,8216.48
5186200,1025.74,351.41,1.00,1,1,1,1348.29,-0.38,122861.66,2245.65,-0.38,78836.37,153.02,-2.55,82970.59,1400.18,-1.77,83720.83,3231.92,-0.73,6949.92
5200600,1085.71,327.75,1.00,1,1,1,4476.60,-0.38,217245.20,1111.10,0.22,102001.30,660.41,-1.75,39234.37,1665.35,-1.62,24176.77,2025.37,-1.05,101267.86
5215000,1056.96,358.45,1.00,1,1,1,2920.32,2.32,501724.47,2374.74,-2.94,242059.36,1066.80,-2.46,49159.83,261.47,0.98,131538.09,964.29,-1.14,74148.85
5250700,969.09,304.18,1.00,1,1,1,2892.88,-2.59,103110.21,2262.00,-2.58,23489.86,1086.85,-2.97,15220.11,738.59,0.09,17059.48,1496.40,-2.72,50156.72
5265400,960.36,297.90,1.00,1,1,1,731.54,-2.52,147198.35,1133.33,0.26,228671.86,737.25,0.89,116632.32,470.95,0.46,23342.07,2245.92,3.13,74273.21
5279800,1000.96,312.66,1.00,1,1,1,2999.88,0.35,257582.32,5914.52,0.67,340004.51,2376.31,0.52,118678.78,1146.93,1.85,80585.53,3418.15,-3.02,85596.83
5294200,1093.86,403.70,1.00,1,1,1,9032.52,0.78,445989.68,3437.47,0.59,173900.35,2364.30,0.58,10675.09,2370.44,1.73,85962.00,2325.11,2.06,235108.23
5315200,1102.17,380.23,1.00,1,1,1,1185.54,-1.23,456795.13,683.07,-1.90,190484.92,2456.09,1.39,89731.89,4332.28,1.99,101297.91,1428.16,1.06,92969.17
5329200,1086.22,381.05,1.00,1,1,1,1140.40,3.09,138085.03,3227.83,2.07,266103.17,4154.77,1.86,161713.92,5052.26,2.78,261013.09,963.79,1.27,37194.33
5357900,1036.16,501.23,1.00,4,4,4,4536.21,1.97,145412.23,7452.51,1.82,153145.83,7928.70,2.24,151628.45,7475.04,3.00,96444.52,1312.99,1.40,13316.76
5379300,993.30,742.67,1.00,4,4,4,11458.80,1.75,331760.27,13558.46,2.29,357866.34,10370.70,2.93,308268.70,4872.89,2.11,270558.73,510.44,0.47,50841.43
5394000,715.08,870.65,1.00,4,4,4,20833.49,2.71,1164585.57,25399.42,-2.88,1560687.42,16951.08,-3.11,499001.87,2699.47,1.33,238932.75,1019.75,0.46,34650.52
5408100,286.50,554.19,1.00,4,4,4,37783.87,-2.51,2354211.61,30839.89,-2.66,588741.08,6157.18,2.34,966025.60,1576.77,1.46,81982.85,1099.10,0.21,19559.17
5422100,-51.55,466.56,1.00,4,4,4,24944.19,-2.89,1239252.72,18227.75,0.83,3456800.59,7796.55,-0.24,957945.23,1687.11,1.09,43924.18,831.42,0.28,19593.22
5443300,720.35,1026.89,1.00,1,1,1,44992.02,0.63,3246056.49,36393.56,0.23,1119792.76,10619.12,0.09,193988.99,2608.40,-0.99,176372.07,436.60,-0.18,22678.28
5457200,1193.45,752.53,1.00,1,1,1,39345.02,-0.53,3325890.86,13054.63,-0.79,2272798.59,14422.61,0.21,294821.94,4742.59,-0.70,170166.66,562.83,0.10,13601.36
5486200,1112.64,627.19,1.00,1,1,1,5142.59,-2.14,1376526.43,976.44,-2.55,457503.57,9666.43,-0.90,459010.75,6415.99,-0.19,113302.16,543.40,0.03,1427.12
5507500,1152.71,725.10,1.00,1,1,1,4966.93,1.18,472613.59,5938.41,-1.17,273860.33,4051.55,-1.46,309597.35,7894.37,-0.07,80144.74,975.34,-0.41,25253.78
5522300,1196.59,429.93,1.00,1,1,1,20163.02,-1.42,1659772.31,10451.82,-1.31,314374.48,3885.46,-0.99,125009.44,4800.54,-0.90,397918.26,1451.46,-0.99,55895.84
5536300,1229.74,434.11,1.00,1,1,1,2387.04,0.13,1446519.43,2437.83,-0.62,622187.36,4480.31,-1.30,102639.85,2116.82,-1.34,215213.52,2497.36,-0.66,87006.14
5566200,1283.55,367.56,1.00,1,1,1,2862.40,-0.89,86548.06,1082.92,-1.26,56579.98,673.51,-0.98,128718.02,1717.93,-1.02,24204.78,3064.87,-0.20,46267.54
5586900,1246.70,382.00,1.00,1,1,1,1912.36,2.77,223300.50,1074.63,2.94,89995.56,648.51,-0.64,10697.84,2394.86,-1.14,34739.12,3247.34,-0.07,21891.83
5615400,1231.72,377.99,1.00,1,1,1,543.98,-2.88,52961.21,829.33,0.47,63164.94,357.17,2.44,35270.59,404.91,-0.94,70165.06,2039.06,-1.53,127936.14
5629400,1278.11,397.98,1.00,1,1,1,3608.27,0.41,296234.53,866.40,0.30,10433.20,822.69,-0.00,79953.95,529.99,-0.27,23376.83,2006.61,-2.55,141367.62
5650400,1260.66,387.06,1.00,1,1,1,980.56,-2.58,218090.23,1024.93,-0.45,34026.39,42.50,0.13,37172.33,632.00,3.07,55044.57,1538.51,-2.56,22292.34
5665400,1311.28,381.80,1.00,1,1,1,3392.78,-0.10,280623.30,923.36,-2.82,120304.81,538.08,0.39,33138.04,2059.87,3.08,95191.15,1804.09,-2.44,22094.69
5680300,1234.45,378.37,1.00,1,1,1,5161.14,-3.10,572581.12,995.16,1.59,103900.18,1162.08,-2.95,113637.25,3745.62,3.07,113139.72,1614.15,-3.02,67577.05
5695200,1310.85,411.46,1.00,1,1,1,5587.89,0.41,709514.99,1416.93,-3.03,121499.82,5497.24,3.09,294007.85,4240.03,3.14,37734.02,1751.71,-3.11,13103.20
5709700,1193.06,373.65,1.00,1,1,1,8531.72,-2.83,972645.00,10025.20,-3.11,594089.85,7521.24,3.07,139713.82,3760.22,-3.10,35208.22,1913.11,3.11,13921.91
5731200,950.09,401.36,1.00,1,1,1,11374.48,3.03,233866.58,12569.15,3.06,132030.22,8202.61,-3.12,44878.81,3979.43,-3.12,11126.29,2078.70,-3.12,9279.47
5745400,745.94,411.42,1.00,1,1,1,14394.21,3.09,220416.26,6666.69,-3.13,419956.29,5573.07,-3.12,185179.03,3640.57,-3.13,23936.16,1849.29,3.10,18323.55
5773900,665.43,398.91,1.00,1,1,1,2858.74,-2.99,407327.03,1117.27,-2.12,215570.51,2735.71,-3.00,100866.04,4275.57,3.13,22406.67,1866.25,-3.11,4542.65
5795200,716.66,364.11,1.00,1,1,1,2907.64,-0.60,251865.43,2173.93,-0.36,123527.47,640.83,-2.26,108224.58,3140.81,3.12,53358.87,1744.30,3.09,9264.34
5809500,737.93,371.82,1.00,1,1,1,1582.00,0.35,164983.19,326.94,1.84,166434.11,638.21,0.42,87092.57,2114.30,-3.03,75912.45,1902.71,3.09,11103.73
5823200,714.24,372.94,1.00,1,1,1,1730.73,3.09,237113.49,2010.83,2.25,125298.62,337.88,1.29,35923.72,304.71,-2.86,132445.22,1786.22,3.14,10689.35
5837500,702.45,415.54,1.00,1,1,1,3091.53,1.84,212313.41,405.40,0.96,135650.53,1368.18,-3.09,105804.00,247.72,-0.48,35887.08,2081.24,-3.13,20757.11
5859500,722.71,384.98,1.00,1,1,1,1666.80,-0.99,213849.38,1948.00,-2.40,106603.05,363.43,2.09,56632.61,347.75,1.24,20772.15,1431.57,3.05,30681.68
5874400,649.25,367.21,1.00,1,1,1,5071.96,-2.90,392863.60,605.46,2.62,124370.95,352.41,-1.60,46242.98,241.59,1.55,9304.60,779.19,3.06,43793.23
5903300,699.69,398.15,1.00,1,1,1,2047.50,0.55,243884.73,839.59,0.24,46539.60,354.98,1.21,24137.88,306.08,3.03,12909.09,184.80,-2.67,21773.45
5938500,701.54,379.96,1.00,1,1,1,519.30,-1.47,65925.85,789.49,0.47,5600.33,1073.06,0.44,24257.35,348.49,-2.90,3437.85,181.05,0.61,10367.59
5952600,734.32,415.92,1.00,1,1,1,3450.74,0.83,270695.98,1689.12,0.68,65921.47,449.09,-2.69,107953.24,188.81,1.18,34353.33,1134.90,0.08,69720.99
5966700,738.67,409.79,1.00,1,1,1,532.73,-0.95,255420.35,1685.06,-2.68,237933.38,807.81,2.81,41412.14,451.90,0.75,20631.16,1051.58,-0.06,12476.91
6002000,659.83,378.77,1.00,1,1,1,2400.30,-2.77,73112.58,1945.72,-3.05,20156.30,14.76,-0.99,23216.97,93.78,-2.02,15307.44,1172.28,-0.12,3922.48
6016700,641.82,400.58,1.00,1,1,1,1923.75,2.26,174756.44,2875.46,0.45,323041.81,437.55,2.83,30552.24,364.60,1.39,31004.15,1454.10,-0.10,19216.39
6031000,734.96,414.95,1.00,1,1,1,6589.88,0.15,542113.93,2296.36,0.30,48612.65,520.43,0.17,65146.95,2158.04,-0.06,150147.50,1675.47,0.03,21688.14
6045800,705.68,420.26,1.00,1,1,1,2010.27,2.96,575358.00,1449.15,-2.51,249758.96,1179.18,0.41,46421.69,2081.36,-0.17,15846.00,1748.36,0.00,6149.54
6066800,693.09,384.31,1.00,1,1,1,1813.99,-1.91,118465.16,340.10,1.13,83624.11,4307.20,-0.06,157342.52,3019.43,-0.12,45096.86,1541.88,-0.05,10750.18
6080600,710.79,430.94,1.00,1,1,1,3614.21,1.21,393318.72,8897.23,0.03,633918.69,4424.67,-0.18,38885.64,3693.18,-0.06,50505.79,1779.67,0.05,21080.15
6109400,1071.99,394.00,1.00,1,1,1,12607.30,-0.10,423151.50,7440.05,-0.21,84092.80,5106.06,-0.14,24607.23,3605.98,-0.02,6070.16,1560.73,-0.09,11256.98
6130700,1075.13,352.23,1.00,1,1,1,1966.30,-1.50,582778.17,1906.40,-1.32,319416.40,5853.23,-0.14,35081.28,3393.88,-0.10,16326.61,1548.19,0.02,8414.15
6145100,1088.92,328.08,1.00,1,1,1,1931.68,-1.05,59651.51,3268.35,0.16,251516.76,2758.95,0.05,221461.08,3352.32,-0.02,18614.53,1728.39,-0.00,12807.12
6159500,1168.13,366.77,1.00,1,1,1,6121.43,0.45,437435.32,6228.50,0.44,224130.27,2108.92,0.12,46644.18,3480.54,-0.05,11368.77,1963.78,-0.01,16380.66
6173400,1248.32,403.33,1.00,1,1,1,6340.55,0.43,19777.77,1177.97,0.05,371107.92,1458.01,0.50,66908.36,917.22,-0.17,185044.34,1525.83,-0.04,31765.07
6195200,1210.12,368.92,1.00,1,1,1,2358.14,-2.41,395353.78,2303.16,-2.77,157875.64,863.91,0.75,30022.12,1081.77,0.44,28688.79,3393.88,-0.10,85896.04
6209400,1171.01,373.36,1.00,1,1,1,2772.28,3.03,150737.04,1246.33,1.61,208214.32,689.98,-2.53,109176.26,577.92,0.62,36884.29,3352.32,-0.02,18876.70
6223900,1208.86,404.67,1.00,1,1,1,3387.34,0.69,391275.92,711.82,-0.06,103149.19,634.70,1.45,83569.85,446.11,0.39,12330.99,3480.54,-0.05,11290.37
6254100,1202.76,371.32,1.00,1,1,1,1122.74,-1.75,142642.56,322.70,1.09,21614.77,185.79,2.90,21231.16,265.54,-2.93,23481.94,917.22,-0.17,85169.42
6275400,1216.50,419.43,1.00,1,1,1,2348.99,1.29,162822.40,1318.15,3.02,68686.27,289.16,-0.43,22203.85,634.70,1.45,35920.41,1081.77,0.44,29362.24
6289400,1156.56,376.86,1.00,1,1,1,5251.35,-2.52,516830.09,729.55,-0.99,133876.78,267.19,1.46,32207.64,185.79,2.90,45798.65,577.92,0.62,37411.20
6318100,1233.66,393.43,1.00,1,1,1,2747.86,0.21,273565.19,1029.56,0.34,38618.30,729.55,-0.99,33129.76,289.16,-0.43,16478.81,446.11,0.39,6229.94
6339500,1205.21,394.00,1.00,1,1,1,1329.95,3.12,189427.66,1329.95,3.12,108514.45,1029.56,0.34,51791.84,267.19,1.46,21070.42,265.54,-2.93,33138.07
