@RELATION gaze_labels

%@METADATA width_px 1920
%@METADATA height_px 1080
%@METADATA width_mm 540.00
%@METADATA height_mm 254.00
%@METADATA distance_mm 620.00


@ATTRIBUTE time INTEGER
@ATTRIBUTE x NUMERIC
@ATTRIBUTE y NUMERIC
@ATTRIBUTE confidence NUMERIC
@ATTRIBUTE handlabeller1 INTEGER
@ATTRIBUTE handlabeller2 INTEGER
@ATTRIBUTE handlabeller_final INTEGER
@ATTRIBUTE speed_1 numeric
@ATTRIBUTE direction_1 numeric
@ATTRIBUTE acceleration_1 numeric
@ATTRIBUTE speed_2 numeric
@ATTRIBUTE direction_2 numeric
@ATTRIBUTE acceleration_2 numeric
@ATTRIBUTE speed_4 numeric
@ATTRIBUTE direction_4 numeric
@ATTRIBUTE acceleration_4 numeric
@ATTRIBUTE speed_8 numeric
@ATTRIBUTE direction_8 numeric
@ATTRIBUTE acceleration_8 numeric
@ATTRIBUTE speed_16 numeric
@ATTRIBUTE direction_16 numeric
@ATTRIBUTE acceleration_16 numeric

%The number after speed, direction denotes the step size that was used for the calculation.
%Acceleration was calculated between two adjacent samples of the already low pass filtered velocity

@DATA
0,322.16,434.52,1.00,4,4,4,0.00,0.00,0.00,3266.50,2.12,0.00,2339.49,1.73,0.00,5221.60,2.06,0.00,4130.97,1.18,0.00
14800,297.00,475.79,1.00,4,4,4,3266.50,2.12,220709.63,2339.49,1.73,95460.94,7190.51,1.40,340350.44,5255.55,3.13,359324.13,4453.83,1.05,43161.82
36300,308.68,518.36,1.00,4,4,4,2053.23,1.30,110947.39,7190.51,1.40,234287.74,5221.60,2.06,206786.07,3306.09,2.75,115733.67,4811.83,0.83,50568.48
50600,341.30,729.37,1.00,4,4,4,14931.18,1.42,901647.80,9050.81,2.17,442294.16,5255.55,3.13,371887.91,830.99,-2.63,200367.25,4953.35,0.50,112644.40
65200,162.05,734.96,1.00,4,4,4,12283.38,3.11,1401223.15,15905.48,-2.57,1242214.39,3306.09,2.75,170429.72,4130.97,1.18,329469.28,6368.97,0.36,110548.61
79300,-41.94,481.37,1.00,4,4,4,23082.24,-2.25,1311966.30,4078.00,-1.93,912861.98,830.99,-2.63,203209.34,4453.83,1.05,45304.61,7250.11,0.54,104789.75
100700,111.72,599.22,1.00,4,4,4,9049.45,0.65,1492813.16,7859.54,0.58,533127.30,5845.41,0.57,311917.68,4811.83,0.83,50804.78,5202.83,0.61,98213.61
129100,284.41,697.44,1.00,4,4,4,6995.37,0.52,81883.59,13517.13,0.72,205381.18,10288.14,0.71,160853.59,4953.35,0.50,56718.84,3450.26,0.02,106472.24
143700,547.70,983.62,1.00,4,4,4,26634.61,0.83,1375758.15,13779.85,0.81,81802.52,9973.50,0.57,96426.21,6368.97,0.36,110548.61,1483.16,0.27,140147.74
165300,629.08,1058.05,1.00,4,4,4,5105.76,0.74,997791.27,6396.20,0.19,430982.16,11896.26,0.50,96386.59,7250.11,0.54,68404.42,1161.07,0.24,15050.74
179900,774.87,1028.38,1.00,4,4,4,10190.78,-0.20,567634.51,11574.35,0.04,366327.49,7314.81,0.16,382366.17,5202.83,0.61,143956.93,1420.35,-0.03,29636.21
194500,966.80,1071.16,1.00,4,4,4,13467.86,0.22,402935.04,8496.72,0.12,218200.45,4147.85,-0.07,233020.14,3450.26,0.02,207110.39,1437.18,-0.46,41320.39
208300,1014.39,1057.70,1.00,4,4,4,3584.56,-0.28,757477.05,2178.66,-2.72,767984.32,808.65,3.11,359134.66,3275.59,-1.17,273614.02,1695.47,-0.52,20252.58
229900,896.40,1039.66,1.00,4,4,4,5526.27,-2.99,412645.28,8115.11,-3.05,282018.07,6724.72,-2.15,293767.47,3139.21,-1.54,55114.31,2193.92,0.00,52050.93
244400,722.74,1030.07,1.00,4,4,4,11994.33,-3.09,449351.13,12805.64,-2.03,756268.55,7312.38,-2.08,52371.69,3321.52,-1.64,26652.32,1803.82,-0.16,34912.81
258800,731.78,708.20,1.00,4,4,4,22360.79,-1.54,1742132.81,11093.07,-1.55,412814.66,5761.52,-2.05,108193.64,3701.58,-1.99,87775.39,1693.01,-0.56,48575.47
287700,732.98,549.85,1.00,1,1,1,5479.47,-1.56,584181.55,2629.19,-2.10,310093.87,5620.51,-1.54,99399.74,3938.82,-2.14,21159.74,1648.40,-1.29,41342.91
323700,645.37,561.07,1.00,1,1,1,2453.67,3.01,174939.10,892.33,-1.49,54685.77,1819.97,-1.58,105620.34,3494.84,-1.96,21607.75,1985.43,-1.47,13224.63
337800,736.72,505.30,1.00,1,1,1,7590.87,-0.55,700816.39,3107.59,-0.26,207969.27,1317.61,-2.40,94889.90,3038.70,-1.66,76380.47,2007.62,-1.69,31221.93
351900,730.12,538.77,1.00,1,1,1,2419.56,1.77,666525.65,2213.34,-2.73,357174.85,1013.04,-1.31,87980.82,1631.56,-1.62,100046.41,2079.66,-1.94,35579.74
387700,635.42,461.29,1.00,1,1,1,3417.67,-2.46,140588.18,1682.53,-2.44,21537.56,798.55,3.07,41332.52,419.90,-2.24,36661.15,1893.68,-1.51,23875.65
401900,665.81,484.53,1.00,1,1,1,2694.08,0.65,430347.55,2158.64,0.90,269230.70,1413.02,-1.68,112449.56,749.16,-1.16,46582.49,2025.65,-1.37,22262.59
416400,674.11,509.68,1.00,1,1,1,1826.41,1.25,108322.41,2674.26,-0.82,253583.54,1004.50,0.56,150500.77,601.30,-2.00,38873.75,2179.45,-0.93,63880.00
430700,718.19,428.07,1.00,1,1,1,6486.58,-1.08,549213.10,598.88,-0.72,145438.42,477.04,-0.79,70693.51,518.37,-1.56,17955.45,1332.70,-0.80,61121.86
452100,690.24,495.65,1.00,1,1,1,3417.40,1.96,462248.01,1286.66,2.29,87942.60,1332.20,-1.26,43659.85,2858.87,-0.04,134548.33,1391.17,-0.38,27048.95
466600,687.64,462.72,1.00,2,2,2,2278.14,-1.65,382402.32,2341.16,-1.42,240888.40,383.85,1.14,112911.34,2538.28,-0.20,37192.57,1559.16,-0.25,17433.42
482000,700.69,426.43,1.00,2,2,2,2503.93,-1.23,66889.41,982.33,-0.15,146500.60,4503.89,-0.14,286459.97,3195.55,-0.07,49018.58,1253.75,-0.33,21154.43
511200,730.97,456.20,1.00,1,1,1,1453.96,0.78,115782.39,6891.13,0.05,203142.49,4265.70,-0.15,8313.70,2127.38,-0.07,36582.40,1131.27,-0.31,4250.01
532700,1049.61,444.40,1.00,1,1,1,14830.98,-0.04,645259.90,8356.17,-0.15,99105.49,5516.23,0.11,83567.46,3144.02,-0.23,50785.74,1529.17,-0.12,21849.50
547000,1026.63,410.67,1.00,1,1,1,2854.25,-2.17,1155758.61,3219.25,0.35,402454.75,4643.34,-0.17,118050.54,2711.60,-0.03,50839.21,1638.93,-0.05,10721.37
561600,1136.92,476.55,1.00,1,1,1,8799.07,0.54,784354.82,201.76,-1.75,227864.92,1535.23,-0.56,224121.71,2633.77,-0.10,13960.38,1451.16,-0.20,20087.03
575600,1025.58,404.99,1.00,1,1,1,9453.54,-2.57,1303582.97,2400.09,-1.62,157169.64,1048.07,0.65,108389.94,2268.73,-0.07,26613.08,1048.67,-0.07,30832.32
596700,1132.98,392.40,1.00,1,1,1,5124.98,-0.12,654119.35,2001.91,0.70,191349.82,1616.96,-2.15,124526.16,303.17,-0.99,99440.41,1077.80,-0.19,6063.12
611600,1080.66,451.47,1.00,1,1,1,5295.79,2.30,653422.32,1801.91,-3.07,242635.86,533.29,0.75,143518.22,906.70,0.34,59253.19,523.70,-0.07,37680.02
626500,1079.41,388.77,1.00,1,1,1,4208.61,-1.59,594738.87,684.71,-2.51,85781.34,769.68,2.88,76993.12,397.56,-2.11,83084.20,165.03,2.10,42427.21
655100,1056.67,433.82,1.00,1,1,1,1764.42,2.04,203721.00,403.64,1.86,31643.17,871.54,0.08,56558.75,177.93,-0.05,17665.57,532.91,-3.14,16495.75
676400,1073.68,408.08,1.00,1,1,1,1448.42,-0.99,150584.17,2164.90,0.23,104520.95,456.93,0.92,31072.74,660.26,2.80,39069.70,1662.48,-3.14,53031.19
704900,1161.70,458.13,1.00,1,1,1,3552.99,0.52,131441.64,803.96,0.43,48705.73,305.36,-1.54,25307.99,1320.02,-3.14,25775.10,1628.67,3.07,4733.01
719300,1104.95,422.61,1.00,2,2,2,4649.02,-2.58,569459.83,2346.11,-2.66,218704.35,571.78,2.69,52870.79,2320.08,2.94,73745.34,1953.95,-3.07,28706.66
755100,1057.47,403.30,1.00,2,2,2,1431.89,-2.76,90720.24,1594.29,3.04,37813.95,3909.10,-3.12,95232.68,2987.84,3.10,22021.07,1581.52,-3.13,10805.74
769200,1025.85,431.06,1.00,3,3,3,2984.56,2.42,189427.27,7304.93,2.91,406117.12,5061.27,3.03,92478.93,3338.73,3.08,25275.57,1658.12,3.02,15779.53
783800,853.35,451.14,1.00,1,1,1,11894.50,3.03,656865.44,9880.38,3.02,188378.45,7697.09,3.04,180578.65,4349.75,-3.12,72456.77,1471.05,3.07,13932.61
805100,673.55,472.33,1.00,1,1,1,8499.82,3.02,159376.01,8094.70,3.13,94188.43,7373.68,3.12,33282.98,3786.24,3.12,27507.15,1723.87,2.93,15789.69
819200,566.83,455.24,1.00,1,1,1,7665.17,-2.98,168248.90,4459.76,-2.90,280026.07,4886.37,-3.13,177060.12,4044.55,-3.14,19847.81,1588.85,3.09,20752.26
833900,548.88,441.42,1.00,1,1,1,1541.01,-2.49,432224.48,1063.61,-2.87,231084.39,2204.09,-2.87,191110.16,2887.06,3.08,80090.14,1662.56,3.12,5809.05
848600,536.75,446.71,1.00,1,1,1,900.42,2.73,92425.20,382.23,-2.62,47541.47,964.51,-2.04,116480.40,1651.88,3.01,84754.32,2080.64,-3.04,32511.53
869300,537.15,434.69,1.00,1,1,1,580.88,-1.54,61057.49,1346.10,-1.52,58952.58,839.30,0.20,78444.91,977.75,2.92,33011.67,1945.43,-3.12,9842.36
883300,538.97,400.05,1.00,1,1,1,2477.64,-1.52,135493.23,1831.57,0.25,177534.73,949.55,0.47,19167.39,27.55,0.88,70757.05,1714.58,3.04,23446.07
912300,613.37,454.49,1.00,1,1,1,3179.01,0.63,171946.38,2166.58,0.88,43670.09,866.30,1.57,32624.78,231.49,-0.71,8053.68,1704.89,3.11,4403.05
933400,608.36,483.52,1.00,1,1,1,1396.28,1.74,134957.96,2535.26,2.58,167745.61,832.34,1.09,19102.94,411.30,-0.98,9388.00,930.87,3.08,36722.92
947800,537.37,502.69,1.00,1,1,1,5106.62,2.88,325877.94,1613.60,-2.57,164493.34,809.64,-2.42,112098.87,185.57,-1.68,20527.52,309.71,3.07,43139.08
962200,569.34,458.28,1.00,1,1,1,3800.63,-0.95,583622.18,3101.80,-1.15,226698.55,1629.06,-2.00,65973.04,517.41,0.76,46516.09,229.12,-2.54,13367.74
977000,574.05,419.88,1.00,1,1,1,2613.70,-1.45,132747.24,2088.48,-1.57,98526.26,1454.16,-1.60,42328.73,407.21,-2.94,60100.03,73.28,1.63,18515.79
991000,569.46,398.13,1.00,1,1,1,1587.90,-1.78,87460.39,1161.02,-2.86,149138.83,382.85,-0.29,100461.20,202.55,-2.48,17434.85,57.14,-1.96,9088.30
1012800,534.15,408.23,1.00,1,1,1,1684.81,2.86,109889.04,1599.90,1.15,115288.30,421.38,2.04,33900.87,369.11,-0.47,22476.31,171.55,-0.14,8884.15
1027300,593.22,451.12,1.00,1,1,1,5034.47,0.63,428699.67,1578.90,0.91,25695.38,878.32,1.33,42990.05,481.95,-2.53,50398.26,238.91,0.74,12674.34
1041500,561.79,444.14,1.00,1,1,1,2267.31,-2.92,505030.93,380.65,1.99,101246.04,1090.97,0.95,30108.15,321.60,2.12,42081.03,279.10,-2.56,36368.94
1071000,586.44,466.31,1.00,1,1,1,1123.86,0.73,111615.80,815.65,0.98,23501.00,1098.05,-2.75,71342.56,306.03,2.46,3617.95,282.16,-2.19,3566.88
1092200,584.85,478.47,1.00,1,1,1,578.24,1.70,43764.77,2467.84,-2.56,152562.88,255.16,2.21,50237.33,364.01,0.34,27542.84,186.86,-0.49,16872.52
1106800,512.43,418.06,1.00,1,1,1,6459.18,-2.45,464822.17,924.06,-2.76,107658.88,775.03,-2.57,54774.52,17.07,-1.82,25599.89,195.17,-1.73,15228.57
1135700,547.54,463.50,1.00,1,1,1,1986.88,0.91,291008.57,427.66,0.61,46514.84,645.26,-1.50,25423.73,233.73,-2.01,7508.51,35.93,1.58,7981.81
1157200,530.13,430.37,1.00,1,1,1,1740.86,-2.05,172730.49,1532.73,-0.72,69241.80,1086.45,0.36,65787.16,370.66,-2.04,6380.07,269.72,0.26,12235.99
1171200,588.45,427.62,1.00,1,1,1,4170.87,-0.05,368204.04,2281.31,0.28,139063.10,820.63,-1.60,113662.95,7.56,-1.33,26066.70,565.34,-0.21,24774.80
1185700,592.56,448.50,1.00,1,1,1,1467.64,1.38,290585.10,1569.91,-2.76,265271.56,598.83,-0.35,58667.37,349.32,-0.31,23821.70,545.64,-1.01,30076.78
1200300,546.10,410.50,1.00,1,1,1,4111.25,-2.46,364728.74,1454.06,-2.36,41762.12,759.47,1.64,78121.60,292.74,-0.89,13113.03,821.12,-0.50,30085.39
1214800,562.57,418.66,1.00,1,1,1,1267.50,0.46,369246.92,2115.99,1.04,244205.13,854.38,-2.18,105007.96,838.88,-0.09,46197.15,767.07,-0.99,27236.52
1236900,585.11,477.41,1.00,1,1,1,2847.30,1.20,94994.40,444.82,-1.70,114567.66,435.24,0.63,57635.04,870.28,-0.45,13956.94,791.53,-1.15,5466.56
1251300,560.46,402.56,1.00,2,2,2,5472.36,-1.89,577603.11,1128.86,-1.81,47781.44,1017.92,0.01,49221.56,1132.89,-1.00,41776.72,349.32,-0.31,42640.47
1279400,573.94,430.75,1.00,2,2,2,1112.00,1.12,234049.71,1842.23,0.19,89889.01,1986.34,-0.73,50362.98,1724.77,-0.35,38263.42,292.74,-0.89,6813.18
1300900,650.20,419.76,1.00,1,1,1,3583.63,-0.14,159102.29,3862.96,-0.42,120219.13,1925.04,-0.65,7748.39,1380.21,-0.76,33602.87,838.88,-0.09,31156.22
1315700,701.73,373.01,1.00,1,1,1,4700.84,-0.74,178932.88,3916.54,-1.30,222545.71,3531.72,-0.47,113099.78,1579.44,-1.15,40331.42,870.28,-0.45,20841.10
1329700,680.53,311.11,1.00,1,1,1,4673.42,-1.90,368082.14,3136.90,-0.54,193445.44,2562.51,-1.18,165014.31,1925.04,-0.65,65787.34,1132.89,-1.00,42970.34
1345200,781.07,325.38,1.00,1,1,1,6551.65,0.14,620672.91,1352.28,-0.85,122319.44,1614.73,-1.79,99398.69,3531.72,-0.47,107992.05,1724.77,-0.35,69367.87
1359500,707.05,280.77,1.00,1,1,1,6044.35,-2.60,863186.04,3251.31,-2.65,264846.55,1352.28,-0.85,95044.14,2562.51,-1.18,161552.47,1380.21,-0.76,50521.80
1380900,678.94,270.23,1.00,1,1,1,1402.45,-2.78,218339.46,1402.45,-2.78,87458.10,3251.31,-2.65,176976.90,1614.73,-1.79,71994.38,1579.44,-1.15,27892.76
