@RELATION gaze_labels

%@METADATA width_px 1920
%@METADATA height_px 1080
%@METADATA width_mm 540.00
%@METADATA height_mm 254.00
%@METADATA distance_mm 620.00


@ATTRIBUTE time INTEGER
@ATTRIBUTE x NUMERIC
@ATTRIBUTE y NUMERIC
@ATTRIBUTE confidence NUMERIC
@ATTRIBUTE handlabeller1 INTEGER
@ATTRIBUTE handlabeller2 INTEGER
@ATTRIBUTE handlabeller_final INTEGER
@ATTRIBUTE speed_1 numeric
@ATTRIBUTE direction_1 numeric
@ATTRIBUTE acceleration_1 numeric
@ATTRIBUTE speed_2 numeric
@ATTRIBUTE direction_2 numeric
@ATTRIBUTE acceleration_2 numeric
@ATTRIBUTE speed_4 numeric
@ATTRIBUTE direction_4 numeric
@ATTRIBUTE acceleration_4 numeric
@ATTRIBUTE speed_8 numeric
@ATTRIBUTE direction_8 numeric
@ATTRIBUTE acceleration_8 numeric
@ATTRIBUTE speed_16 numeric
@ATTRIBUTE direction_16 numeric
@ATTRIBUTE acceleration_16 numeric

%The number after speed, direction denotes the step size that was used for the calculation.
%Acceleration was calculated between two adjacent samples of the already low pass filtered velocity

@DATA
0,157.74,786.47,1.00,1,1,1,0.00,0.00,0.00,8076.19,-0.05,0.00,7017.79,-0.06,0.00,3306.40,-0.07,0.00,1492.28,-0.07,0.00
14900,277.90,779.98,1.00,1,1,1,8076.19,-0.05,542026.17,7017.79,-0.06,71086.54,1808.26,-0.23,351966.76,1137.25,-0.11,145671.88,498.84,-0.14,66802.64
29300,363.00,774.26,1.00,1,1,1,5922.93,-0.07,149663.63,1808.26,-0.23,364187.83,3306.40,-0.07,107494.37,214.77,-0.82,68424.15,312.61,-0.06,13129.40
43300,327.91,768.32,1.00,1,1,1,2541.55,-2.97,601114.17,250.35,-0.30,111337.70,1137.25,-0.11,155036.50,612.50,-0.04,34615.65,94.36,-0.18,15658.98
64800,371.48,771.60,1.00,1,1,1,2031.91,0.08,212494.18,774.68,0.05,25428.70,214.77,-0.82,45828.27,1492.28,-0.07,40939.02,111.90,-2.95,9432.43
93500,366.75,770.25,1.00,1,1,1,171.14,-2.86,76646.99,236.24,-1.27,26221.25,612.50,-0.04,16885.68,498.84,-0.14,34681.51,393.04,-3.03,9813.91
107900,374.45,761.86,1.00,1,1,1,790.45,-0.83,61139.57,458.37,-0.20,28072.69,228.25,-0.07,26696.50,312.61,-0.06,13129.40,869.25,0.09,87655.08
143500,389.23,765.78,1.00,1,1,1,429.47,0.26,19730.98,399.97,0.42,7517.94,146.96,-3.03,10496.45,94.36,-0.18,6158.03,2390.03,0.06,42729.10
157800,392.65,770.07,1.00,1,1,1,383.41,0.90,18128.39,1207.29,3.05,109615.98,495.19,0.25,44832.34,111.90,-2.95,14181.62,2303.73,0.01,10428.03
171700,355.34,768.95,1.00,1,1,1,2685.53,-3.11,212068.44,686.91,0.07,135861.31,723.73,-3.14,87058.71,393.04,-3.03,20263.26,1675.04,0.01,45230.66
185800,411.84,771.38,1.00,1,1,1,4010.84,0.04,474909.53,356.68,-2.87,73675.65,603.35,-3.10,8757.90,869.25,0.09,89520.08,1587.56,0.06,8346.21
207200,343.13,765.57,1.00,2,2,2,3221.93,-3.06,337908.32,1615.22,-3.09,59307.04,693.73,-3.03,4607.65,2390.03,0.06,71082.05,1479.41,0.05,5121.92
221500,354.25,768.30,1.00,2,2,2,800.84,0.24,280768.77,1121.76,-3.10,34522.58,1333.00,0.02,141595.39,3311.45,0.06,64446.25,1727.20,0.07,17491.80
235700,311.19,764.21,1.00,2,2,2,3046.35,-3.05,270456.52,4999.42,0.03,431064.43,5459.29,0.06,290689.99,3119.11,0.05,13875.34,1679.47,0.05,4308.11
250200,497.67,772.71,1.00,3,3,3,12874.04,0.05,1097752.67,10654.78,0.06,390224.89,7171.67,0.06,118095.26,3138.65,0.08,7165.18,1599.92,0.07,5962.21
271800,695.23,785.57,1.00,1,1,1,9165.85,0.07,171953.61,8910.32,0.07,81002.17,6901.22,0.05,12677.98,3243.83,0.06,5540.41,1646.32,0.06,2247.07
286100,816.78,794.89,1.00,1,1,1,8524.69,0.08,45394.31,2130.86,0.02,474287.12,4944.78,0.09,137946.91,3962.05,0.08,50404.18,1831.76,0.05,13055.45
300200,755.73,787.04,1.00,1,1,1,4365.27,-3.01,913911.38,282.70,1.77,155859.79,1018.19,0.08,278495.91,3734.06,0.06,17102.30,2623.93,0.03,56247.17
314700,815.19,802.81,1.00,1,1,1,4241.99,0.26,592321.62,165.85,0.64,17910.57,751.87,0.26,21539.20,2292.79,0.06,99412.71,2562.47,0.05,5245.47
336100,760.51,790.59,1.00,1,1,1,2617.89,-2.92,320496.44,1358.47,0.10,56984.97,1145.36,0.08,20009.03,979.55,0.06,61368.83,2607.05,0.04,2287.42
350400,863.46,807.48,1.00,1,1,1,7295.24,0.16,693004.11,1985.49,0.04,44252.21,315.99,-0.29,60056.85,502.16,-0.00,33508.77,2711.52,0.04,7367.62
379100,845.80,794.38,1.00,2,2,2,766.00,-2.50,278182.79,512.82,-2.63,85540.28,948.33,0.04,22911.96,2237.53,0.02,60470.39,2739.07,0.04,1159.03
400300,841.09,795.04,1.00,2,2,2,224.41,3.00,29547.35,297.62,-3.06,12843.52,357.64,-0.47,31130.41,2111.99,0.02,5923.93,2123.28,0.03,29081.22
414900,835.18,793.56,1.00,2,2,2,417.55,-2.90,15488.20,1661.31,-0.01,134113.29,3246.96,-0.00,200854.39,2130.12,0.02,1395.21,1388.33,0.02,50346.90
428800,888.44,794.75,1.00,3,3,3,3832.52,0.02,305083.11,5794.43,0.00,297350.97,4088.02,0.04,61614.26,1782.32,-0.03,26031.46,1299.82,0.02,6376.73
464700,1123.74,793.85,1.00,1,1,1,6554.47,-0.00,75908.54,5472.56,0.05,11896.92,3131.65,0.02,26764.92,1873.50,0.02,3641.42,1300.40,0.02,127.84
478800,1161.71,808.66,1.00,1,1,1,2890.59,0.37,284293.00,121.18,1.04,383484.72,3003.15,0.01,9154.84,1964.26,-0.01,7462.75,1056.23,-0.03,17725.83
507900,1126.38,798.37,1.00,1,1,1,1264.54,-2.86,142669.78,308.61,-0.87,12635.40,396.59,0.23,89936.20,1762.15,0.01,6993.91,1279.92,0.02,7935.98
522700,1170.41,798.28,1.00,1,1,1,2974.95,-0.00,284012.87,780.89,0.09,44351.14,245.42,-2.20,40831.16,2024.95,0.02,17913.10,864.75,-0.06,28670.45
543800,1154.30,800.95,1.00,1,1,1,774.14,2.98,177298.91,594.83,-2.89,64991.13,238.40,-2.94,8264.60,217.14,-0.01,85684.63,504.82,0.05,17419.37
557700,1150.26,793.05,1.00,1,1,1,638.39,-2.04,60500.62,1547.86,-3.01,69089.44,572.33,0.12,58287.45,190.47,-2.55,28004.43,117.34,0.22,28039.31
571700,1111.48,795.33,1.00,1,1,1,2774.83,3.08,184659.15,2022.00,0.17,254940.14,116.16,-1.52,42322.19,136.14,0.00,22330.51,11.62,2.45,8914.55
585800,1206.26,802.67,1.00,1,1,1,6741.95,0.08,673658.93,1223.63,-0.04,61256.42,173.10,3.11,15306.34,384.22,-3.00,36829.65,278.23,-3.05,19154.20
607000,1154.64,793.62,1.00,1,1,1,2471.98,-2.97,434223.21,1890.84,-3.00,146359.06,507.54,0.09,32058.04,1254.43,3.14,41343.27,1299.96,-3.13,48249.95
621600,1139.21,793.39,1.00,2,2,2,1057.33,-3.13,98479.01,414.89,2.73,106323.62,1324.29,-3.01,125445.47,2156.12,3.11,61846.43,1196.64,-3.10,7574.48
635600,1143.77,798.37,1.00,2,2,2,482.51,0.83,102295.81,610.13,-3.01,23751.63,2482.50,3.09,86157.98,2161.75,3.14,5067.61,1203.94,3.14,3895.94
650000,1122.02,791.16,1.00,2,2,2,1591.14,-2.82,140710.31,4129.79,3.12,244989.78,4123.74,3.11,114031.75,3065.18,-3.10,63125.77,1497.02,3.14,20355.76
672000,993.48,801.72,1.00,1,1,1,5862.41,3.06,201916.94,6902.43,3.10,126153.90,4779.81,-3.13,31045.44,2960.56,-3.13,6391.59,1477.64,-3.14,898.44
686000,873.79,802.44,1.00,1,1,1,8549.54,3.14,195743.04,5609.07,-3.10,99478.26,4779.44,-3.13,880.77,2344.93,3.13,44060.54,2156.12,3.11,48665.34
700700,832.62,795.67,1.00,1,1,1,2838.69,-2.98,392594.15,2253.33,-2.92,232709.75,3445.54,-3.09,91294.83,2525.40,3.14,12286.01,2161.75,3.14,4826.30
715500,808.99,787.63,1.00,1,1,1,1686.25,-2.81,81582.03,1735.78,-3.07,40394.10,582.96,-2.96,193813.14,2594.79,3.12,5625.92,3065.18,-3.10,61419.67
737000,769.78,791.05,1.00,1,1,1,1830.79,3.05,34337.47,823.72,0.29,118454.26,255.94,2.87,17176.03,1712.22,-3.14,41143.58,2960.56,-3.13,6540.23
750600,836.72,795.81,1.00,1,1,1,4934.73,0.07,496239.78,1701.67,0.19,65105.67,402.23,2.69,11597.18,582.96,-2.96,83985.12,2344.93,3.13,45356.44
765100,816.73,800.08,1.00,1,1,1,1409.35,2.93,434543.09,1758.23,3.08,236729.36,309.71,0.57,42851.74,255.94,2.87,25467.91,2525.40,3.14,12455.47
779600,785.83,798.96,1.00,1,1,1,2132.85,-3.11,57910.84,1112.28,3.12,44749.44,1758.23,3.08,139016.51,402.23,2.69,10877.36,2594.79,3.12,5742.32
794000,784.59,800.65,1.00,1,1,1,145.39,2.20,142709.47,145.39,2.20,71601.64,1112.28,3.12,45060.20,309.71,0.57,43149.33,1712.22,-3.14,61429.64
