%@metadata width_px 1920.0
%@metadata height_px 1080.0
%@metadata width_mm 540.0
%@metadata height_mm 254.0
%@metadata distance_mm 620.0
% The number after speed, direction denotes the step size that was used for the calculation.
% Acceleration was calculated between two adjacent samples of the already low pass filtered velocity
@RELATION gaze_labels

@ATTRIBUTE time INTEGER
@ATTRIBUTE x NUMERIC
@ATTRIBUTE y NUMERIC
@ATTRIBUTE confidence NUMERIC
@ATTRIBUTE handlabeller_final INTEGER
@ATTRIBUTE EYE_MOVEMENT_TYPE {UNKNOWN, FIX, SACCADE, SP, NOISE, BLINK, NOISE_CLUSTER, PSO}

@DATA
0,137.41,638.04,1.0,1,FIX
14700,181.05,639.87,1.0,1,FIX
29300,182.08,637.94,1.0,1,FIX
58700,264.55,625.38,1.0,1,FIX
73600,241.29,643.46,1.0,1,FIX
110600,138.24,638.34,1.0,1,FIX
125300,207.1,638.22,1.0,1,FIX
139800,179.55,644.8,1.0,1,NOISE
154500,168.45,638.3,1.0,2,NOISE
169200,253.57,625.25,1.0,2,NOISE
191500,250.85,623.03,1.0,2,NOISE
206500,297.78,622.86,1.0,3,NOISE
220900,910.06,560.54,1.0,4,NOISE
250400,941.0,561.9,1.0,4,NOISE
265000,892.47,588.94,1.0,4,NOISE
286800,868.62,567.72,1.0,4,NOISE
301500,813.83,566.67,1.0,4,NOISE
316300,834.61,599.41,1.0,4,NOISE
331100,1010.79,797.75,1.0,4,NOISE
345800,1221.96,897.95,1.0,4,NOISE
368000,1194.92,880.07,1.0,4,NOISE
382700,1312.98,971.71,1.0,4,NOISE
397300,1187.55,876.51,1.0,4,NOISE
426900,1174.19,774.05,1.0,4,NOISE
441800,1225.42,733.55,1.0,4,NOISE
478800,1187.79,756.53,1.0,4,NOISE
493700,1150.7,701.84,1.0,4,FIX
508500,969.36,712.97,1.0,4,FIX
522900,990.46,630.11,1.0,4,FIX
537900,941.36,635.49,1.0,4,FIX
560100,944.88,615.16,1.0,4,FIX
575000,982.74,566.81,1.0,4,FIX
589900,1002.6,598.16,1.0,4,FIX
604600,982.11,604.91,1.0,4,FIX
619300,908.29,578.57,1.0,4,FIX
648900,924.22,586.72,1.0,4,FIX
671100,947.33,580.58,1.0,4,SACCADE
685900,978.77,586.24,1.0,4,SACCADE
700900,925.24,613.77,1.0,4,SP
715200,602.6,600.86,1.0,4,FIX
729900,517.7,688.4,1.0,4,FIX
752100,473.06,665.05,1.0,4,FIX
766800,544.09,628.6,1.0,4,FIX
796400,584.16,638.31,1.0,4,FIX
811400,505.67,637.31,1.0,4,FIX
826100,537.69,602.11,1.0,4,NOISE
862900,597.39,602.44,1.0,4,NOISE
877600,590.24,653.41,1.0,4,NOISE
892500,860.19,758.2,1.0,4,NOISE
907100,1083.56,831.16,1.0,4,NOISE
921800,1064.91,840.38,1.0,4,NOISE
943900,1159.31,844.89,1.0,4,NOISE
958600,1146.17,840.36,1.0,4,NOISE
973600,1257.6,743.98,1.0,4,NOISE
1003000,1097.01,727.63,1.0,4,NOISE
1017800,925.34,729.59,1.0,4,NOISE
1039900,875.87,665.48,1.0,4,NOISE
1054500,851.39,668.42,1.0,4,FIX
1069000,818.18,643.44,1.0,4,FIX
1083700,867.75,637.02,1.0,4,FIX
1098100,803.7,587.34,1.0,4,FIX
1112900,851.21,587.7,1.0,4,FIX
1135100,835.86,607.73,1.0,1,FIX
1149900,883.89,607.22,1.0,1,FIX
1179000,874.87,607.03,1.0,1,FIX
1193700,901.4,571.6,1.0,1,FIX
1230800,822.66,607.1,1.0,1,UNKNOWN
1245400,863.24,608.62,1.0,1,UNKNOWN
1260300,769.2,579.99,1.0,1,UNKNOWN
1274800,851.21,597.28,1.0,1,UNKNOWN
1289500,800.31,620.66,1.0,2,SACCADE
1311300,830.98,579.28,1.0,2,UNKNOWN
1326400,873.3,575.11,1.0,3,UNKNOWN
1340700,636.55,607.02,1.0,3,UNKNOWN
1370400,510.1,649.71,1.0,1,FIX
1385000,588.75,648.94,1.0,1,FIX
1406800,506.28,648.76,1.0,1,FIX
1421500,547.04,626.6,1.0,1,UNKNOWN
1436300,406.96,622.45,1.0,1,FIX
1451000,534.2,633.1,1.0,1,FIX
1465400,513.44,629.78,1.0,1,SACCADE
1487400,490.36,664.04,1.0,2,SACCADE
1516500,468.11,638.02,1.0,2,SP
1546000,908.31,580.06,1.0,3,FIX
1561000,1026.9,600.49,1.0,1,FIX
1583200,995.32,538.51,1.0,1,FIX
1612400,1041.73,607.99,1.0,1,FIX
1627100,1074.25,574.74,1.0,1,FIX
1641700,1042.11,614.7,1.0,1,FIX
1663900,1047.16,606.46,1.0,1,FIX
1678600,1007.77,530.85,1.0,1,FIX
1693400,985.93,593.88,1.0,1,FIX
1708300,1034.09,566.23,1.0,1,FIX
1722600,1056.95,578.7,1.0,2,SACCADE
1737200,1007.87,548.11,1.0,2,SACCADE
1759400,1017.35,581.21,1.0,2,SACCADE
1788800,840.79,609.19,1.0,1,FIX
1803500,640.81,606.41,1.0,1,FIX
1818300,617.31,636.21,1.0,1,FIX
1833000,645.93,637.56,1.0,1,FIX
1855300,688.16,610.94,1.0,1,FIX
1870100,655.29,575.55,1.0,1,FIX
1884900,627.42,605.51,1.0,1,FIX
1899600,624.44,602.39,1.0,1,FIX
1928900,633.29,591.05,1.0,1,FIX
1950600,642.16,592.79,1.0,1,FIX
1980500,657.85,593.51,1.0,1,FIX
1994800,613.75,606.35,1.0,1,FIX
2009200,692.72,603.7,1.0,1,FIX
2031400,677.36,586.89,1.0,1,FIX
2046000,716.74,567.12,1.0,1,FIX
2060900,730.3,587.98,1.0,1,FIX
2075700,649.41,611.72,1.0,1,FIX
2105000,667.74,607.28,1.0,1,FIX
2127200,672.33,584.55,1.0,1,FIX
2142000,578.05,608.71,1.0,1,FIX
2156500,600.22,615.24,1.0,1,FIX
2171300,637.8,599.39,1.0,1,FIX
2186100,707.43,600.72,1.0,1,FIX
2200900,631.96,605.34,1.0,1,FIX
2223200,616.49,599.9,1.0,1,FIX
2237600,618.63,608.16,1.0,1,FIX
2267000,681.99,605.73,1.0,1,FIX
2303900,629.68,574.99,1.0,1,FIX
2318700,691.53,586.59,1.0,1,FIX
2348400,754.2,603.39,1.0,1,FIX
2362900,731.16,585.49,1.0,1,FIX
2377500,630.51,596.47,1.0,1,FIX
2399600,683.81,611.38,1.0,1,FIX
2414400,723.17,613.42,1.0,1,FIX
