@RELATION gaze_labels

%@METADATA width_px 1920
%@METADATA height_px 1080
%@METADATA width_mm 540.00
%@METADATA height_mm 254.00
%@METADATA distance_mm 620.00


@ATTRIBUTE time INTEGER
@ATTRIBUTE x NUMERIC
@ATTRIBUTE y NUMERIC
@ATTRIBUTE confidence NUMERIC
@ATTRIBUTE handlabeller1 INTEGER
@ATTRIBUTE handlabeller2 INTEGER
@ATTRIBUTE handlabeller_final INTEGER
@ATTRIBUTE speed_1 numeric
@ATTRIBUTE direction_1 numeric
@ATTRIBUTE acceleration_1 numeric
@ATTRIBUTE speed_2 numeric
@ATTRIBUTE direction_2 numeric
@ATTRIBUTE acceleration_2 numeric
@ATTRIBUTE speed_4 numeric
@ATTRIBUTE direction_4 numeric
@ATTRIBUTE acceleration_4 numeric
@ATTRIBUTE speed_8 numeric
@ATTRIBUTE direction_8 numeric
@ATTRIBUTE acceleration_8 numeric
@ATTRIBUTE speed_16 numeric
@ATTRIBUTE direction_16 numeric
@ATTRIBUTE acceleration_16 numeric

%The number after speed, direction denotes the step size that was used for the calculation.
%Acceleration was calculated between two adjacent samples of the already low pass filtered velocity

@DATA
0,1337.83,911.16,1.00,1,1,1,0.00,0.00,0.00,8569.50,-0.31,0.00,3462.46,-0.29,0.00,2553.23,-0.20,0.00,708.19,-0.27,0.00
15700,1465.94,870.06,1.00,1,1,1,8569.50,-0.31,545827.82,3462.46,-0.29,325390.38,786.33,0.32,181621.58,344.99,2.43,182143.27,1111.69,2.99,115731.00
31300,1441.77,880.48,1.00,1,1,1,1687.08,2.73,657051.64,786.33,0.32,182785.82,2553.23,-0.20,122496.74,593.65,-0.18,58210.16,106.95,-1.01,75932.33
47100,1489.38,877.80,1.00,1,1,1,3018.36,-0.06,293611.28,1701.72,-0.03,63213.38,344.99,2.43,180990.47,1631.81,3.03,140796.38,764.58,3.04,52835.41
63300,1496.20,878.94,1.00,1,1,1,426.75,0.17,160726.33,1312.72,2.99,185713.64,593.65,-0.18,56054.22,708.19,-0.27,144077.88,2040.01,3.00,78788.08
77700,1449.69,883.97,1.00,1,1,1,3248.77,3.03,254268.83,240.23,-2.50,80380.50,1631.81,3.03,154484.92,1111.69,2.99,126178.94,2249.35,2.96,15819.78
109300,1487.35,872.32,1.00,1,1,1,1247.44,-0.30,141758.94,1838.84,3.05,52805.70,808.43,3.05,26067.53,106.95,-1.01,37485.58,3261.64,2.95,32039.95
125100,1362.92,892.21,1.00,1,1,1,7975.19,2.98,583027.65,1747.47,2.91,16174.17,1759.93,3.07,60242.64,764.58,3.04,52835.41,1530.23,2.92,109652.56
140700,1433.90,884.72,1.00,2,2,2,4575.06,-0.11,804238.35,1643.55,3.11,22201.27,603.51,-3.02,75211.89,2040.01,3.00,81818.39,431.71,2.99,70502.20
156700,1311.01,893.90,1.00,2,2,2,7701.75,3.07,767216.47,742.82,-0.82,139460.87,325.33,-0.17,57489.18,2249.35,2.96,14237.80,824.20,2.89,24816.22
172000,1449.79,867.74,1.00,2,2,2,9230.00,-0.19,1104938.64,2360.65,-0.07,123166.27,3571.66,2.99,254703.09,3261.64,2.95,66174.01,1323.93,2.97,33118.97
187200,1382.83,888.77,1.00,2,2,2,4617.21,2.84,909592.98,7782.83,2.93,666107.00,2765.50,2.89,56969.41,1530.23,2.92,113980.96,985.89,2.96,22256.54
203000,1214.07,919.20,1.00,1,1,1,10853.16,2.96,398677.24,6058.44,2.93,109160.30,5412.79,2.92,167811.36,1407.32,2.94,7919.18,1018.91,2.98,2407.45
234400,1103.15,948.36,1.00,1,1,1,3652.57,2.88,229858.74,3862.81,2.92,69949.33,2986.74,2.93,77264.00,588.38,2.72,26808.84,841.45,2.91,5955.99
250400,1035.47,959.53,1.00,1,1,1,4287.14,2.98,45912.90,1558.61,-0.19,338801.89,132.16,2.06,181464.48,2523.64,2.94,122076.77,1097.92,2.92,16030.96
266300,1151.98,939.00,1.00,1,1,1,7440.51,-0.17,737578.01,3216.66,-0.16,104344.08,1418.33,-0.13,94238.90,1178.91,2.91,84636.52,798.91,2.93,18826.79
304700,1207.80,931.09,1.00,1,1,1,1468.29,-0.14,155553.88,1337.54,-0.09,49107.90,157.46,-0.82,33884.48,152.03,2.70,26840.30,1103.80,2.94,7945.09
319800,1223.26,932.75,1.00,1,1,1,1029.74,0.11,35327.15,5281.15,3.03,438299.98,516.82,-0.15,26892.06,662.76,-0.06,53391.62,569.51,2.90,35471.98
335800,1044.61,949.67,1.00,1,1,1,11215.56,3.05,764139.03,910.66,-3.14,273642.18,263.90,-3.06,48505.55,983.01,-0.12,20178.09,1003.84,2.91,27151.42
350700,1195.12,932.59,1.00,1,1,1,10166.22,-0.11,1434957.58,4846.66,-0.13,385890.25,396.20,2.75,13478.37,165.04,3.00,77047.35,899.20,2.94,7269.11
366400,1191.58,929.75,1.00,1,1,1,289.70,-2.47,660658.51,352.00,1.05,300947.91,2184.56,-0.05,163163.60,748.55,2.95,37180.84,44.16,1.07,58159.27
381700,1200.57,942.05,1.00,1,1,1,996.00,0.94,83525.17,586.78,2.33,38761.19,899.09,3.00,201357.15,569.56,3.10,13302.82,335.88,-0.26,21455.01
397400,1179.01,942.90,1.00,1,1,1,1374.10,3.10,133711.32,1586.33,3.13,79585.93,1138.96,2.90,16397.95,772.95,-0.10,85469.69,325.99,-0.22,1066.76
429100,1125.38,942.81,1.00,1,1,1,1691.85,-3.14,10216.36,1574.54,3.04,4787.33,732.17,-3.04,16167.87,576.73,3.00,42566.50,95.46,-0.15,7284.48
444800,1104.80,950.78,1.00,1,1,1,1406.10,2.77,40585.50,607.41,-0.37,138037.99,338.64,-2.98,25131.36,205.18,0.04,49630.15,58.56,-2.45,9014.08
460500,1143.19,935.99,1.00,1,1,1,2620.90,-0.37,256496.71,1567.64,-0.25,61583.53,174.29,2.99,11515.78,129.29,-1.50,15257.72,264.92,-0.22,19387.00
476300,1152.64,938.58,1.00,1,1,1,620.31,0.27,136284.80,950.80,2.85,159369.28,1866.82,-0.17,129182.20,298.51,-3.03,20274.73,1146.83,-0.15,55876.65
491900,1114.56,944.43,1.00,1,1,1,2470.23,2.99,195330.48,2175.72,-0.11,199764.39,768.88,-0.24,70577.23,395.17,-0.14,44109.12,802.51,-0.14,22075.15
507700,1220.54,931.00,1.00,1,1,1,6761.54,-0.13,584249.13,1909.98,-0.25,24939.43,259.23,-3.10,64578.29,641.50,-0.33,16627.86,846.00,-0.11,3105.92
539200,1202.00,921.74,1.00,2,2,2,658.02,-2.68,232305.60,1875.00,3.07,119678.10,849.58,-0.15,35085.59,979.95,-0.13,11818.37,719.86,-0.22,4865.10
554900,1132.29,937.65,1.00,2,2,2,4554.30,2.92,259073.09,794.69,2.59,77893.03,327.07,-2.75,72792.71,1471.61,-0.17,31432.35,948.72,-0.16,14986.80
570600,1180.71,934.76,1.00,2,2,2,3089.83,-0.06,485295.59,1706.67,-0.27,157981.01,1182.92,-0.07,94481.96,1894.13,-0.14,27037.59,1056.23,-0.17,6866.39
592900,1194.79,920.35,1.00,2,2,2,903.52,-0.80,111938.20,2306.68,-0.16,28629.11,3093.93,-0.15,85995.73,1357.46,-0.13,24077.78,1121.93,-0.18,3056.09
623800,1301.86,915.20,1.00,3,3,3,3468.99,-0.05,93009.78,4263.83,-0.11,63551.36,2718.67,-0.14,12172.99,1388.52,-0.14,1042.60,1036.52,-0.14,3054.81
638500,1388.07,899.23,1.00,1,1,1,5964.56,-0.18,174833.59,3190.99,-0.12,73077.95,2871.07,-0.08,15679.33,2156.70,-0.12,52288.42,980.71,-0.13,3918.85
670300,1449.11,896.90,1.00,1,1,1,1920.74,-0.04,128094.42,1526.98,0.00,53078.73,1619.19,-0.19,40140.92,1635.15,-0.17,16648.54,1065.22,-0.14,2679.59
685500,1459.84,899.57,1.00,1,1,1,727.57,0.24,81482.58,808.03,-2.90,152684.59,1154.50,-0.04,33476.39,1589.15,-0.13,5484.99,769.79,-0.16,19459.46
701200,1424.84,891.05,1.00,1,1,1,2294.71,-2.90,192500.96,598.67,-0.23,87272.27,169.53,-2.43,81757.07,1102.81,-0.16,31102.98,801.39,-0.09,3914.91
716300,1477.81,895.45,1.00,1,1,1,3520.53,0.08,383997.36,527.09,-0.06,7754.98,365.82,-2.67,13572.11,419.23,0.01,45919.26,1068.73,-0.14,17977.17
732200,1441.15,890.06,1.00,1,1,1,2330.85,-3.00,367836.59,1222.63,-2.98,109470.73,469.44,-0.01,51008.72,10.47,-0.20,25723.38,947.58,-0.14,7619.51
748100,1439.45,889.15,1.00,1,1,1,121.33,-2.65,139444.63,413.94,0.04,102789.71,496.97,3.00,60655.31,54.09,-1.17,3074.76,1292.01,-0.09,21922.46
763700,1454.17,890.62,1.00,1,1,1,948.69,0.10,68061.04,424.28,0.96,23779.06,146.26,0.61,39236.16,149.29,0.43,10263.65,544.50,-0.13,47968.93
779000,1446.97,899.88,1.00,1,1,1,766.85,2.23,98307.45,149.48,2.12,25421.52,301.92,0.14,11968.94,120.01,-2.89,17531.29,389.65,-0.05,10397.00
810500,1450.55,896.60,1.00,1,1,1,154.02,-0.74,29176.96,368.72,-0.43,15863.48,174.55,2.41,13790.57,205.57,0.12,10315.46,156.49,-0.24,7536.72
826400,1462.84,892.56,1.00,2,2,2,813.97,-0.32,42553.87,229.18,2.68,37601.05,187.99,-0.58,22731.43,983.37,-0.03,49108.74,217.95,-0.28,3896.13
842400,1443.99,899.84,1.00,2,2,2,1262.90,2.77,129763.85,72.11,-2.56,12672.33,301.06,-0.14,9614.87,33.15,0.87,60198.72,434.23,-0.06,14151.10
865100,1460.51,891.02,1.00,3,3,3,825.13,-0.49,91820.63,738.83,-0.22,34824.73,1754.14,-0.07,64052.79,363.44,-0.12,15264.60,126.83,-0.27,13720.05
880400,1471.39,893.72,1.00,1,1,1,732.53,0.24,36957.93,4008.67,-0.05,214535.58,207.56,-0.39,101871.50,310.43,-0.24,4241.90,134.51,0.18,3853.44
896200,1585.01,884.40,1.00,1,1,1,7215.02,-0.08,412977.71,446.51,3.09,281972.42,641.63,0.05,29279.54,415.44,-0.17,6816.78,52.32,0.19,5202.15
911900,1457.34,894.38,1.00,1,1,1,8156.34,3.06,979066.14,2703.86,3.04,143835.00,324.12,-0.34,23165.90,726.30,-0.15,19810.18,62.67,2.31,6386.35
927600,1500.56,893.15,1.00,1,1,1,2753.76,-0.03,694748.69,1081.14,-0.22,240750.12,1076.18,-3.12,88194.65,375.94,-0.10,22373.21,439.45,-0.04,30909.78
943500,1490.69,886.93,1.00,1,1,1,734.01,-2.58,213092.80,613.50,-0.54,33567.78,1192.68,-0.12,142384.71,61.70,0.38,20296.86,543.65,0.05,7103.43
959200,1517.22,883.24,1.00,1,1,1,1706.28,-0.14,147531.39,1274.44,-0.06,49940.57,188.16,-0.54,65243.67,827.73,3.08,56295.13,508.47,0.10,2716.49
990200,1550.11,883.65,1.00,1,1,1,1061.14,0.01,21813.27,99.04,2.62,43987.49,192.27,2.41,12216.67,121.57,2.56,23372.06,497.31,-0.02,1896.11
1006000,1513.20,885.55,1.00,1,1,1,2339.22,3.09,215118.12,2274.65,2.95,138061.18,666.03,3.00,32729.36,513.62,0.02,39101.52,630.25,0.06,8889.50
1021800,1479.48,896.99,1.00,2,2,2,2253.56,2.81,40270.49,1233.28,3.03,66353.13,1402.96,2.95,46735.12,756.12,0.15,16174.30,398.24,0.01,14785.10
1053400,1455.12,892.22,1.00,2,2,2,785.37,-2.95,51260.02,821.89,2.94,13315.73,873.11,0.14,71103.57,606.97,0.25,5188.68,59.81,0.60,11076.65
1069200,1441.32,904.81,1.00,3,3,3,1182.60,2.40,60325.07,4041.11,0.02,306703.11,1638.74,0.06,48800.12,283.66,0.35,20631.02,308.59,0.06,16402.88
1084600,1581.18,894.97,1.00,1,1,1,9104.31,-0.07,653167.73,5355.71,0.00,85607.31,2472.34,0.10,54315.24,891.33,0.13,40092.16,326.68,0.04,1245.54
1100300,1607.88,904.88,1.00,1,1,1,1814.14,0.36,477046.34,975.29,0.40,285030.68,2356.33,-0.05,23566.20,740.10,-0.02,12535.30,234.33,0.24,6886.32
1116100,1609.43,907.04,1.00,1,1,1,167.93,0.95,106155.93,691.13,-2.79,105434.14,914.18,0.13,92819.06,1146.38,0.01,25781.21,95.32,0.60,9424.40
1131400,1587.70,897.49,1.00,1,1,1,1551.53,-2.73,111005.15,927.13,-0.16,102438.98,415.27,-2.75,86244.99,822.31,-0.05,21577.86,835.07,3.04,59474.19
1147300,1638.00,902.50,1.00,1,1,1,3179.33,0.10,294301.72,146.67,-2.54,65313.49,267.10,-2.24,13987.42,106.57,0.12,45124.71,922.75,3.04,5523.63
1162900,1583.89,894.87,1.00,1,1,1,3503.00,-3.00,428265.93,1264.20,-2.92,72409.11,680.33,3.10,36266.34,384.51,-3.11,31462.36,802.77,3.04,7699.55
1178900,1598.99,893.91,1.00,1,1,1,945.52,-0.06,277068.45,1237.56,3.03,25657.84,612.74,-3.00,8369.05,460.28,-3.03,5103.61,1182.20,2.99,23908.26
1194900,1544.54,899.31,1.00,1,1,1,3419.84,3.04,272805.87,118.37,2.51,71002.98,402.35,2.85,18664.90,1872.28,3.10,88659.99,684.21,3.02,31174.10
1217700,1595.27,896.61,1.00,2,2,2,2228.25,-0.05,247661.38,329.78,0.30,18060.51,673.42,3.04,12681.14,2631.10,3.12,33320.77,1380.06,3.06,30567.90
1233500,1556.69,903.08,1.00,2,2,2,2475.51,2.98,297232.33,1142.98,3.08,92183.20,2758.57,3.10,132075.35,2263.14,3.06,24776.98,1539.80,3.08,10232.41
1265000,1541.29,899.68,1.00,2,2,2,500.77,-2.92,64124.12,5291.04,3.12,131712.90,4453.71,3.10,53815.56,3139.69,3.04,27906.78,806.11,-3.14,23404.47
1280300,1309.13,908.46,1.00,2,2,2,15184.71,3.10,960832.11,9505.45,3.10,275579.60,3950.10,3.08,33186.37,1959.23,3.04,77158.27,826.42,3.06,4463.48
1296000,1246.86,911.42,1.00,3,3,3,3971.02,3.09,714264.12,1983.52,2.94,481190.02,6537.22,3.04,165427.07,2638.68,3.07,43401.28,2631.10,3.12,115070.70
1311800,1247.92,920.99,1.00,1,1,1,609.28,1.46,256664.22,3682.22,2.88,108031.40,908.90,2.80,358099.95,2528.07,3.06,7013.02,2263.14,3.06,24776.98
1327500,1134.88,941.66,1.00,1,1,1,7319.50,2.96,465100.35,311.42,0.74,245763.88,847.38,2.90,6655.59,1140.98,3.10,88438.20,3139.69,3.04,55991.32
1343300,1255.16,927.60,1.00,1,1,1,7664.92,-0.12,947887.38,1045.12,-0.29,58483.47,1098.53,2.99,16959.21,186.64,0.31,83388.63,1959.23,3.04,74716.55
1374700,1182.15,927.57,1.00,1,1,1,2325.23,-3.14,317770.43,1988.41,3.08,96058.49,2495.92,-0.15,114473.00,847.38,2.90,32179.57,2638.68,3.07,21700.64
1389500,1163.49,933.55,1.00,1,1,1,1323.98,2.83,76961.30,4007.60,-0.11,405031.12,887.02,-0.12,108743.32,1098.53,2.99,18105.10,2528.07,3.06,7486.87
1420400,1364.13,906.92,1.00,1,1,1,6550.11,-0.13,254259.20,3742.27,-0.09,8958.80,4007.60,-0.11,100991.83,2495.92,-0.15,116325.32,1140.98,3.10,44934.62
1436000,1336.76,917.46,1.00,1,1,1,1880.04,2.77,537799.17,1880.04,2.77,357376.22,3742.27,-0.09,17745.32,887.02,-0.12,103166.74,186.64,0.31,84457.72
