%@metadata width_px 1920.0
%@metadata height_px 1080.0
%@metadata width_mm 540.0
%@metadata height_mm 254.0
%@metadata distance_mm 620.0
% The number after speed, direction denotes the step size that was used for the calculation.
% Acceleration was calculated between two adjacent samples of the already low pass filtered velocity
@RELATION gaze_labels

@ATTRIBUTE time INTEGER
@ATTRIBUTE x NUMERIC
@ATTRIBUTE y NUMERIC
@ATTRIBUTE confidence NUMERIC
@ATTRIBUTE handlabeller_final INTEGER
@ATTRIBUTE EYE_MOVEMENT_TYPE {UNKNOWN, FIX, SACCADE, SP, NOISE, BLINK, NOISE_CLUSTER, PSO}

@DATA
0,1108.87,970.19,1.0,1,FIX
15800,1158.82,989.76,1.0,1,FIX
31800,1063.54,982.23,1.0,1,FIX
47700,1115.12,962.31,1.0,1,FIX
79900,1113.59,967.69,1.0,1,FIX
95800,1142.5,961.27,1.0,1,FIX
111700,1117.41,974.92,1.0,1,NOISE
127800,1139.73,976.63,1.0,2,NOISE
143700,1119.89,959.42,1.0,2,NOISE
161100,1050.84,1003.43,1.0,2,NOISE
191700,914.98,1112.76,1.0,4,NOISE
207800,767.71,1167.25,1.0,4,NOISE
223800,663.05,1208.8,1.0,4,NOISE
239800,548.91,1217.58,1.0,4,NOISE
272000,435.75,1066.07,1.0,2,NOISE
287700,479.45,948.1,1.0,2,NOISE
319800,498.73,938.91,1.0,2,FIX
337800,556.96,960.62,1.0,1,FIX
367800,474.37,964.02,1.0,1,FIX
383900,504.59,977.17,1.0,1,FIX
399700,516.06,974.98,1.0,1,FIX
416700,515.58,988.78,1.0,1,FIX
431800,517.72,977.08,1.0,1,FIX
447700,510.86,973.9,1.0,2,FIX
463700,519.75,971.47,1.0,2,FIX
479800,528.83,969.72,1.0,1,FIX
495700,487.34,972.69,1.0,1,FIX
511800,499.97,971.21,1.0,1,FIX
543800,478.57,977.82,1.0,1,FIX
559700,484.5,974.23,1.0,1,FIX
575700,483.42,981.69,1.0,1,FIX
591700,491.81,973.82,1.0,1,FIX
607900,479.69,965.28,1.0,1,FIX
639800,486.83,964.5,1.0,1,FIX
656400,488.82,972.2,1.0,1,FIX
687800,490.61,975.01,1.0,1,FIX
703700,484.32,965.94,1.0,1,FIX
719800,503.78,968.6,1.0,1,FIX
751800,477.14,972.89,1.0,1,FIX
767900,498.55,974.17,1.0,1,FIX
785100,486.66,977.57,1.0,1,FIX
799700,520.48,969.8,1.0,1,FIX
815800,499.06,969.84,1.0,1,FIX
831800,494.17,962.98,1.0,1,FIX
864700,514.07,969.94,1.0,1,FIX
880100,513.58,973.46,1.0,1,FIX
895800,487.51,969.35,1.0,1,FIX
911900,494.13,968.78,1.0,1,FIX
927600,514.26,974.99,1.0,1,FIX
943900,517.77,963.85,1.0,1,FIX
959800,501.49,972.32,1.0,1,FIX
975900,523.35,963.29,1.0,2,FIX
992600,499.26,973.04,1.0,3,FIX
1007900,516.21,965.33,1.0,1,FIX
1039800,499.1,967.11,1.0,1,FIX
1072900,523.28,967.09,1.0,2,SACCADE
1087700,482.29,972.48,1.0,2,SACCADE
1119800,537.23,971.03,1.0,1,SP
1136900,789.65,879.43,1.0,1,FIX
1151900,919.68,815.5,1.0,1,FIX
1167900,821.84,895.39,1.0,1,FIX
1183800,868.29,891.17,1.0,1,FIX
1199800,885.52,883.15,1.0,1,FIX
1232600,861.56,890.63,1.0,1,FIX
1247900,844.81,879.67,1.0,2,SACCADE
1263800,859.55,897.81,1.0,2,SACCADE
1279700,839.59,903.5,1.0,3,FIX
1295700,955.57,847.67,1.0,3,FIX
1311800,1070.45,829.91,1.0,1,FIX
1327900,1086.08,834.17,1.0,1,FIX
1343900,1103.81,863.9,1.0,1,NOISE
1359800,1129.29,860.95,1.0,1,NOISE
1391700,1082.99,862.21,1.0,2,NOISE
1407600,1089.68,873.78,1.0,2,NOISE
1439700,843.13,1082.04,1.0,4,NOISE
1457200,669.27,1164.34,1.0,4,NOISE
1471900,614.68,1265.62,1.0,4,NOISE
1503900,637.54,1146.02,1.0,2,NOISE
1519700,672.87,1066.88,1.0,2,NOISE
1535600,791.54,1047.09,1.0,2,NOISE
1552200,880.68,1038.24,1.0,2,NOISE
1568200,992.92,955.39,1.0,1,NOISE
1584000,929.05,986.73,1.0,1,FIX
1599700,965.8,991.24,1.0,1,FIX
1615800,1050.6,927.19,1.0,1,FIX
1648000,1089.34,931.43,1.0,1,FIX
1664500,1051.9,941.38,1.0,1,FIX
1679700,1066.4,923.93,1.0,1,FIX
1695700,1081.95,898.97,1.0,1,FIX
1711800,1083.15,916.43,1.0,1,FIX
1744500,1148.02,907.81,1.0,2,SACCADE
1759900,1122.19,900.36,1.0,2,SACCADE
1775800,1148.88,888.34,1.0,2,SACCADE
1791700,1060.78,913.02,1.0,3,SP
1823900,851.73,949.71,1.0,1,FIX
1839700,818.14,963.95,1.0,1,FIX
1872000,890.08,910.34,1.0,1,FIX
1887800,890.02,933.8,1.0,1,FIX
1903700,887.57,927.28,1.0,1,FIX
1919800,885.84,911.96,1.0,1,FIX
1935700,905.63,924.01,1.0,1,FIX
1951800,875.58,917.17,1.0,1,FIX
1967800,921.13,888.32,1.0,1,FIX
1983700,910.76,901.23,1.0,1,FIX
2016000,920.01,899.66,1.0,1,FIX
2031900,882.73,918.71,1.0,1,FIX
2047700,900.24,909.5,1.0,1,FIX
2063700,907.3,911.24,1.0,1,UNKNOWN
2096200,911.0,901.13,1.0,1,FIX
2112000,900.25,904.13,1.0,1,FIX
