@RELATION gaze_labels

%@METADATA width_px 1920
%@METADATA height_px 1080
%@METADATA width_mm 540.00
%@METADATA height_mm 254.00
%@METADATA distance_mm 620.00


@ATTRIBUTE time INTEGER
@ATTRIBUTE x NUMERIC
@ATTRIBUTE y NUMERIC
@ATTRIBUTE confidence NUMERIC
@ATTRIBUTE handlabeller1 INTEGER
@ATTRIBUTE handlabeller2 INTEGER
@ATTRIBUTE handlabeller_final INTEGER
@ATTRIBUTE speed_1 numeric
@ATTRIBUTE direction_1 numeric
@ATTRIBUTE acceleration_1 numeric
@ATTRIBUTE speed_2 numeric
@ATTRIBUTE direction_2 numeric
@ATTRIBUTE acceleration_2 numeric
@ATTRIBUTE speed_4 numeric
@ATTRIBUTE direction_4 numeric
@ATTRIBUTE acceleration_4 numeric
@ATTRIBUTE speed_8 numeric
@ATTRIBUTE direction_8 numeric
@ATTRIBUTE acceleration_8 numeric
@ATTRIBUTE speed_16 numeric
@ATTRIBUTE direction_16 numeric
@ATTRIBUTE acceleration_16 numeric

%The number after speed, direction denotes the step size that was used for the calculation.
%Acceleration was calculated between two adjacent samples of the already low pass filtered velocity

@DATA
0,153.31,551.70,1.00,1,1,1,0.00,0.00,0.00,2166.64,0.73,0.00,382.24,-2.78,0.00,315.88,1.94,0.00,134.61,1.70,0.00
15000,177.55,573.34,1.00,1,1,1,2166.64,0.73,144442.37,382.24,-2.78,168440.06,933.97,-2.80,36788.81,245.90,-2.49,30141.35,84.58,-2.93,10969.52
51200,134.97,544.85,1.00,1,1,1,1415.18,-2.55,98716.44,933.97,-2.80,15243.98,315.88,1.94,27005.80,563.17,0.93,22172.76,642.24,0.07,20059.09
66700,132.03,557.24,1.00,1,1,1,821.54,1.80,120503.15,1056.59,1.29,114381.96,245.90,-2.49,29169.05,1069.15,0.09,52303.90,1233.15,-0.00,38371.24
81700,144.03,575.78,1.00,1,1,1,1472.34,1.00,72149.46,999.08,0.13,74955.38,563.17,0.93,53510.25,134.61,1.70,72195.62,1227.35,-0.08,6147.13
96600,161.65,561.11,1.00,1,1,1,1538.92,-0.69,151240.65,397.17,-0.32,44546.40,1069.15,0.09,54410.10,84.58,-2.93,11043.14,1606.37,-0.03,25786.35
111500,155.27,572.08,1.00,1,1,1,851.76,2.10,158203.59,1140.76,0.05,52627.50,116.12,-0.55,65688.24,642.24,0.07,48734.16,935.02,-0.10,45419.54
126500,195.71,562.94,1.00,1,1,1,2763.73,-0.22,226749.29,120.82,-3.05,84099.04,152.39,1.22,13939.55,1233.15,-0.00,39650.28,941.26,-0.08,1307.91
149400,150.71,571.64,1.00,2,2,2,2001.23,2.95,208052.01,839.19,2.89,31732.55,898.35,-0.28,39305.29,1227.35,-0.08,4026.51,595.79,-0.02,15226.61
164000,165.22,570.74,1.00,2,2,2,995.49,-0.06,204877.72,1759.53,-0.26,177992.68,1357.23,-0.06,35744.43,1606.37,-0.03,26316.21,385.06,-0.26,16417.40
193900,226.38,551.51,1.00,1,1,1,2144.21,-0.30,40193.40,3177.28,-0.10,49103.09,2241.26,-0.06,29566.35,935.02,-0.10,22633.82,728.22,0.00,12373.06
209000,307.50,556.67,1.00,1,1,1,5383.31,0.06,229781.82,3038.85,0.11,44661.94,2983.71,-0.08,49279.86,941.26,-0.08,1299.25,1121.81,0.03,26102.99
224500,318.76,562.11,1.00,1,1,1,806.71,0.45,299748.15,2709.41,-0.04,35283.88,1026.46,0.11,127971.40,1249.69,-0.13,20189.58,1574.75,0.00,29302.19
240400,392.52,553.44,1.00,1,1,1,4670.67,-0.12,252436.85,986.05,-3.01,231801.94,441.62,-0.18,38785.11,866.21,-0.21,24695.53,2138.67,0.06,36116.83
255100,288.83,558.30,1.00,1,1,1,7061.24,3.09,797617.30,1501.44,-3.10,35773.29,240.45,-1.03,22742.85,816.87,-0.05,9805.97,2100.81,0.03,5599.00
277300,337.16,551.17,1.00,1,1,1,2200.53,-0.15,416822.87,1078.72,-0.26,114976.79,1604.22,-3.06,77679.70,1022.49,0.06,10319.19,2198.77,0.06,5410.12
291800,327.12,548.26,1.00,1,1,1,720.63,-2.86,198037.10,1735.82,-3.01,190716.96,680.80,-0.23,155948.44,1881.36,0.05,59245.32,2438.38,0.05,16585.30
306900,286.20,544.58,1.00,1,1,1,2720.93,-3.05,133670.45,357.13,-0.17,137708.47,1477.30,0.11,57494.81,2575.49,0.11,46824.52,2223.88,0.04,14342.76
336800,342.95,545.47,1.00,2,2,2,1898.15,0.02,154382.15,3062.36,0.12,91047.20,3106.77,0.09,54517.11,3046.41,0.06,16422.85,2000.85,0.07,7875.24
366900,468.67,566.16,1.00,3,3,3,4232.99,0.16,78799.54,5484.16,0.11,80469.52,5052.55,0.10,64655.87,3312.19,0.09,9600.93,1844.84,0.08,5187.91
389100,628.10,576.36,1.00,1,1,1,7196.26,0.06,135737.71,7340.71,0.10,83704.66,5069.71,0.09,2999.43,3444.45,0.10,6154.24,1822.65,0.07,1085.83
419100,850.12,602.67,1.00,1,1,1,7452.13,0.12,15704.42,4585.11,0.06,92045.71,5310.26,0.09,8033.38,3337.23,0.09,3986.31,1505.37,0.09,10628.71
433600,831.72,589.55,1.00,1,1,1,1558.58,-2.52,610381.88,1792.58,0.03,192724.97,3884.72,0.11,98674.88,3046.27,0.10,20287.20,1660.02,0.06,11313.48
449200,904.05,604.18,1.00,1,1,1,4730.79,0.20,396582.50,2880.31,0.23,75669.22,449.46,-0.20,221799.06,2724.79,0.08,20901.44,1622.81,0.08,3437.56
463800,916.41,609.39,1.00,1,1,1,918.52,0.40,262658.57,716.49,-2.85,246282.37,118.84,0.89,27990.60,1755.59,0.10,66442.65,1847.42,0.09,15477.70
485300,879.28,596.75,1.00,1,1,1,1824.38,-2.81,127505.29,2254.48,-2.97,71890.11,534.62,-3.00,29150.06,173.37,-0.24,74112.74,1783.70,0.08,3059.66
499700,836.64,595.67,1.00,1,1,1,2961.48,-3.12,92754.51,346.12,2.89,134995.66,645.41,-2.95,7936.60,68.76,-2.95,16495.44,1540.66,0.11,17218.09
514500,869.49,599.27,1.00,1,1,1,2232.48,0.11,350640.93,1255.29,0.15,106735.45,67.85,-3.14,39112.62,418.80,-2.92,23653.87,168.87,0.02,92740.02
530100,874.38,601.36,1.00,1,1,1,340.84,0.40,122360.28,111.69,-0.50,74901.87,215.79,-2.64,10224.58,86.32,-2.52,21859.11,616.41,-3.04,50311.17
561600,874.10,596.74,1.00,1,1,1,146.89,-1.63,13563.35,1158.18,-2.89,39418.40,324.11,-2.81,3733.06,141.82,-2.94,2298.06,1244.29,-3.02,19939.29
576800,822.05,587.68,1.00,1,1,1,3475.79,-2.97,226636.71,957.99,-2.95,13879.39,417.78,0.03,48268.02,38.10,1.55,10171.01,1421.09,-3.06,12146.26
591700,845.80,591.22,1.00,1,1,1,1611.38,0.15,341399.30,2861.69,0.17,256342.69,227.10,-2.88,43008.89,2198.48,-3.05,147857.28,1524.11,-3.04,7155.46
606700,906.37,602.23,1.00,1,1,1,4104.24,0.18,166278.48,360.10,0.11,166817.56,246.55,0.76,30593.20,2722.52,-3.04,34984.08,1604.79,-3.04,5408.99
629300,859.25,592.76,1.00,2,2,2,2126.62,-2.94,275690.93,1320.62,-3.13,74296.22,3967.94,-3.07,184120.34,2657.23,-3.04,2919.81,1416.36,-3.08,8863.29
659400,836.77,601.75,1.00,1,1,1,804.16,2.76,50448.29,7616.44,-3.07,209285.86,5647.86,-3.04,55938.90,2609.52,-3.06,2305.94,1309.54,-3.06,3695.39
673900,520.50,567.40,1.00,1,1,1,21940.05,-3.03,1464369.21,13389.52,-3.03,399034.08,4877.34,-3.05,53173.53,2495.72,-3.06,7876.98,998.82,-3.03,21554.14
688900,444.30,557.22,1.00,1,1,1,5125.27,-3.01,1121120.80,777.07,-2.79,842330.73,5489.24,-3.03,41206.39,2948.48,-3.05,30240.63,175.91,0.02,78270.31
703500,498.87,559.57,1.00,1,1,1,3741.36,0.04,606707.75,911.16,-3.07,18270.52,991.64,-3.02,308066.30,2496.49,-3.09,31793.28,402.14,0.16,15706.86
739800,398.04,553.87,1.00,1,1,1,2782.13,-3.09,179706.38,1132.12,-3.10,6164.15,193.18,3.13,22057.15,2604.70,-3.04,4275.12,643.23,0.19,6654.82
754300,441.40,557.41,1.00,1,1,1,3000.23,0.08,398752.02,1044.15,0.11,149979.04,671.75,2.99,33201.13,183.11,-0.15,191894.22,459.82,0.18,12650.51
769400,428.75,557.38,1.00,2,2,2,837.87,-3.14,254043.98,301.97,2.04,78401.31,243.71,0.33,59234.45,3016.00,0.09,187993.16,378.84,0.19,5365.21
799400,435.23,569.55,1.00,2,2,2,459.70,1.08,37669.98,235.85,2.90,7712.52,1321.99,0.05,36331.06,3066.08,0.11,2706.02,344.73,0.14,1314.64
821400,416.85,560.34,1.00,1,1,1,934.65,-2.68,60742.62,3096.91,-0.06,151317.96,6184.83,0.09,221096.34,4379.22,0.11,59688.39,536.00,0.15,8697.99
836500,549.93,562.88,1.00,1,1,1,8815.07,0.02,640188.51,17480.32,0.08,954967.64,8385.49,0.08,145770.47,3838.01,0.11,35866.49,1544.33,0.09,66871.30
850900,930.80,602.37,1.00,1,1,1,26591.08,0.10,1237682.55,14995.54,0.12,177636.46,10002.19,0.11,113299.36,4204.31,0.11,25452.03,2165.96,0.10,43193.54
866400,995.12,616.18,1.00,1,1,1,4244.03,0.21,1443644.00,2830.93,0.26,787007.55,7294.64,0.12,174927.41,3952.02,0.07,19619.88,2845.87,0.12,43918.54
881500,1014.54,624.56,1.00,1,1,1,1400.73,0.41,190932.69,387.03,3.08,211960.55,1524.14,0.24,383003.50,4107.93,0.11,15182.64,3504.75,0.12,43678.65
896400,983.53,616.89,1.00,1,1,1,2143.85,-2.90,237118.46,169.92,-0.11,37371.43,498.41,-2.86,135719.91,3121.77,0.11,66202.15,3239.69,0.11,18127.84
910800,1019.49,624.03,1.00,1,1,1,2546.09,0.20,325603.67,616.28,-2.69,53176.50,200.17,3.06,22196.94,1193.31,0.13,133952.10,3179.55,0.13,6986.59
933300,963.08,606.93,1.00,1,1,1,2619.69,-2.85,229314.09,404.75,3.05,15165.89,102.34,-1.10,11947.50,2589.83,0.12,62073.09,3569.78,0.12,17421.53
963800,998.13,625.96,1.00,2,2,2,1307.35,0.50,128166.81,552.50,0.11,31238.65,965.57,-0.00,30268.62,2666.37,0.14,3229.82,3233.44,0.12,11028.85
977400,987.31,609.51,1.00,3,3,3,1447.59,-2.15,196488.93,3502.72,-0.02,217314.17,5406.70,0.13,327316.11,2661.70,0.11,6270.10,2644.11,0.12,43378.29
992400,1098.28,623.86,1.00,1,1,1,7459.62,0.13,564984.66,12763.33,0.13,621144.49,6267.49,0.13,57387.50,2286.28,0.17,26933.29,1457.72,0.16,79315.10
1006500,1355.47,658.58,1.00,1,1,1,18405.66,0.13,776328.65,8458.01,0.18,307399.73,5879.81,0.13,27525.88,3245.72,0.18,68071.72,1091.23,0.15,26011.12
1029200,1404.47,679.80,1.00,1,1,1,2352.29,0.41,711630.92,467.66,0.05,352192.65,3648.29,0.22,99877.28,2453.38,0.14,35189.56,1089.15,0.13,798.78
1043500,1372.75,659.39,1.00,1,1,1,2637.37,-2.57,347771.56,492.54,2.83,66070.77,1298.58,0.36,165848.26,2223.46,0.13,16291.05,590.76,0.08,34968.70
1072600,1384.12,686.36,1.00,1,1,1,1005.64,1.17,120740.52,2035.66,0.42,83274.36,203.25,3.04,50962.80,1672.73,0.18,19249.95,245.26,-2.94,28686.36
1086600,1452.70,695.53,1.00,1,1,1,4942.05,0.13,322559.37,94.45,-1.29,146533.37,353.20,-2.99,11719.81,120.96,2.70,126615.78,69.01,0.27,22437.95
1123300,1385.44,681.75,1.00,1,1,1,1870.70,-2.94,185545.35,2365.73,-2.79,64333.72,108.77,-1.41,10112.52,245.60,-2.94,4505.98,58.16,-2.36,3354.73
1137300,1339.98,654.54,1.00,1,1,1,3784.62,-2.60,150862.84,126.75,-1.51,166636.06,1249.17,-2.91,88996.79,1153.74,-3.01,64919.79,110.85,0.39,11863.59
1167100,1385.78,676.21,1.00,2,2,2,1700.29,0.44,183870.47,301.41,1.85,14295.19,314.24,-2.71,31642.71,2806.65,-2.97,55523.34,203.96,-3.06,10448.85
1182500,1336.20,667.63,1.00,2,2,2,3267.39,-2.97,319924.06,649.99,-2.93,45291.92,2081.97,-3.01,115857.89,2975.31,-2.97,10951.86,1214.89,-3.01,65664.47
1203800,1362.46,671.18,1.00,1,1,1,1244.21,0.13,211783.23,4676.14,-2.93,189021.24,6861.87,-2.99,224439.94,2784.56,-2.97,8987.12,1265.66,-2.99,2588.96
1218200,1172.99,632.53,1.00,1,1,1,13428.56,-2.94,1018765.57,14806.89,-2.99,704466.09,5562.32,-2.99,90251.61,2208.47,-3.04,41750.56,1102.31,-3.03,11799.53
1232500,942.20,608.18,1.00,1,1,1,16228.90,-3.04,219491.79,6694.44,-3.04,568155.95,5848.71,-2.99,20052.61,2700.89,-2.98,36055.59,1323.13,-2.96,16657.25
1246600,983.90,612.77,1.00,1,1,1,2975.30,0.11,1361997.54,1195.62,0.12,559568.14,2367.82,-3.08,247917.31,2712.71,-2.98,848.11,1441.13,-2.96,8384.70
1269000,985.52,613.46,1.00,1,1,1,78.66,0.41,129470.39,978.57,0.27,12033.03,1436.13,0.11,169772.43,2545.67,-3.00,7878.20,1284.20,-2.93,7162.27
1283500,1018.71,622.38,1.00,1,1,1,2369.96,0.26,158077.85,1735.81,0.11,54203.66,44.21,-0.90,97463.88,1039.48,-3.07,104167.11,1211.45,-3.02,8867.02
1298300,1036.08,618.93,1.00,1,1,1,1197.01,-0.20,94631.13,1172.51,-2.79,195156.27,369.32,0.31,24049.83,278.06,0.12,89008.51,1634.87,-2.96,29014.20
1313400,985.74,610.46,1.00,1,1,1,3381.03,-2.97,299349.52,551.85,3.03,47746.07,117.46,-0.01,17253.30,213.80,0.01,4575.78,1758.46,-2.97,8227.47
1343000,1011.57,621.71,1.00,1,1,1,952.08,0.41,145642.56,962.53,0.28,50271.78,646.70,-3.03,25788.89,292.86,-0.21,3270.38,2302.84,-3.00,18467.74
1358500,1027.52,622.25,1.00,1,1,1,1029.08,0.03,24460.74,789.62,-2.84,113033.03,367.35,0.09,65418.07,187.49,-2.69,29386.14,1414.32,-3.02,57396.68
1380700,983.14,612.91,1.00,1,1,1,2042.84,-2.93,137909.84,407.55,-2.48,19449.56,331.72,-0.87,14628.52,638.57,-2.91,20597.97,635.43,-2.98,35140.41
1395200,1015.67,613.12,1.00,1,1,1,2243.67,0.01,294132.71,1497.61,-0.19,123732.42,523.79,-2.81,49135.97,916.40,-2.95,19304.81,728.68,-2.99,6453.29
1409700,1025.80,604.76,1.00,2,2,2,905.38,-0.69,114077.90,714.56,-3.03,151103.31,643.13,-2.74,8692.13,2073.88,-2.99,79912.10,494.26,-3.07,16508.35
1424400,994.93,610.88,1.00,2,2,2,2140.92,2.95,201985.71,2676.87,-3.06,133507.83,2493.67,-2.97,127497.75,1775.66,-2.99,20289.58,848.46,-3.01,24246.66
1438500,948.98,598.25,1.00,3,3,3,3379.49,-2.87,124122.02,3887.69,-2.96,88572.81,3933.29,-3.05,103645.03,1605.59,-2.99,12113.44,761.77,-3.02,6173.50
1461700,852.24,584.99,1.00,1,1,1,4208.59,-3.01,41682.64,4627.85,-3.05,35690.45,2810.50,-3.02,48567.01,1594.11,-3.00,1451.27,613.60,-3.01,6387.31
1490600,708.89,576.10,1.00,1,1,1,4969.97,-3.08,28850.69,1895.60,-3.13,94910.45,2303.26,-3.03,17577.11,1167.25,-3.13,15894.59,715.62,-3.04,3591.74
1504800,770.55,584.14,1.00,1,1,1,4379.07,0.13,658007.12,1792.01,0.04,259670.92,967.19,-3.07,94148.62,1427.26,-3.04,19971.75,906.65,-2.98,13968.37
1520200,761.90,577.98,1.00,1,1,1,689.53,-2.52,324564.21,224.74,-2.59,129244.44,1589.06,0.20,165669.65,872.16,-3.08,36173.12,671.70,-3.04,15553.61
1556700,760.63,578.01,1.00,1,1,1,34.83,3.12,18134.32,1498.00,0.32,47050.82,101.26,2.72,45813.75,333.84,3.12,14800.86,733.71,-3.06,1755.52
1572300,836.02,602.43,1.00,1,1,1,5079.86,0.31,327741.92,316.09,1.34,87169.77,555.68,0.26,40853.69,685.10,0.25,64750.10,1167.25,-3.13,28109.80
1587800,762.88,587.58,1.00,1,1,1,4814.86,-2.94,637352.06,1070.03,-2.75,82662.50,640.56,0.21,5850.14,43.51,-2.08,46183.68,1427.26,-3.04,18296.70
1602600,806.10,589.93,1.00,1,1,1,2924.68,0.05,521633.35,1177.54,-0.03,148395.13,514.46,-3.09,77784.30,241.41,0.43,18768.59,872.16,-3.08,37639.60
1619100,799.72,586.36,1.00,1,1,1,443.33,-2.63,201728.31,352.24,1.75,78601.62,163.46,-1.09,36437.12,289.68,0.43,2925.74,333.84,3.12,32741.31
1634300,804.16,600.93,1.00,1,1,1,1001.83,1.27,89266.13,1097.14,-2.91,77119.78,207.55,2.93,22112.59,514.46,-3.09,51992.34,685.10,0.25,66454.05
1649300,767.49,578.64,1.00,1,1,1,2860.14,-2.60,244575.40,444.74,-2.48,47750.45,118.44,1.90,11884.55,163.46,-1.09,40080.84,43.51,-2.08,47723.13
1664600,793.52,592.65,1.00,1,1,1,1931.81,0.49,313095.94,741.20,0.50,77286.33,444.74,-2.48,32434.76,207.55,2.93,21968.06,241.41,0.43,18155.23
1694500,796.84,594.81,1.00,1,1,1,132.38,0.58,60199.04,132.38,0.58,20377.11,741.20,0.50,39547.85,118.44,1.90,5962.15,289.68,0.43,1614.54
