%@metadata width_px 1920.0
%@metadata height_px 1080.0
%@metadata width_mm 540.0
%@metadata height_mm 254.0
%@metadata distance_mm 620.0
% The number after speed, direction denotes the step size that was used for the calculation.
% Acceleration was calculated between two adjacent samples of the already low pass filtered velocity
@RELATION gaze_labels

@ATTRIBUTE time INTEGER
@ATTRIBUTE x NUMERIC
@ATTRIBUTE y NUMERIC
@ATTRIBUTE confidence NUMERIC
@ATTRIBUTE handlabeller_final INTEGER
@ATTRIBUTE EYE_MOVEMENT_TYPE {UNKNOWN, FIX, SACCADE, SP, NOISE, BLINK, NOISE_CLUSTER, PSO}

@DATA
0,31.46,704.59,1.0,1,FIX
29000,23.38,693.61,1.0,1,FIX
50000,27.17,697.45,1.0,1,FIX
64100,37.41,694.86,1.0,1,FIX
79100,68.19,690.34,1.0,1,FIX
92900,7.46,695.9,1.0,1,FIX
114200,9.02,700.51,1.0,1,FIX
128600,20.46,706.36,1.0,1,FIX
143000,-23.38,694.94,1.0,1,FIX
157000,-20.77,691.36,1.0,1,FIX
193000,1.77,700.25,1.0,1,FIX
221900,10.67,710.61,1.0,2,SACCADE
236500,-4.81,702.95,1.0,2,SACCADE
258200,122.29,689.83,1.0,3,SACCADE
286200,231.17,690.62,1.0,1,FIX
300600,320.92,686.81,1.0,1,FIX
322100,348.66,687.82,1.0,1,FIX
336300,381.59,699.0,1.0,1,FIX
350700,352.84,709.78,1.0,1,FIX
365100,362.42,696.88,1.0,1,FIX
380200,364.94,712.23,1.0,1,FIX
402000,346.12,694.71,1.0,1,FIX
416100,370.19,694.52,1.0,1,FIX
444500,286.71,701.99,1.0,2,FIX
466100,362.29,704.83,1.0,3,FIX
480400,312.8,705.74,1.0,1,FIX
494800,303.16,729.53,1.0,1,FIX
508900,320.05,705.3,1.0,1,FIX
530500,307.12,705.4,1.0,1,FIX
544900,294.93,703.07,1.0,1,FIX
574100,237.47,691.71,1.0,1,FIX
609600,201.25,698.84,1.0,1,FIX
623600,238.57,709.02,1.0,1,FIX
652200,267.0,698.02,1.0,1,FIX
674200,322.77,690.93,1.0,1,FIX
688600,337.78,705.22,1.0,1,FIX
703600,345.78,697.98,1.0,1,FIX
718000,298.57,708.23,1.0,1,FIX
732200,246.49,709.46,1.0,1,FIX
753100,277.71,714.97,1.0,1,FIX
767800,269.18,709.96,1.0,1,FIX
796000,286.6,710.44,1.0,1,FIX
816900,299.95,693.23,1.0,1,FIX
831000,279.34,679.88,1.0,1,FIX
845000,259.9,692.35,1.0,1,FIX
867000,290.63,710.53,1.0,2,SACCADE
881000,285.08,699.92,1.0,0,FIX
895400,353.33,695.07,1.0,0,FIX
923900,492.43,677.46,1.0,1,FIX
945700,477.82,690.12,1.0,1,FIX
974900,541.48,700.63,1.0,3,FIX
989800,608.34,702.92,1.0,1,FIX
1004600,849.45,695.67,1.0,1,FIX
1039800,826.41,720.29,1.0,1,FIX
1054200,771.47,704.91,1.0,1,FIX
1068000,747.29,686.8,1.0,1,FIX
1089800,791.98,687.32,1.0,1,FIX
1104200,808.37,735.79,1.0,1,FIX
1118400,700.33,682.0,1.0,1,FIX
1133500,788.92,706.13,1.0,1,FIX
1148600,791.52,711.81,1.0,1,FIX
1169800,844.27,708.08,1.0,1,SACCADE
1198100,886.77,739.56,1.0,1,SACCADE
1212200,779.12,692.55,1.0,2,FIX
1234500,846.33,724.2,1.0,2,FIX
1249900,831.65,731.02,1.0,0,FIX
1264400,505.24,709.98,1.0,1,FIX
1278700,439.3,720.79,1.0,1,FIX
1292800,456.66,705.44,1.0,1,FIX
1314900,372.73,715.3,1.0,1,FIX
1329900,431.68,702.38,1.0,1,FIX
1358500,446.31,710.14,1.0,1,SACCADE
1372400,436.61,703.91,1.0,1,SACCADE
1407900,462.46,716.59,1.0,1,FIX
1422200,430.02,712.7,1.0,2,FIX
1436600,435.7,708.29,1.0,3,FIX
1457900,414.01,692.05,1.0,1,FIX
1472400,363.84,700.61,1.0,1,FIX
1487000,304.31,711.38,1.0,1,FIX
1501200,340.05,698.85,1.0,1,FIX
1522300,312.39,704.49,1.0,1,SACCADE
1537100,336.27,713.51,1.0,1,SACCADE
1565200,289.62,707.0,1.0,1,SP
1580000,309.98,695.94,1.0,2,FIX
1601700,337.47,697.61,1.0,2,FIX
1615400,337.19,710.96,1.0,2,FIX
1630200,890.56,670.65,1.0,3,FIX
1644000,867.58,699.71,1.0,1,FIX
1665400,1205.73,759.48,1.0,1,FIX
1694000,1029.91,729.2,1.0,1,FIX
1729800,1022.5,734.09,1.0,1,FIX
1743900,1023.82,738.43,1.0,1,FIX
1772600,1026.47,727.58,1.0,1,FIX
1794000,1035.06,706.73,1.0,1,FIX
1808100,1047.37,735.94,1.0,1,FIX
1822100,1081.01,745.38,1.0,1,FIX
1836600,980.69,721.6,1.0,1,FIX
1857700,1009.89,725.06,1.0,1,FIX
1871800,983.17,702.71,1.0,1,FIX
1900400,1032.69,706.57,1.0,1,FIX
1921700,1037.35,728.69,1.0,3,FIX
1936000,1058.53,731.8,1.0,1,FIX
1950100,1036.93,743.62,1.0,1,FIX
1964400,1060.69,717.62,1.0,1,FIX
1985900,1029.42,731.99,1.0,1,SACCADE
2000300,1045.64,729.47,1.0,1,SACCADE
2028900,1024.07,696.12,1.0,1,SP
2050800,1073.59,716.8,1.0,1,FIX
2065200,1004.27,696.25,1.0,2,FIX
2094600,1042.37,732.6,1.0,3,FIX
2108400,1216.16,734.95,1.0,0,FIX
2130000,1311.87,738.66,1.0,1,FIX
2158900,1347.62,723.87,1.0,1,FIX
2172900,1320.45,720.02,1.0,1,FIX
2194700,1285.25,710.41,1.0,1,SACCADE
2209000,1297.41,717.28,1.0,1,SACCADE
2223000,1291.06,722.97,1.0,1,SP
2237100,1305.49,729.73,1.0,1,FIX
2258500,1313.23,713.15,1.0,2,FIX
2272400,1217.91,709.54,1.0,2,FIX
2301000,1270.66,700.0,1.0,3,FIX
2322600,1122.23,723.92,1.0,1,FIX
2337000,950.62,734.02,1.0,1,FIX
2350900,831.97,689.1,1.0,1,FIX
2365400,960.79,722.29,1.0,1,FIX
2380200,938.51,708.67,1.0,1,FIX
2402600,978.92,743.7,1.0,1,FIX
2417100,885.1,701.72,1.0,1,FIX
2445300,970.95,719.83,1.0,1,FIX
2480800,1013.49,731.85,1.0,1,FIX
2495400,1017.57,730.35,1.0,1,FIX
2524200,1045.98,735.94,1.0,1,FIX
2545500,1056.57,743.92,1.0,1,FIX
2560000,1000.63,739.36,1.0,1,FIX
2574600,1021.3,714.21,1.0,1,SACCADE
2588600,934.93,705.74,1.0,1,SACCADE
2610600,1006.32,724.11,1.0,1,FIX
2625300,935.37,708.81,1.0,1,FIX
2640200,1027.78,716.16,1.0,1,FIX
2668800,986.44,726.28,1.0,3,FIX
2690600,1040.71,724.51,1.0,1,FIX
2705300,1078.47,741.77,1.0,1,FIX
2719900,1129.0,747.36,1.0,1,FIX
2734300,1139.47,740.61,1.0,1,FIX
2748700,1089.08,743.07,1.0,1,FIX
2769800,1035.15,721.74,1.0,1,FIX
2797900,1155.66,756.99,1.0,1,SACCADE
2812000,1169.41,751.57,1.0,1,FIX
2848000,1150.91,761.04,1.0,1,FIX
2862200,1133.31,753.79,1.0,1,FIX
2876900,1141.67,750.09,1.0,1,FIX
2912400,1086.0,748.26,1.0,1,FIX
2926900,1100.43,740.37,1.0,1,FIX
2941100,1043.64,727.28,1.0,1,FIX
2956100,1065.39,740.07,1.0,1,FIX
2977500,1100.86,748.72,1.0,1,FIX
2991400,1074.35,733.96,1.0,1,FIX
3005600,1086.67,736.02,1.0,1,FIX
3020100,1056.05,703.69,1.0,1,FIX
3041200,1006.78,741.83,1.0,1,FIX
3069900,982.0,719.51,1.0,1,FIX
3084100,1082.02,735.82,1.0,1,FIX
3105500,1009.7,709.78,1.0,1,FIX
3120300,1065.25,718.47,1.0,1,FIX
3134400,1043.95,738.11,1.0,1,SACCADE
3149700,1033.08,737.4,1.0,1,SACCADE
3164900,1066.43,734.76,1.0,1,SP
3186000,1017.21,734.1,1.0,1,FIX
3200200,1079.43,739.07,1.0,1,FIX
3228800,1121.65,741.52,1.0,2,FIX
3250200,1065.55,743.12,1.0,3,FIX
3278700,808.21,676.01,1.0,1,FIX
3293100,789.29,734.08,1.0,1,FIX
3314200,650.86,696.63,1.0,1,FIX
3327900,603.21,682.22,1.0,1,SACCADE
3341900,641.1,688.28,1.0,1,SACCADE
3356700,618.22,681.29,1.0,1,SP
3378700,678.5,704.77,1.0,1,FIX
3392600,712.62,714.55,1.0,2,FIX
3421600,722.61,723.71,1.0,2,FIX
3436100,688.08,710.82,1.0,3,FIX
3457900,528.26,699.91,1.0,1,FIX
3471900,368.63,705.0,1.0,1,FIX
3486900,379.89,697.35,1.0,1,FIX
3501200,418.55,708.77,1.0,1,FIX
3522700,356.03,695.5,1.0,1,FIX
3537100,405.73,694.75,1.0,1,FIX
3565400,380.38,681.04,1.0,1,FIX
3601400,438.83,690.98,1.0,1,FIX
3616000,421.66,692.22,1.0,1,FIX
3645100,439.61,717.08,1.0,1,FIX
3660000,404.6,711.32,1.0,2,FIX
3681400,421.92,695.54,1.0,3,FIX
3696100,388.77,713.46,1.0,1,FIX
3710200,469.31,719.43,1.0,1,FIX
3724600,402.04,701.44,1.0,1,FIX
3745900,428.74,688.3,1.0,1,FIX
3760000,317.95,671.76,1.0,1,SACCADE
3774500,440.97,708.93,1.0,1,SACCADE
3788500,412.79,694.79,1.0,1,FIX
3810100,439.93,687.19,1.0,1,FIX
3838600,432.62,688.66,1.0,1,FIX
3853000,465.1,686.57,1.0,1,FIX
3874600,504.44,711.11,1.0,2,FIX
3888900,488.95,724.33,1.0,3,FIX
3903400,344.16,706.6,1.0,1,SACCADE
3932000,339.08,689.03,1.0,1,SACCADE
3967200,331.18,696.48,1.0,1,FIX
3981000,316.9,691.37,1.0,1,FIX
4002400,333.83,707.92,1.0,1,UNKNOWN
4031600,406.84,703.49,1.0,1,UNKNOWN
4045400,443.11,698.02,1.0,1,UNKNOWN
4060100,366.13,698.22,1.0,1,UNKNOWN
