%@metadata width_px 1920.0
%@metadata height_px 1080.0
%@metadata width_mm 540.0
%@metadata height_mm 254.0
%@metadata distance_mm 620.0
% The number after speed, direction denotes the step size that was used for the calculation.
% Acceleration was calculated between two adjacent samples of the already low pass filtered velocity
@RELATION gaze_labels

@ATTRIBUTE time INTEGER
@ATTRIBUTE x NUMERIC
@ATTRIBUTE y NUMERIC
@ATTRIBUTE confidence NUMERIC
@ATTRIBUTE handlabeller_final INTEGER
@ATTRIBUTE EYE_MOVEMENT_TYPE {UNKNOWN, FIX, SACCADE, SP, NOISE, BLINK, NOISE_CLUSTER, PSO}

@DATA
0,5.32,707.85,1.0,0,NOISE
14100,-6.51,707.07,1.0,0,NOISE
43000,0.97,708.47,1.0,0,NOISE
64600,-16.39,697.13,1.0,0,NOISE
79000,-16.89,707.52,1.0,0,NOISE
93100,-13.77,712.14,1.0,0,NOISE
107900,-4.64,700.33,1.0,0,NOISE
122000,19.47,696.67,1.0,0,NOISE
143000,-9.32,706.75,1.0,0,NOISE
171800,3.31,702.87,1.0,0,NOISE
186000,12.27,693.5,1.0,0,UNKNOWN
207300,18.32,698.74,1.0,0,UNKNOWN
222200,18.64,708.54,1.0,0,UNKNOWN
236700,121.73,692.47,1.0,0,UNKNOWN
251200,289.81,687.35,1.0,0,UNKNOWN
265900,279.49,691.2,1.0,0,UNKNOWN
286900,299.22,677.35,1.0,0,UNKNOWN
315200,321.91,696.22,1.0,0,UNKNOWN
330100,302.51,689.75,1.0,0,UNKNOWN
365900,334.65,691.32,1.0,0,UNKNOWN
380000,269.79,688.15,1.0,0,UNKNOWN
394400,314.0,693.51,1.0,0,UNKNOWN
429600,239.86,693.71,1.0,0,UNKNOWN
443600,310.62,684.82,1.0,0,UNKNOWN
457800,174.6,698.26,1.0,0,UNKNOWN
479100,68.56,703.82,1.0,0,UNKNOWN
493100,105.19,698.44,1.0,0,UNKNOWN
507200,85.95,704.7,1.0,0,UNKNOWN
521900,95.72,706.22,1.0,0,UNKNOWN
542700,96.63,684.79,1.0,0,UNKNOWN
571900,111.15,693.35,1.0,0,UNKNOWN
585900,88.96,705.34,1.0,0,UNKNOWN
608000,59.23,695.88,1.0,0,UNKNOWN
622300,74.55,719.55,1.0,4,UNKNOWN
636800,89.31,784.6,1.0,4,UNKNOWN
650800,297.21,917.51,1.0,4,UNKNOWN
672600,828.76,1012.87,1.0,4,UNKNOWN
686600,917.75,953.64,1.0,4,UNKNOWN
716100,961.14,1145.42,1.0,4,UNKNOWN
751600,1008.2,1188.66,1.0,4,UNKNOWN
767000,1066.85,1209.25,1.0,4,UNKNOWN
794900,1055.26,1154.79,1.0,4,UNKNOWN
816100,1082.75,1147.99,1.0,4,UNKNOWN
830500,903.14,1004.48,1.0,0,UNKNOWN
844800,428.5,884.86,1.0,0,UNKNOWN
859400,310.0,805.83,1.0,0,UNKNOWN
873900,349.31,830.85,1.0,0,UNKNOWN
895400,120.94,706.33,1.0,0,UNKNOWN
924200,61.45,693.24,1.0,0,UNKNOWN
938800,134.23,694.11,1.0,0,UNKNOWN
960300,146.26,688.91,1.0,0,UNKNOWN
974800,57.68,706.89,1.0,0,UNKNOWN
988900,87.13,699.01,1.0,0,UNKNOWN
1003100,116.62,693.42,1.0,0,UNKNOWN
1024500,122.4,690.56,1.0,0,UNKNOWN
1039500,111.51,707.65,1.0,0,UNKNOWN
1068200,82.55,706.3,1.0,0,UNKNOWN
1082200,149.35,711.84,1.0,0,UNKNOWN
1117900,159.67,714.81,1.0,0,UNKNOWN
1131900,201.2,715.14,1.0,0,UNKNOWN
1168200,195.42,718.26,1.0,0,UNKNOWN
1182200,191.39,713.06,1.0,0,UNKNOWN
1197100,162.92,716.34,1.0,0,UNKNOWN
1211100,129.03,717.32,1.0,0,UNKNOWN
1232700,129.8,727.04,1.0,0,UNKNOWN
1248100,159.78,721.65,1.0,0,UNKNOWN
1262000,164.07,712.16,1.0,0,UNKNOWN
1290900,198.27,695.74,1.0,0,UNKNOWN
1312000,185.97,715.52,1.0,0,UNKNOWN
1326700,153.59,723.44,1.0,0,UNKNOWN
1340900,176.78,721.95,1.0,0,UNKNOWN
1355600,187.44,722.34,1.0,0,UNKNOWN
1369800,204.55,729.88,1.0,0,UNKNOWN
1391200,160.44,732.15,1.0,0,UNKNOWN
1405700,212.41,710.49,1.0,0,UNKNOWN
1434100,138.74,722.67,1.0,0,UNKNOWN
1455400,222.09,711.96,1.0,0,UNKNOWN
1484200,294.79,707.74,1.0,0,UNKNOWN
1498800,357.43,697.9,1.0,0,UNKNOWN
1520600,341.57,703.19,1.0,0,UNKNOWN
1549800,388.28,705.03,1.0,0,UNKNOWN
1563800,400.74,706.58,1.0,0,UNKNOWN
1578200,381.44,706.51,1.0,0,UNKNOWN
1599800,408.9,683.98,1.0,0,UNKNOWN
1614500,410.5,693.48,1.0,0,UNKNOWN
1629000,326.17,703.96,1.0,0,UNKNOWN
1658100,321.62,709.45,1.0,0,UNKNOWN
1679900,364.09,689.52,1.0,0,UNKNOWN
1694400,398.51,692.82,1.0,0,UNKNOWN
1709500,451.4,696.95,1.0,0,UNKNOWN
1724200,693.73,709.87,1.0,0,UNKNOWN
1738700,766.27,754.46,1.0,0,UNKNOWN
1759700,769.35,748.52,1.0,0,UNKNOWN
1774000,734.4,733.13,1.0,0,UNKNOWN
1802900,787.07,742.81,1.0,0,UNKNOWN
1824800,745.6,751.58,1.0,0,UNKNOWN
1839300,773.11,753.14,1.0,0,UNKNOWN
1868200,676.55,725.91,1.0,0,UNKNOWN
1882500,727.18,708.9,1.0,0,UNKNOWN
1918200,806.94,762.73,1.0,0,UNKNOWN
1932200,796.99,768.91,1.0,0,UNKNOWN
1947300,775.71,739.75,1.0,0,UNKNOWN
1968400,906.26,771.38,1.0,0,UNKNOWN
1982400,1190.29,751.46,1.0,0,UNKNOWN
1997300,1345.82,764.47,1.0,0,UNKNOWN
2011700,1259.55,754.05,1.0,0,UNKNOWN
2025900,1263.81,747.18,1.0,0,UNKNOWN
2048300,1230.32,746.89,1.0,0,UNKNOWN
2077000,1230.82,752.99,1.0,0,UNKNOWN
2091500,1159.58,730.26,1.0,0,UNKNOWN
2105900,1188.12,745.95,1.0,0,UNKNOWN
2127200,1196.43,735.34,1.0,0,UNKNOWN
2140900,1246.06,727.93,1.0,0,UNKNOWN
2155200,1183.03,748.56,1.0,0,UNKNOWN
2169800,1200.82,715.96,1.0,0,UNKNOWN
2191100,990.49,746.69,1.0,0,UNKNOWN
2205500,925.63,706.23,1.0,0,UNKNOWN
2234000,1067.29,741.97,1.0,0,UNKNOWN
2255200,1048.95,729.8,1.0,0,UNKNOWN
2269900,1082.42,750.98,1.0,0,UNKNOWN
2299600,1044.32,713.22,1.0,0,UNKNOWN
2314000,1050.82,745.14,1.0,0,UNKNOWN
2335800,1083.35,731.13,1.0,0,UNKNOWN
2350000,1040.14,738.81,1.0,0,UNKNOWN
2364300,1018.32,735.43,1.0,0,UNKNOWN
2378900,1074.78,735.89,1.0,0,UNKNOWN
2399800,1409.38,772.77,1.0,0,UNKNOWN
2414300,1563.01,771.67,1.0,0,UNKNOWN
2428600,1351.7,753.74,1.0,0,UNKNOWN
2442700,1372.94,743.58,1.0,0,UNKNOWN
2463800,1380.23,758.27,1.0,0,UNKNOWN
2492900,1384.29,754.64,1.0,0,UNKNOWN
2506900,1390.05,745.15,1.0,0,UNKNOWN
2528000,1346.86,762.78,1.0,0,UNKNOWN
2542000,1338.19,749.84,1.0,0,UNKNOWN
2556000,1397.81,766.12,1.0,0,UNKNOWN
2570000,1355.3,751.26,1.0,0,UNKNOWN
2591300,1444.15,763.11,1.0,0,UNKNOWN
2619700,1371.66,744.59,1.0,0,UNKNOWN
2633800,1503.53,787.66,1.0,0,UNKNOWN
2669700,1427.46,767.62,1.0,0,UNKNOWN
2683700,1392.04,764.95,1.0,0,UNKNOWN
2698200,1392.5,743.32,1.0,0,UNKNOWN
2720000,1445.49,757.57,1.0,0,UNKNOWN
2734200,1393.65,778.31,1.0,0,UNKNOWN
2749100,1405.28,755.27,1.0,0,UNKNOWN
2763000,1336.05,737.91,1.0,0,UNKNOWN
2777800,1320.36,762.22,1.0,0,UNKNOWN
2799800,1085.86,736.06,1.0,0,UNKNOWN
2814200,911.96,756.81,1.0,0,UNKNOWN
2828700,916.07,707.89,1.0,0,UNKNOWN
2842700,934.74,730.0,1.0,0,UNKNOWN
2864500,954.15,728.0,1.0,0,UNKNOWN
2893900,940.49,731.29,1.0,0,UNKNOWN
2908500,1054.76,725.69,1.0,0,UNKNOWN
2922600,968.95,764.25,1.0,0,UNKNOWN
2944800,980.65,757.59,1.0,0,UNKNOWN
2959700,953.51,764.53,1.0,0,UNKNOWN
2987700,613.22,766.94,1.0,0,UNKNOWN
3002000,499.86,753.43,1.0,0,UNKNOWN
3036900,592.67,748.89,1.0,0,UNKNOWN
3050900,636.53,779.33,1.0,0,UNKNOWN
3072400,625.37,765.07,1.0,0,UNKNOWN
3087300,478.1,740.47,1.0,0,UNKNOWN
3102100,513.65,736.38,1.0,0,UNKNOWN
3116600,534.1,734.97,1.0,0,UNKNOWN
3130700,443.74,689.93,1.0,0,UNKNOWN
3152300,465.84,724.09,1.0,0,UNKNOWN
3166800,534.37,742.62,1.0,0,UNKNOWN
3195300,513.97,727.21,1.0,0,UNKNOWN
3209900,465.36,723.17,1.0,0,UNKNOWN
3231600,493.82,716.27,1.0,0,UNKNOWN
3246100,518.99,696.94,1.0,0,UNKNOWN
3260900,561.27,720.07,1.0,0,UNKNOWN
3274900,525.66,736.68,1.0,0,UNKNOWN
3289900,526.62,723.1,1.0,0,UNKNOWN
3310800,498.56,713.88,1.0,0,UNKNOWN
3325200,479.11,710.2,1.0,0,UNKNOWN
3354000,471.35,716.51,1.0,0,UNKNOWN
3374900,450.41,707.77,1.0,0,UNKNOWN
3389900,389.45,708.78,1.0,0,UNKNOWN
3417900,376.33,701.48,1.0,0,UNKNOWN
3440000,424.7,713.39,1.0,0,UNKNOWN
3454500,420.34,707.23,1.0,0,UNKNOWN
3469900,449.06,729.32,1.0,0,UNKNOWN
3484400,428.51,748.18,1.0,0,UNKNOWN
3499000,401.97,730.07,1.0,0,UNKNOWN
3519900,408.51,723.36,1.0,0,UNKNOWN
3548300,422.45,708.73,1.0,0,UNKNOWN
3562900,427.13,700.93,1.0,0,UNKNOWN
3583800,391.18,699.76,1.0,0,UNKNOWN
3598900,394.63,705.51,1.0,0,UNKNOWN
3613100,445.12,701.61,1.0,0,UNKNOWN
3627800,431.23,702.37,1.0,0,UNKNOWN
3642000,438.82,731.29,1.0,0,UNKNOWN
3663700,418.47,720.97,1.0,0,UNKNOWN
3692600,397.39,718.47,1.0,0,UNKNOWN
3706900,410.76,708.58,1.0,0,UNKNOWN
3743000,408.4,730.69,1.0,0,UNKNOWN
3757400,411.55,744.63,1.0,0,UNKNOWN
3786500,437.3,715.56,1.0,0,UNKNOWN
3807500,443.57,729.22,1.0,0,UNKNOWN
3822900,408.0,730.01,1.0,0,UNKNOWN
3836800,415.34,700.61,1.0,0,UNKNOWN
3851300,446.11,710.72,1.0,0,UNKNOWN
3872300,377.78,713.65,1.0,0,UNKNOWN
3886700,416.86,716.75,1.0,0,UNKNOWN
3900900,436.64,730.49,1.0,0,UNKNOWN
3929800,428.55,712.03,1.0,0,UNKNOWN
