%@metadata width_px 1920.0
%@metadata height_px 1080.0
%@metadata width_mm 540.0
%@metadata height_mm 254.0
%@metadata distance_mm 620.0
% The number after speed, direction denotes the step size that was used for the calculation.
% Acceleration was calculated between two adjacent samples of the already low pass filtered velocity
@RELATION gaze_labels

@ATTRIBUTE time INTEGER
@ATTRIBUTE x NUMERIC
@ATTRIBUTE y NUMERIC
@ATTRIBUTE confidence NUMERIC
@ATTRIBUTE handlabeller_final INTEGER
@ATTRIBUTE EYE_MOVEMENT_TYPE {UNKNOWN, FIX, SACCADE, SP, NOISE, BLINK, NOISE_CLUSTER, PSO}

@DATA
0,-29.92,703.06,1.0,1,FIX
21400,-19.37,694.27,1.0,1,FIX
35800,-30.34,697.2,1.0,1,FIX
50700,8.0,693.25,1.0,1,FIX
65400,-27.9,703.26,1.0,1,FIX
96000,-36.39,689.27,1.0,1,FIX
118500,-30.23,699.92,1.0,1,FIX
133000,-9.8,694.43,1.0,1,FIX
161500,-15.9,698.95,1.0,1,FIX
176200,-24.68,699.49,1.0,1,SACCADE
210900,-6.33,695.48,1.0,2,SACCADE
226200,11.59,702.33,1.0,3,SACCADE
240200,125.13,677.64,1.0,1,SP
261300,356.75,680.6,1.0,1,FIX
276200,327.76,680.62,1.0,1,FIX
290200,383.47,704.48,1.0,1,FIX
304800,319.44,685.67,1.0,1,FIX
326500,322.31,689.91,1.0,1,FIX
340400,331.72,697.8,1.0,1,FIX
368400,324.14,697.71,1.0,1,FIX
390500,320.95,689.26,1.0,1,FIX
404800,346.35,689.16,1.0,1,FIX
419100,309.96,676.56,1.0,1,FIX
433400,367.26,700.58,1.0,1,SACCADE
454400,321.45,679.45,1.0,2,SACCADE
468800,306.11,683.26,1.0,3,FIX
497200,214.28,712.78,1.0,1,FIX
533400,235.86,690.01,1.0,1,FIX
547400,197.52,688.51,1.0,1,FIX
561500,190.22,692.53,1.0,1,FIX
596500,222.33,704.91,1.0,1,FIX
610900,225.24,705.32,1.0,1,FIX
625000,235.88,701.54,1.0,1,FIX
646100,220.71,699.88,1.0,1,FIX
660100,243.33,685.58,1.0,1,FIX
688900,223.71,699.1,1.0,1,FIX
704500,227.36,699.75,1.0,2,SACCADE
726000,206.68,695.48,1.0,3,SACCADE
740800,217.85,698.6,1.0,3,FIX
756200,294.64,690.74,1.0,1,FIX
770100,360.49,682.0,1.0,1,FIX
784200,347.31,690.89,1.0,1,FIX
806000,393.23,684.77,1.0,1,FIX
820300,391.21,684.25,1.0,1,FIX
834900,375.3,690.95,1.0,1,SACCADE
848800,331.14,688.26,1.0,2,SACCADE
884800,396.55,712.27,1.0,3,SP
913200,657.96,683.73,1.0,1,FIX
935000,629.44,681.56,1.0,1,FIX
963900,715.35,723.8,1.0,1,FIX
978400,696.06,718.47,1.0,1,FIX
993100,659.68,718.19,1.0,1,FIX
1015100,650.11,686.35,1.0,1,FIX
1028800,736.15,734.51,1.0,1,FIX
1043000,714.86,712.52,1.0,1,FIX
1057600,698.88,724.65,1.0,1,FIX
1079000,692.74,732.04,1.0,1,FIX
1107900,698.86,712.59,1.0,1,FIX
1121900,647.98,718.94,1.0,1,FIX
1136300,735.74,716.61,1.0,1,FIX
1157800,694.4,707.08,1.0,1,FIX
1172700,675.4,714.69,1.0,1,SACCADE
1187200,654.22,700.85,1.0,2,SACCADE
1201500,736.69,721.88,1.0,2,SACCADE
1216100,754.97,738.31,1.0,2,SP
1238100,1240.89,729.21,1.0,3,FIX
1252600,1215.95,741.62,1.0,1,FIX
1281400,1235.92,741.04,1.0,1,FIX
1296100,1305.89,740.3,1.0,1,FIX
1317200,1264.4,734.95,1.0,1,FIX
1346300,1336.25,777.53,1.0,1,FIX
1361000,1270.02,757.52,1.0,1,FIX
1376800,1320.29,751.67,1.0,1,FIX
1398000,1258.69,737.81,1.0,1,FIX
1411900,1298.91,735.18,1.0,1,FIX
1426600,1299.72,771.78,1.0,1,FIX
1440900,1273.69,746.75,1.0,1,FIX
1462000,1299.66,770.81,1.0,1,SACCADE
1490400,1287.97,739.84,1.0,2,SACCADE
1504900,1288.97,745.0,1.0,3,SP
1526700,1132.23,757.78,1.0,1,FIX
1541000,945.26,758.51,1.0,1,FIX
1554800,962.8,747.13,1.0,1,FIX
1568900,976.53,763.61,1.0,1,FIX
1589900,933.02,718.74,1.0,1,FIX
1604300,973.21,759.56,1.0,1,FIX
1633000,924.42,733.93,1.0,1,FIX
1668100,909.68,744.19,1.0,1,FIX
1682400,973.91,748.95,1.0,1,SACCADE
1717800,991.87,765.45,1.0,3,SACCADE
1731700,947.77,742.47,1.0,3,SP
1745700,1092.06,744.03,1.0,1,FIX
1759900,1275.91,743.57,1.0,1,FIX
1780900,1278.87,747.2,1.0,1,FIX
1796200,1289.58,718.52,1.0,1,FIX
1810400,1302.96,726.72,1.0,1,FIX
1824900,1265.22,765.41,1.0,1,FIX
1860400,1237.85,739.29,1.0,1,FIX
1875100,1271.55,749.62,1.0,1,FIX
1889300,1309.29,723.09,1.0,2,SACCADE
1903900,1307.96,733.41,1.0,2,SACCADE
1925100,1266.45,763.22,1.0,3,SACCADE
1939600,986.27,780.17,1.0,3,SP
1968400,431.54,746.06,1.0,1,FIX
1990000,446.41,710.19,1.0,1,FIX
2004800,444.01,707.43,1.0,1,FIX
2033400,438.2,698.45,1.0,1,FIX
2054300,440.58,706.48,1.0,1,FIX
2083100,415.17,701.99,1.0,4,FIX
2097500,429.27,691.03,1.0,4,FIX
2112000,441.01,696.0,1.0,4,FIX
2133900,430.93,706.41,1.0,4,NOISE
2148100,448.63,740.26,1.0,4,NOISE
2162800,334.99,786.39,1.0,4,NOISE
2177000,354.53,873.27,1.0,4,NOISE
2198300,815.91,931.16,1.0,4,NOISE
2212800,680.85,1027.92,1.0,4,NOISE
2241700,938.49,1143.66,1.0,4,NOISE
2256000,1032.95,1134.61,1.0,4,NOISE
2277000,987.17,1100.92,1.0,4,NOISE
2291400,892.64,1075.06,1.0,4,NOISE
2306100,707.47,916.06,1.0,4,NOISE
2320400,707.47,916.06,1.0,4,NOISE
2341900,675.26,771.17,1.0,4,NOISE
2356200,552.61,711.14,1.0,4,NOISE
2370900,825.74,806.78,1.0,4,FIX
2400400,576.98,647.29,1.0,4,FIX
2416000,558.77,632.78,1.0,4,FIX
2436900,543.0,701.13,1.0,4,FIX
2465000,496.48,701.39,1.0,1,FIX
2486200,537.92,714.94,1.0,1,FIX
2500600,596.23,746.09,1.0,1,FIX
2516200,551.49,730.94,1.0,2,FIX
2530000,485.05,716.68,1.0,2,FIX
2544500,539.11,724.14,1.0,1,FIX
2566100,470.23,724.86,1.0,1,SACCADE
2580500,468.49,737.14,1.0,1,FIX
2608900,428.13,708.67,1.0,1,FIX
2630400,394.14,703.07,1.0,1,FIX
2645200,390.55,697.23,1.0,1,FIX
2659700,419.53,715.31,1.0,1,FIX
2673900,432.29,708.06,1.0,1,FIX
2687900,436.79,705.31,1.0,1,FIX
2709800,416.61,705.45,1.0,1,FIX
2738900,427.91,708.93,1.0,1,FIX
2753000,427.59,716.15,1.0,1,FIX
2789500,427.13,702.84,1.0,1,FIX
2804100,467.06,716.82,1.0,1,FIX
2832100,388.76,686.06,1.0,1,FIX
2853400,443.76,705.54,1.0,1,FIX
2867400,469.33,714.26,1.0,1,FIX
2881900,442.44,700.19,1.0,1,FIX
2896200,389.47,693.01,1.0,1,FIX
2917300,427.78,701.23,1.0,1,FIX
2931700,371.38,699.36,1.0,1,FIX
2946400,456.67,721.69,1.0,1,FIX
2960700,427.87,708.71,1.0,1,FIX
2981900,392.31,699.03,1.0,1,FIX
3010700,392.38,700.58,1.0,1,FIX
3025700,397.4,704.37,1.0,1,FIX
3039800,431.12,712.51,1.0,1,FIX
3061800,432.93,697.35,1.0,1,FIX
3075900,398.88,689.05,1.0,1,FIX
3089900,418.46,704.0,1.0,1,FIX
3104300,423.25,707.37,1.0,1,FIX
3125800,442.22,692.21,1.0,2,FIX
