@RELATION gaze_labels

%@METADATA width_px 1920
%@METADATA height_px 1080
%@METADATA width_mm 540.00
%@METADATA height_mm 254.00
%@METADATA distance_mm 620.00


@ATTRIBUTE time INTEGER
@ATTRIBUTE x NUMERIC
@ATTRIBUTE y NUMERIC
@ATTRIBUTE confidence NUMERIC
@ATTRIBUTE handlabeller1 INTEGER
@ATTRIBUTE handlabeller2 INTEGER
@ATTRIBUTE handlabeller_final INTEGER
@ATTRIBUTE speed_1 numeric
@ATTRIBUTE direction_1 numeric
@ATTRIBUTE acceleration_1 numeric
@ATTRIBUTE speed_2 numeric
@ATTRIBUTE direction_2 numeric
@ATTRIBUTE acceleration_2 numeric
@ATTRIBUTE speed_4 numeric
@ATTRIBUTE direction_4 numeric
@ATTRIBUTE acceleration_4 numeric
@ATTRIBUTE speed_8 numeric
@ATTRIBUTE direction_8 numeric
@ATTRIBUTE acceleration_8 numeric
@ATTRIBUTE speed_16 numeric
@ATTRIBUTE direction_16 numeric
@ATTRIBUTE acceleration_16 numeric

%The number after speed, direction denotes the step size that was used for the calculation.
%Acceleration was calculated between two adjacent samples of the already low pass filtered velocity

@DATA
0,204.36,650.37,1.00,1,1,1,0.00,0.00,0.00,525.46,-0.15,0.00,421.79,2.38,0.00,477.78,2.50,0.00,213.76,-0.05,0.00
14600,211.94,649.22,1.00,1,1,1,525.46,-0.15,35990.35,421.79,2.38,61882.49,1521.56,2.63,76563.69,340.91,2.20,12548.15,58.09,-3.09,18604.29
29300,195.44,658.93,1.00,1,1,1,1302.43,2.61,122504.93,1521.56,2.63,76042.84,477.78,2.50,71381.98,371.92,0.02,42961.35,218.32,-2.96,10947.49
43900,173.14,671.17,1.00,1,1,1,1742.54,2.64,30309.60,539.11,2.60,67316.34,340.91,2.20,12548.15,979.91,-0.30,43641.87,273.66,-0.63,30996.11
58800,181.84,667.17,1.00,1,1,1,642.73,-0.43,160003.48,933.07,-0.21,97502.16,371.92,0.02,42384.68,213.76,-0.05,51972.90,1064.22,-0.16,55662.70
73500,200.16,665.48,1.00,1,1,1,1251.69,-0.09,46221.03,1054.79,-0.20,8302.89,979.91,-0.30,43344.99,58.09,-3.09,18477.73,2126.74,-0.12,72399.60
95900,220.21,659.46,1.00,1,1,1,934.25,-0.29,17120.86,1022.66,-0.36,7637.61,684.63,-0.34,13263.09,218.32,-2.96,7184.29,3197.43,-0.10,47865.28
110300,235.38,652.21,1.00,1,1,1,1167.89,-0.45,19704.85,399.26,-0.65,45096.40,210.78,-1.35,41775.90,273.66,-0.63,31426.61,3411.80,-0.09,15084.69
139800,234.20,648.91,1.00,1,1,1,118.69,-1.91,39379.24,718.11,-3.03,35444.13,701.96,-3.03,25537.80,1064.22,-0.16,28114.38,1942.45,-0.07,49827.82
154500,203.82,648.80,1.00,1,1,1,2066.68,-3.14,138058.17,1906.56,3.08,81920.32,363.94,-2.98,23062.33,2126.74,-0.12,72399.60,1757.08,-0.08,12625.21
176800,163.78,653.05,1.00,2,2,2,1805.64,3.04,15050.72,69.31,-0.60,88170.89,1542.13,-0.06,85127.00,3197.43,-0.10,48079.92,1670.08,-0.10,4199.62
192200,205.98,647.32,1.00,2,2,2,2765.04,-0.13,296767.10,5781.36,-0.06,371559.12,4620.49,-0.07,199893.42,3411.80,-0.09,14105.17,1664.10,-0.13,3495.74
206900,337.46,642.21,1.00,1,1,1,8951.39,-0.04,422092.10,10489.03,-0.06,320250.06,8480.65,-0.07,262613.02,3573.22,-0.07,11522.91,1879.53,-0.12,14659.30
221500,512.72,628.28,1.00,1,1,1,12041.42,-0.08,213589.31,11244.76,-0.08,53291.57,7607.04,-0.07,59837.12,3319.42,-0.07,17388.48,2243.02,-0.12,24897.54
236300,667.03,616.10,1.00,1,1,1,10458.87,-0.08,106929.43,5697.49,-0.09,374835.50,5253.72,-0.07,159007.86,3461.85,-0.08,9707.72,2656.44,-0.10,28130.32
265700,763.61,606.60,1.00,1,1,1,3300.99,-0.10,243496.31,1847.34,-0.05,131011.27,2406.81,-0.08,96840.38,2900.58,-0.09,19117.59,2772.71,-0.09,4026.88
288000,762.40,611.12,1.00,1,1,1,209.87,1.83,151584.80,428.79,3.02,102027.05,329.76,-0.17,93202.76,2585.98,-0.11,14418.95,2775.63,-0.09,722.09
317000,741.78,609.34,1.00,1,1,1,713.67,-3.06,24416.83,1476.84,-3.14,36312.16,648.98,-3.09,33576.84,2339.57,-0.13,8578.44,2682.02,-0.08,3265.69
331600,698.02,610.87,1.00,2,2,2,2999.75,3.11,157048.45,903.65,-3.00,40651.84,263.25,-0.90,56895.97,2230.31,-0.11,7921.81,2785.71,-0.08,7103.89
363300,700.34,603.62,1.00,2,2,2,240.33,-1.26,97454.32,1750.17,-0.23,82470.75,2267.95,-0.18,65530.13,2165.57,-0.11,2049.10,2755.22,-0.08,962.17
378000,777.13,592.56,1.00,2,2,2,5277.82,-0.14,352186.80,6244.13,-0.12,306617.10,4415.83,-0.10,147008.73,2018.33,-0.12,10138.33,2439.78,-0.08,21459.45
399800,926.54,575.72,1.00,1,1,1,6896.84,-0.11,74752.70,7825.95,-0.07,74503.80,6324.31,-0.08,87690.99,1951.15,-0.10,3348.02,1846.69,-0.08,27207.09
414500,1062.08,572.58,1.00,1,1,1,9223.08,-0.02,165467.34,6436.70,-0.04,95821.82,4530.54,-0.06,122279.08,2084.74,-0.09,9294.68,1461.24,-0.07,26228.60
429200,1115.64,568.67,1.00,1,1,1,3653.56,-0.07,379387.42,432.13,0.11,408822.57,1533.58,0.05,204954.03,2567.05,-0.08,32887.37,1181.47,-0.07,19034.18
443800,1074.66,573.99,1.00,1,1,1,2830.54,3.01,443943.40,3394.30,3.02,261379.35,829.12,2.95,160727.57,2254.29,-0.04,22366.02,1249.96,-0.07,4702.72
458600,1016.57,580.67,1.00,1,1,1,3950.61,3.03,75753.14,1812.65,3.01,106891.27,1174.16,3.02,23761.42,1229.05,0.04,69746.98,1310.53,-0.08,4106.07
480900,1008.01,582.97,1.00,1,1,1,397.51,2.88,159548.30,599.53,-0.12,108167.59,116.36,1.56,52324.05,492.28,0.14,33228.24,1400.13,-0.10,4163.57
495400,1038.48,578.05,1.00,1,1,1,2128.44,-0.16,174083.03,2285.05,-0.02,116523.21,1008.14,0.01,69806.73,126.22,0.71,27075.94,1260.32,-0.08,9714.38
510100,1074.73,581.71,1.00,1,1,1,2478.10,0.10,47069.53,1355.20,0.06,64022.34,1668.65,-0.01,44976.38,448.27,0.14,23762.60,940.06,-0.13,22051.26
539500,1098.12,581.85,1.00,1,1,1,795.91,0.01,57394.96,1259.78,0.01,4159.71,1127.69,0.03,18487.67,696.19,-0.01,8876.96,652.45,-0.16,9820.37
554100,1130.15,581.99,1.00,1,1,1,2193.86,0.00,95750.45,857.63,-0.03,27670.95,807.74,0.02,21924.27,666.56,-0.12,5467.45,536.63,-0.20,8052.36
576300,1129.67,580.84,1.00,1,1,1,56.28,-1.97,99845.33,268.47,0.11,26710.47,316.53,-0.10,22287.79,141.94,-0.20,23661.05,593.88,-0.10,3471.31
590900,1139.98,583.06,1.00,1,1,1,722.12,0.21,51767.76,365.20,-3.05,43400.65,476.71,-2.82,53211.50,161.44,-1.94,15922.20,895.65,-0.02,21102.26
605700,1118.98,579.83,1.00,1,1,1,1435.36,-2.99,145719.42,1406.95,-2.87,70889.12,956.55,-3.04,33880.65,271.41,-1.04,14461.94,1033.55,0.00,9442.58
620200,1100.23,572.12,1.00,1,1,1,1398.06,-2.75,23267.43,1352.59,-3.04,16068.99,846.35,-2.79,17217.97,614.27,-0.42,29110.88,984.28,-0.04,4393.55
649600,1059.92,573.66,1.00,1,1,1,1371.98,3.10,20029.54,601.58,-2.70,27520.30,375.03,-1.53,27682.74,1020.35,-0.18,15291.97,873.82,-0.06,3866.28
686100,1064.35,555.25,1.00,2,2,2,518.52,-1.33,43634.62,1312.31,-0.45,48035.93,1302.52,-0.25,34171.79,1274.20,-0.06,7825.20,787.62,-0.13,2784.86
700900,1120.44,544.15,1.00,3,3,3,3862.97,-0.20,248401.17,5317.29,-0.09,278207.92,2407.76,-0.10,76823.24,1314.95,0.01,7108.73,748.31,-0.16,3134.03
715600,1220.58,541.19,1.00,1,1,1,6815.55,-0.03,209016.60,3603.20,0.02,121462.86,3691.29,0.04,92117.85,1237.25,-0.00,5372.36,701.86,-0.16,3169.04
752600,1306.67,548.72,1.00,1,1,1,2335.48,0.09,121734.71,2823.12,0.19,25330.87,2876.98,0.16,24392.83,1572.29,-0.05,9262.93,657.84,-0.14,1242.58
767500,1364.53,568.52,1.00,1,1,1,4104.59,0.33,128931.56,1881.54,0.65,94723.39,1266.57,0.30,109550.25,1836.71,-0.02,18086.61,378.00,-0.18,18844.14
782100,1350.93,582.21,1.00,1,1,1,1322.26,2.35,330906.10,1558.08,3.07,220507.75,233.73,1.00,75155.61,1395.53,0.00,30338.69,47.30,-0.08,22671.51
796900,1318.85,571.95,1.00,1,1,1,2275.34,-2.83,138266.32,1457.00,-2.60,61749.35,798.90,-2.73,67722.62,841.05,0.06,37673.57,301.84,2.85,23528.97
811500,1314.13,560.29,1.00,1,1,1,861.93,-1.96,126466.45,768.18,-1.45,92195.47,676.82,-2.15,29731.61,209.43,0.13,43308.97,516.63,2.91,14783.52
826200,1321.61,549.61,1.00,1,1,1,887.02,-0.96,56890.11,535.27,-0.91,28137.73,526.53,-0.75,53252.34,767.62,-3.07,66445.59,705.56,2.84,13140.84
848400,1326.28,544.72,1.00,1,1,1,304.57,-0.81,26467.15,617.23,-0.06,21588.21,283.79,-0.35,12989.30,1552.68,-3.13,35452.56,865.32,2.90,7521.90
862700,1344.10,548.22,1.00,2,2,2,1270.36,0.19,79466.51,276.66,0.68,31794.86,804.04,2.96,75863.39,2136.58,3.05,42998.86,1068.15,2.97,15002.31
892500,1335.73,552.43,1.00,2,2,2,314.37,2.68,51372.65,1967.16,2.99,72575.66,2657.91,2.97,62210.86,2809.26,3.02,22739.67,1352.71,3.04,9950.26
907200,1257.54,561.28,1.00,3,3,3,5352.90,3.03,344153.76,6922.94,3.01,337166.67,4219.68,2.99,106366.43,3099.95,3.00,20273.46,1395.21,3.13,8418.26
921900,1133.89,578.66,1.00,1,1,1,8494.17,3.00,214049.55,6973.45,2.99,11754.19,6608.39,3.01,162617.61,3228.72,3.01,9350.56,1252.90,-3.07,12445.33
943600,1006.67,599.96,1.00,1,1,1,5944.30,2.98,117820.08,6354.50,3.00,28817.79,5922.64,3.00,31629.00,2866.77,3.04,17038.56,2136.58,3.05,42540.81
958300,904.84,610.84,1.00,1,1,1,6966.89,3.04,74275.48,4628.34,3.03,117807.51,3867.68,3.05,140507.27,2831.72,3.06,5072.13,2809.26,3.02,46098.10
973100,871.02,615.48,1.00,1,1,1,2306.37,3.01,315003.31,903.63,-2.85,257674.90,1409.55,-3.09,167656.04,1939.30,3.10,60655.05,3099.95,3.00,20136.48
988100,879.03,603.17,1.00,1,1,1,979.15,-0.99,202559.61,845.80,-0.58,105788.61,350.78,-1.01,107355.91,999.54,-2.99,65117.43,3228.72,3.01,9163.55
1017600,902.49,594.84,1.00,1,1,1,844.06,-0.34,20291.39,855.07,-0.38,5675.75,870.05,-0.52,19827.05,1409.55,-3.09,14489.05,2866.77,3.04,12533.45
1039800,920.02,586.62,1.00,1,1,1,872.01,-0.44,3956.79,893.50,-0.47,3753.35,1111.09,-0.48,11017.35,350.78,-1.01,72537.77,2831.72,3.06,3358.57
1069200,943.63,574.03,1.00,1,1,1,910.23,-0.49,2034.64,1417.91,-0.54,18058.91,893.50,-0.47,7406.48,870.05,-0.52,19894.48,1939.30,3.10,30533.83
1084000,973.71,554.29,1.00,1,1,1,2430.67,-0.58,103136.24,2430.67,-0.58,68601.93,1417.91,-0.54,35873.79,1111.09,-0.48,16526.02,999.54,-2.99,65997.39
