@RELATION gaze_labels

%@METADATA width_px 1920
%@METADATA height_px 1080
%@METADATA width_mm 540.00
%@METADATA height_mm 254.00
%@METADATA distance_mm 620.00


@ATTRIBUTE time INTEGER
@ATTRIBUTE x NUMERIC
@ATTRIBUTE y NUMERIC
@ATTRIBUTE confidence NUMERIC
@ATTRIBUTE handlabeller1 INTEGER
@ATTRIBUTE handlabeller2 INTEGER
@ATTRIBUTE handlabeller_final INTEGER
@ATTRIBUTE speed_1 numeric
@ATTRIBUTE direction_1 numeric
@ATTRIBUTE acceleration_1 numeric
@ATTRIBUTE speed_2 numeric
@ATTRIBUTE direction_2 numeric
@ATTRIBUTE acceleration_2 numeric
@ATTRIBUTE speed_4 numeric
@ATTRIBUTE direction_4 numeric
@ATTRIBUTE acceleration_4 numeric
@ATTRIBUTE speed_8 numeric
@ATTRIBUTE direction_8 numeric
@ATTRIBUTE acceleration_8 numeric
@ATTRIBUTE speed_16 numeric
@ATTRIBUTE direction_16 numeric
@ATTRIBUTE acceleration_16 numeric

%The number after speed, direction denotes the step size that was used for the calculation.
%Acceleration was calculated between two adjacent samples of the already low pass filtered velocity

@DATA
0,272.33,630.54,1.00,1,1,1,0.00,0.00,0.00,1599.76,3.01,0.00,926.16,2.85,0.00,286.80,0.21,0.00,255.76,-0.12,0.00
14700,249.03,633.70,1.00,1,1,1,1599.76,3.01,108827.53,926.16,2.85,47610.78,344.57,0.70,78412.80,765.47,0.03,33021.46,510.07,-0.12,17300.79
29400,246.25,638.35,1.00,1,1,1,368.73,2.11,95221.55,344.57,0.70,78412.80,286.80,0.21,11069.59,702.44,0.03,4305.75,1329.17,-0.16,55760.15
51700,258.82,641.87,1.00,1,1,1,585.31,0.27,34504.16,1223.58,-0.09,45252.44,765.47,0.03,21767.51,951.81,-0.17,13256.10,1759.73,-0.14,19336.11
66000,290.86,634.42,1.00,1,1,1,2300.28,-0.23,126495.35,1420.97,-0.16,15199.02,702.44,0.03,4426.19,255.76,-0.12,48701.24,1910.16,-0.10,11697.07
80700,299.52,635.43,1.00,1,1,1,593.20,0.12,119271.63,301.33,0.42,80244.70,951.81,-0.17,20109.59,510.07,-0.12,17300.79,2211.67,-0.09,20549.79
110300,303.05,639.85,1.00,1,1,1,191.15,0.90,16103.90,644.14,-0.18,14568.45,254.39,-0.42,23936.31,1329.17,-0.16,27691.69,2327.35,-0.09,3910.19
124900,327.51,630.21,1.00,1,1,1,1800.25,-0.38,120095.51,418.00,-1.13,35768.38,349.60,-0.35,6687.33,1759.73,-0.14,29533.92,2082.24,-0.05,18084.42
147100,309.67,625.96,1.00,1,1,1,825.78,-2.91,113608.95,138.82,-1.06,12593.13,1970.03,-0.22,73153.58,1910.16,-0.10,7534.60,1356.46,-0.04,32692.90
176500,330.98,623.95,1.00,2,2,2,727.94,-0.09,52140.35,3403.27,-0.14,112978.68,2376.77,-0.13,15285.60,2211.67,-0.09,10274.89,1391.08,-0.06,1304.30
191400,458.97,604.97,1.00,3,3,3,8683.84,-0.15,534027.58,5050.58,-0.11,110954.49,3322.17,-0.08,64199.51,2327.35,-0.09,7767.90,1477.46,-0.07,5976.48
220800,553.46,600.26,1.00,1,1,1,3218.08,-0.05,186734.62,3262.45,-0.03,61809.51,4423.53,-0.07,37496.14,2082.24,-0.05,8980.70,1843.13,-0.08,12454.10
243000,627.25,600.54,1.00,1,1,1,3323.90,0.00,9210.47,3682.65,-0.00,19245.14,2714.03,0.01,77832.60,2401.22,-0.04,14401.10,2031.40,-0.07,8501.23
257700,689.35,599.72,1.00,1,1,1,4224.78,-0.01,61438.11,1763.47,0.11,131966.38,1697.10,0.13,71561.21,2406.39,-0.04,822.79,2343.30,-0.06,21385.54
272400,678.80,606.08,1.00,1,1,1,837.99,2.60,337833.98,952.57,2.57,175249.53,945.43,0.22,51715.73,1650.42,0.00,51785.58,2643.83,-0.06,20447.40
287400,665.53,614.98,1.00,1,1,1,1065.40,2.55,15459.06,247.11,1.14,63340.74,386.44,2.66,84311.26,1957.73,-0.01,20622.76,2576.72,-0.05,4660.64
302200,681.87,612.78,1.00,1,1,1,1114.12,-0.13,143447.40,193.73,-0.91,25557.18,352.94,0.00,48475.70,2186.10,-0.05,16074.72,2764.09,-0.05,12670.92
317100,669.05,610.43,1.00,1,1,1,874.82,-2.96,131856.48,585.08,-0.31,29453.98,2252.47,-0.13,127717.56,2512.96,-0.02,22381.63,2895.40,-0.05,8819.97
338800,702.24,606.17,1.00,2,2,2,1542.05,-0.13,110153.13,3985.15,-0.10,157423.88,3122.75,-0.11,40176.10,3011.87,-0.03,23050.25,2172.34,-0.06,33337.95
353400,813.03,596.44,1.00,2,2,2,7617.75,-0.09,416250.05,5225.98,-0.09,85051.68,4615.87,-0.05,103413.23,3121.94,-0.06,9137.39,1769.20,-0.08,27705.70
383200,933.41,586.16,1.00,1,1,1,4054.18,-0.09,119583.46,5137.10,-0.01,12837.90,5401.15,-0.03,26435.77,3147.79,-0.07,1652.75,1407.61,-0.11,12240.45
397900,1041.61,593.12,1.00,1,1,1,7375.84,0.06,232695.80,5690.62,0.04,42445.35,3833.27,-0.02,106705.20,3363.74,-0.06,14814.77,1065.95,-0.12,23264.67
412700,1101.15,592.66,1.00,1,1,1,4023.52,-0.01,228054.85,2261.86,-0.05,232638.54,3183.91,-0.03,43881.92,2675.20,-0.10,47223.62,849.66,-0.11,14632.51
434800,1124.97,589.06,1.00,1,1,1,1089.94,-0.15,133421.27,1205.94,-0.28,50771.05,1835.62,-0.11,61623.33,1621.58,-0.14,47830.26,545.22,-0.04,13941.29
449200,1143.47,580.54,1.00,1,1,1,1414.36,-0.43,33082.29,1312.02,-0.23,8446.03,383.94,-1.14,116233.48,745.68,-0.27,61581.92,149.37,0.08,27584.38
464000,1162.26,580.27,1.00,1,1,1,1269.72,-0.01,38761.98,758.74,-2.64,131329.86,737.16,-2.62,53860.68,284.46,-2.36,62245.09,35.17,1.42,9838.96
493500,1113.98,564.41,1.00,1,1,1,1722.61,-2.82,100074.16,1769.46,-2.91,35835.06,1017.84,-2.87,12019.28,1037.49,-3.05,28422.26,130.60,2.70,4236.37
515600,1073.41,559.25,1.00,1,1,1,1850.64,-3.02,16443.14,1266.51,-2.98,23322.38,1615.44,-3.01,28348.01,1605.66,3.08,27238.11,408.27,2.92,12778.45
544900,1049.68,554.23,1.00,2,2,2,827.65,-2.93,35084.44,1463.14,3.12,10716.29,2229.00,3.07,24664.08,2345.44,3.06,25284.08,800.77,2.99,13460.66
559700,1008.90,560.74,1.00,2,2,2,2790.31,2.98,137789.96,3991.33,2.94,173292.92,2467.87,2.93,26427.83,2789.89,3.06,30033.63,1042.49,3.07,17198.56
574500,933.94,577.92,1.00,3,3,3,5196.44,2.92,163490.87,3353.73,2.87,46736.31,4009.35,2.95,104202.12,2794.66,3.01,9030.62,1163.12,3.10,8322.30
611400,842.03,607.85,1.00,1,1,1,2619.30,2.83,70412.13,4019.85,2.95,20085.05,4236.75,2.96,6353.50,2533.36,2.97,7552.40,1269.21,3.08,2929.05
626100,730.11,616.41,1.00,1,1,1,7635.87,3.07,348855.43,5845.05,3.06,128987.64,3365.63,2.97,59301.95,2585.77,2.95,5474.59,1337.61,3.06,5013.70
640800,670.75,621.69,1.00,1,1,1,4054.43,3.05,243679.73,2225.54,3.03,246376.45,2647.25,3.03,50361.15,1995.89,2.96,40143.61,1356.19,3.03,2804.19
655600,664.90,624.00,1.00,1,1,1,424.79,2.77,246557.24,552.90,0.20,186241.20,613.16,2.95,137622.63,1305.12,2.99,46831.11,1291.87,2.98,6417.97
670400,686.79,624.95,1.00,1,1,1,1480.14,0.04,126762.86,1029.35,-0.02,34157.82,758.30,-0.14,92634.68,843.35,3.09,31992.11,1114.89,2.95,12141.55
684700,694.85,623.28,1.00,1,1,1,575.60,-0.20,65229.94,962.95,-0.30,19494.26,770.47,-0.24,5278.72,62.60,-3.03,54658.50,821.89,2.87,21240.37
706800,720.31,614.70,1.00,1,1,1,1215.68,-0.33,29322.65,649.23,-0.43,14959.44,489.25,-0.29,12805.99,464.78,0.09,23862.72,303.29,2.71,23727.52
736200,725.26,609.38,1.00,1,1,1,247.14,-0.82,34192.48,98.45,-0.23,18811.25,341.62,-0.29,5021.33,373.76,0.09,3097.04,305.17,0.08,20021.08
750900,724.53,613.71,1.00,1,1,1,298.45,1.74,35558.33,242.44,2.13,21781.17,267.56,0.69,20022.65,382.15,-0.05,3638.44,852.37,-0.13,37942.14
765800,721.42,615.45,1.00,1,1,1,239.19,2.63,16026.07,588.56,0.89,37521.71,307.96,1.85,21155.55,864.57,-0.04,32377.66,1125.24,-0.12,18323.89
780600,735.48,627.34,1.00,1,1,1,1243.96,0.70,90995.43,372.49,1.70,28725.26,305.11,0.44,26802.51,1332.23,-0.08,31695.89,1148.96,-0.11,1712.12
802800,719.68,629.12,1.00,1,1,1,716.17,3.03,81619.65,243.31,-0.59,25382.28,1518.87,0.02,56123.13,2065.59,-0.08,33034.29,1048.33,-0.11,4532.91
817400,742.90,622.33,1.00,2,2,2,1657.07,-0.28,162043.07,3510.23,-0.11,225800.61,2380.11,-0.15,63090.07,2461.02,-0.10,27354.55,1088.03,-0.14,3589.82
832200,822.25,617.73,1.00,2,2,2,5370.44,-0.06,255005.78,4187.90,-0.13,46023.80,3874.51,-0.14,100993.63,2152.00,-0.11,20942.12,1077.59,-0.10,3442.01
861400,925.65,598.70,1.00,3,3,3,3600.44,-0.18,63422.20,4086.19,-0.15,5003.89,4282.26,-0.13,13994.99,1752.34,-0.16,13984.28,1010.76,-0.03,3227.92
883100,1027.78,585.84,1.00,1,1,1,4743.66,-0.13,53774.02,4396.42,-0.14,14635.34,2608.21,-0.17,77333.90,1620.81,-0.15,6089.51,820.76,0.08,9861.89
897800,1084.16,576.71,1.00,1,1,1,3885.39,-0.16,59285.15,905.22,-0.24,237909.31,1120.83,-0.17,101182.46,1679.66,-0.16,4194.96,452.58,0.24,25914.35
927200,1066.54,576.30,1.00,1,1,1,599.33,-3.12,152244.45,1597.59,3.05,84923.95,275.61,3.10,47436.51,1257.66,-0.13,14452.33,135.18,0.65,11337.04
941700,1014.35,583.46,1.00,1,1,1,3633.18,3.01,209856.25,1282.64,2.98,22671.43,519.22,-3.11,16898.90,706.77,0.05,39682.14,94.94,-2.93,15491.50
978600,1001.48,586.95,1.00,1,1,1,361.37,2.88,88756.97,422.64,-0.38,46007.19,348.55,2.64,7642.24,453.89,2.49,29640.69,186.88,-2.94,2492.09
993300,1034.59,575.34,1.00,2,2,2,2386.87,-0.34,186899.86,1367.88,0.08,68432.52,405.24,0.69,42370.27,1533.32,2.85,76099.30,236.80,-3.09,3950.66
1008200,1041.85,590.00,1.00,2,2,2,1097.83,1.11,167918.98,999.85,1.40,99596.96,860.58,2.19,62033.55,2159.30,2.94,43472.43,533.76,-3.13,19964.20
1022900,1039.64,604.50,1.00,2,2,2,998.10,1.72,43392.17,2711.09,2.64,174759.99,3223.47,2.76,172964.64,1911.81,3.02,20352.66,941.73,3.07,28027.30
1037600,971.91,628.23,1.00,3,3,3,4881.89,2.80,306183.09,6318.40,2.92,257494.94,4386.01,2.97,94543.79,2426.49,3.05,35309.09,1317.36,3.07,25552.71
1052500,857.22,645.74,1.00,3,3,3,7786.78,2.99,209480.22,5866.33,3.08,73750.05,4101.33,3.09,40493.57,2621.17,3.03,13812.13,1516.50,3.07,13379.18
1074700,754.64,640.76,1.00,1,1,1,4626.40,-3.09,152248.41,2958.35,-2.98,137254.33,3804.01,-3.11,20037.81,2770.25,3.07,8887.20,1472.38,3.07,1987.54
1104500,705.38,621.03,1.00,1,1,1,1780.38,-2.76,100680.89,2152.71,-2.90,27940.11,2343.09,-3.00,50253.45,2733.85,3.10,2958.79,1281.38,3.10,6487.39
1119200,661.69,617.56,1.00,1,1,1,2981.60,-3.06,94311.71,1265.87,-3.06,63204.43,1406.33,-2.91,64671.47,2307.68,-3.10,31907.75,1257.21,3.11,2145.72
1134100,668.02,618.16,1.00,1,1,1,426.89,0.10,228754.42,286.49,-3.03,65747.76,1059.89,-3.13,29623.77,1582.77,-2.98,51255.58,1304.96,3.06,5321.99
1148800,653.27,616.59,1.00,1,1,1,1009.54,-3.04,97715.08,899.95,3.08,42191.38,477.60,-3.06,39769.31,832.24,-2.83,52376.95,1225.39,3.09,5760.16
1171100,634.80,620.36,1.00,1,1,1,845.27,2.94,14668.29,630.23,-3.07,12950.65,654.31,-2.89,8993.64,504.85,-2.80,14697.94,1240.29,3.09,795.44
1185900,629.94,614.93,1.00,1,1,1,492.17,-2.30,49538.60,535.87,-2.17,34699.22,233.67,-2.26,32831.22,157.94,-1.73,30444.74,984.51,3.12,17410.00
1200700,625.83,607.27,1.00,1,1,1,587.00,-2.06,10675.03,580.40,-0.65,51948.34,395.00,-1.07,25350.09,140.46,-0.93,7988.32,625.99,-3.05,24899.48
1215200,643.44,604.58,1.00,1,1,1,1228.84,-0.15,105455.89,735.41,-0.35,17433.21,510.32,-0.57,17461.42,251.26,-0.19,12065.07,404.51,-3.02,15317.70
1229600,645.81,600.05,1.00,1,1,1,355.46,-1.09,73463.98,457.66,-0.48,19986.39,813.00,-0.07,30260.53,344.93,0.02,7846.52,280.72,-3.03,8599.26
1251700,658.28,596.91,1.00,1,1,1,581.66,-0.25,19692.23,908.30,0.10,26238.69,573.99,0.11,12195.42,440.80,0.31,6649.25,121.95,-2.65,7853.32
1266500,679.17,603.28,1.00,1,1,1,1475.93,0.30,69111.88,761.10,0.38,18930.17,528.62,0.52,15693.66,270.53,0.51,12372.89,89.42,-2.32,3169.32
1296100,689.61,609.58,1.00,1,1,1,411.75,0.54,36533.54,420.94,1.37,21375.08,646.01,0.88,8090.44,145.77,2.02,10110.28,90.53,-0.00,5571.02
1310800,682.97,621.54,1.00,1,1,1,930.35,2.08,68270.34,823.29,1.62,29131.15,306.76,2.11,41826.76,146.45,2.62,5895.11,133.42,0.02,2924.79
1325500,688.53,633.76,1.00,1,1,1,913.41,1.14,56445.58,391.21,2.79,51898.98,725.38,2.86,36907.83,179.00,3.00,4701.25,83.15,1.81,11669.47
1362300,664.06,628.48,1.00,1,1,1,680.23,-2.93,38795.86,1085.33,-3.00,20754.32,722.42,-2.98,8708.43,186.84,-3.01,1404.28,155.33,2.36,2579.67
1376900,633.30,625.86,1.00,1,1,1,2114.07,-3.06,98763.81,1430.22,-2.74,32424.25,817.59,-2.62,19575.67,80.30,2.52,9567.12,292.11,2.71,10649.13
1391800,625.25,611.93,1.00,1,1,1,1079.91,-2.10,116671.65,840.89,-1.67,84762.95,542.43,-2.01,32820.20,66.51,-3.11,3265.12,331.23,2.79,3171.04
1406700,630.83,600.92,1.00,1,1,1,828.24,-1.10,62813.09,948.75,-0.46,68486.12,712.50,-0.20,66580.43,398.10,3.06,22290.45,400.27,2.81,4658.38
1421500,650.48,599.38,1.00,1,1,1,1331.77,-0.08,77373.17,1392.87,0.31,65476.09,730.45,0.19,18963.31,515.61,2.98,8299.74,461.00,2.96,5962.40
1443700,679.96,616.47,1.00,2,2,2,1535.09,0.53,39361.62,848.89,0.77,33185.81,479.35,1.75,39043.65,510.33,2.92,1379.18,528.43,3.01,3198.59
1458600,673.14,621.25,1.00,3,3,3,558.84,2.53,123586.43,1360.92,2.75,125639.53,872.60,2.52,42234.10,537.17,2.84,3164.11,442.18,3.07,6210.79
1488100,624.04,639.35,1.00,1,1,1,1774.11,2.79,42101.66,1873.07,2.91,19271.24,1618.55,2.93,29984.02,636.80,2.76,3787.58,661.57,3.14,7526.89
1502800,592.60,640.41,1.00,1,1,1,2139.60,3.11,48927.66,2071.32,3.10,29144.07,1537.96,3.03,12168.77,761.49,2.88,10295.46,449.68,3.10,14471.08
1517400,563.40,641.80,1.00,1,1,1,2002.67,3.09,9580.97,1183.38,-3.02,63156.94,1214.34,-3.10,26323.95,1011.38,3.04,19758.32,137.68,-0.07,40225.64
1539600,549.36,635.26,1.00,1,1,1,697.57,-2.71,64080.10,554.70,-2.86,28902.98,786.05,-2.91,21092.46,839.70,3.07,7788.92,753.37,-0.04,27739.06
1554300,543.71,636.20,1.00,1,1,1,389.70,2.98,29662.64,342.03,-2.39,20119.92,406.95,-2.70,27035.71,1007.27,-3.10,13444.96,1422.81,-0.01,45581.38
1568900,542.05,628.41,1.00,1,1,1,546.08,-1.78,44976.97,258.73,-2.23,6529.94,145.05,-0.66,33512.43,390.37,-3.00,42479.85,1606.81,-0.03,12738.32
1583700,539.04,630.20,1.00,1,1,1,236.99,2.60,44701.55,478.71,0.11,46296.38,773.74,-3.10,60092.69,823.75,-0.17,81155.70,1422.54,-0.10,14570.68
1598400,556.08,630.01,1.00,1,1,1,1159.50,-0.01,93170.70,1396.84,3.04,127019.34,72.00,1.69,52461.56,2105.61,-0.11,87397.95,1420.24,-0.10,161.57
1613000,498.33,634.40,1.00,1,1,1,3967.22,3.07,351015.97,407.07,2.93,68020.85,1998.70,-0.05,137844.86,3560.72,-0.08,99803.33,1605.87,-0.14,13217.41
1635100,541.47,633.14,1.00,2,2,2,1953.14,-0.03,267825.17,4708.57,-0.07,231298.44,3548.69,-0.09,70281.13,3743.65,-0.07,8396.17,1658.26,-0.14,2370.53
1649700,670.76,623.08,1.00,2,2,2,8882.05,-0.08,474782.66,6838.39,-0.10,146403.17,6698.24,-0.07,215850.36,3523.32,-0.10,16844.65,1861.06,-0.09,14877.91
1679200,841.61,603.80,1.00,3,3,3,5828.47,-0.11,103857.57,8346.62,-0.07,51570.53,6334.90,-0.08,12479.79,3359.49,-0.10,5576.31,1919.41,-0.08,2152.07
1694000,1039.58,596.83,1.00,3,3,3,13384.41,-0.04,512609.39,5909.15,-0.06,164781.47,4571.27,-0.11,119897.82,3602.43,-0.10,16431.53,1995.16,-0.10,5904.74
1731100,1147.75,585.50,1.00,1,1,1,2931.64,-0.10,281987.86,1390.98,-0.34,123694.64,3173.37,-0.10,37702.42,3393.01,-0.11,5734.58,2157.76,-0.11,4390.18
1745900,1107.62,572.69,1.00,1,1,1,2846.52,-2.83,382113.13,1578.45,-2.97,194074.95,572.69,-0.46,178667.56,2748.11,-0.07,44260.99,2246.30,-0.12,6436.98
1761300,1100.80,577.29,1.00,1,1,1,534.23,2.55,165578.34,882.75,3.01,50779.24,1411.00,-3.02,124369.37,1745.26,-0.05,65211.23,2390.82,-0.12,9391.29
1775700,1081.54,576.12,1.00,1,1,1,1339.93,-3.08,67485.01,1241.19,-3.08,28456.41,382.26,2.10,90736.86,521.94,-0.25,85988.73,2674.92,-0.10,19961.31
1790300,1064.87,575.15,1.00,1,1,1,1143.81,-3.08,13435.39,741.53,0.83,126486.91,213.73,1.67,14327.81,207.03,-1.10,28477.91,2651.04,-0.09,2361.09
1804900,1096.14,592.10,1.00,1,1,1,2436.53,0.50,240122.14,1036.66,0.44,31002.34,496.79,0.05,37662.69,774.96,-0.24,45170.18,2257.86,-0.07,27273.35
1827100,1099.43,591.29,1.00,1,1,1,152.93,-0.24,104770.36,627.66,-0.67,42325.31,1438.66,-0.13,43007.28,1264.22,-0.19,22123.33,1714.04,-0.06,24507.61
1841800,1114.33,577.77,1.00,2,2,2,1368.34,-0.74,84066.21,2253.74,-0.45,112009.57,1544.59,-0.37,24550.74,1649.82,-0.11,27468.35,967.39,-0.06,50792.57
1856700,1159.53,562.31,1.00,2,2,2,3205.59,-0.33,135773.45,2336.90,-0.30,23562.94,2454.50,-0.27,62398.74,1870.72,-0.06,15926.58,632.63,-0.06,22467.07
1886100,1213.22,547.13,1.00,3,3,3,1897.92,-0.28,44708.12,2627.95,-0.17,15104.70,2595.68,-0.14,12334.02,1742.10,-0.06,4376.03,713.67,-0.11,2987.45
1900800,1273.84,543.27,1.00,1,1,1,4132.45,-0.06,157266.89,2980.80,0.02,42394.75,2230.15,-0.02,30995.16,1681.36,-0.07,4353.45,800.17,-0.00,8106.72
1922900,1322.89,549.18,1.00,1,1,1,2235.52,0.12,89456.78,1839.87,0.22,55902.80,2149.67,0.21,23237.28,1404.81,0.01,13668.88,988.09,0.20,11890.69
1937600,1339.90,558.14,1.00,1,1,1,1307.47,0.48,75946.04,1373.74,0.75,64479.85,1026.54,0.47,80879.48,1050.55,0.07,24641.12,1121.25,0.43,18823.13
1952400,1352.64,576.70,1.00,1,1,1,1521.31,0.97,47930.19,571.82,1.88,84055.45,427.07,1.28,53746.89,671.09,0.01,25848.40,1080.53,0.72,21306.78
1967400,1334.72,574.38,1.00,1,1,1,1204.37,-3.01,166140.28,475.49,3.01,37920.67,235.69,2.15,21869.82,468.13,0.45,21119.09,1018.90,0.98,18369.72
1996600,1331.79,579.37,1.00,1,1,1,198.35,2.10,39093.76,103.51,-3.10,12804.61,434.48,-2.39,18067.22,655.29,0.94,11264.71,847.39,1.25,10584.73
2018800,1329.41,574.15,1.00,1,1,1,258.64,-2.00,18307.28,627.96,-1.88,27056.93,81.43,0.24,22852.89,1007.97,1.26,19591.59,823.02,1.61,13310.88
2048300,1322.06,548.40,1.00,4,4,4,907.69,-1.85,22139.54,294.57,0.16,27277.95,856.52,0.81,26752.51,1391.53,1.54,17252.88,750.44,1.85,6962.51
2063100,1342.29,576.26,1.00,4,4,4,2326.00,0.94,215801.08,2535.53,0.94,157766.28,1742.60,1.17,66547.38,1636.88,1.76,27699.49,699.14,2.18,16533.88
2092600,1388.25,639.15,1.00,4,4,4,2640.65,0.94,10669.36,3107.87,1.24,34094.69,3414.50,1.43,60751.19,1765.30,2.06,17574.83,674.47,2.48,6835.19
2114800,1395.03,728.03,1.00,4,4,4,4015.32,1.49,101461.47,5041.25,1.72,122287.49,3561.97,1.79,55454.85,1979.98,2.20,15260.84,630.87,2.76,8561.09
2129500,1360.13,823.03,1.00,4,4,4,6885.07,1.92,247414.07,5889.60,2.29,215049.88,4088.15,2.35,147961.56,1971.34,2.24,6206.61,586.21,2.97,9139.24
2144300,1280.71,858.86,1.00,4,4,4,5887.16,2.72,339790.79,5495.21,3.08,297195.37,4455.46,2.77,124359.67,1631.18,2.50,38827.73,525.08,2.89,5068.60
2159000,1198.33,833.10,1.00,4,4,4,5871.18,-2.84,284339.34,4594.67,-2.87,127618.88,3679.94,-2.87,180781.00,1608.77,2.96,50615.48,534.48,2.93,1606.58
2173800,1149.96,823.12,1.00,4,4,4,3337.31,-2.94,173774.64,2803.18,-2.19,203055.91,2863.40,-2.33,129585.47,1848.77,-2.76,65911.54,617.24,2.96,5675.72
2188700,1150.08,765.26,1.00,4,4,4,3883.19,-1.57,307769.94,2756.44,-1.58,111826.79,1944.58,-1.85,97268.40,2047.99,-2.30,61871.58,585.99,2.84,5079.62
2211000,1148.96,720.58,1.00,4,4,4,2004.01,-1.60,84336.03,1630.49,-1.52,50823.60,2345.46,-1.55,33981.92,1812.02,-2.00,27735.38,598.39,3.08,6270.16
2240300,1154.40,681.23,1.00,4,4,4,1355.64,-1.43,23930.23,2001.10,-1.51,12651.72,1950.61,-1.45,15385.23,1502.95,-1.70,19865.72,778.61,-2.92,9054.81
2255100,1153.90,632.47,1.00,4,4,4,3294.99,-1.58,132714.38,2527.83,-1.37,41998.40,1321.11,-1.37,43321.64,1458.81,-1.59,11416.30,922.00,-2.63,18913.60
2269700,1169.36,608.44,1.00,4,4,4,1957.49,-1.00,135497.06,623.56,-0.79,139429.77,1051.55,-1.34,18597.81,1139.74,-1.51,23079.64,1007.76,-2.35,19261.68
2291400,1169.88,616.44,1.00,4,4,4,369.66,1.51,104399.48,144.88,1.47,33347.90,385.85,-1.89,34476.55,866.38,-1.47,12678.85,983.01,-2.08,12741.91
2306200,1169.92,613.70,1.00,1,1,1,185.57,-1.56,37489.72,850.95,-2.81,62252.68,202.40,-2.24,14067.98,635.79,-1.46,15590.64,769.33,-1.82,20867.14
2321100,1145.96,608.27,1.00,1,1,1,1648.32,-2.92,108725.37,610.35,-2.08,38044.49,405.48,-1.84,15623.88,247.57,-1.63,26434.08,744.21,-1.68,7062.68
2335800,1161.04,597.96,1.00,1,1,1,1242.80,-0.60,180613.25,591.25,-0.91,45132.34,319.97,-1.78,6003.21,149.97,-3.10,18773.12,592.79,-1.85,12606.44
2365200,1161.87,587.61,1.00,1,1,1,353.11,-1.49,35961.27,198.82,-1.23,13831.32,174.81,-1.23,6580.88,240.06,-2.67,4121.46,506.91,-2.10,5576.45
2387300,1164.50,588.32,1.00,1,1,1,123.16,0.26,17858.11,220.07,2.71,17496.39,193.21,2.61,15645.17,226.38,-2.54,1444.87,449.63,-2.45,7985.08
2417100,1151.52,592.43,1.00,1,1,1,456.96,2.83,18944.36,612.68,2.37,13819.89,342.78,2.70,5078.35,194.21,-2.32,1891.90,440.01,-2.77,4675.41
2431700,1145.09,607.38,1.00,1,1,1,1114.33,1.98,60657.03,563.17,2.69,13531.00,289.87,3.04,8237.37,370.34,-2.87,15598.55,431.64,-2.98,6397.11
2446000,1136.86,599.50,1.00,1,1,1,796.73,-2.38,110508.52,352.81,-2.05,45941.05,375.46,-2.83,11133.40,581.09,-3.09,16334.36,347.36,-3.00,5918.63
2483600,1136.72,591.09,1.00,1,1,1,223.72,-1.59,17526.53,416.43,-2.29,3025.02,669.79,-2.62,8320.59,743.55,3.08,4763.07,268.38,3.11,2523.83
2498400,1122.45,583.12,1.00,1,1,1,1104.79,-2.63,68324.05,1369.11,-2.87,70598.02,875.09,-2.90,19939.15,869.70,-3.07,11028.46,130.42,2.80,10120.81
2513100,1097.83,580.19,1.00,1,1,1,1686.36,-3.02,53560.41,1890.30,-3.13,45295.06,1492.19,3.10,47589.55,742.80,-2.95,10727.46,53.04,1.93,7100.94
2527300,1067.83,582.29,1.00,1,1,1,2118.38,3.07,39394.82,1743.84,2.84,41254.19,1578.77,3.13,7284.33,468.19,3.12,21147.45,166.49,2.64,9220.21
2542000,1049.67,595.02,1.00,1,1,1,1508.37,2.53,77127.18,1273.78,3.10,41175.54,920.08,3.03,45624.11,413.51,2.69,13442.93,513.78,2.89,24138.85
2556700,1030.41,583.87,1.00,1,1,1,1513.70,-2.62,110592.72,391.52,-2.56,66926.58,246.06,1.92,57053.57,301.85,1.94,19028.58,923.77,2.96,28108.26
2579000,1037.59,587.02,1.00,1,1,1,351.52,0.41,83563.75,679.31,0.51,47989.21,509.91,0.54,23433.18,453.50,0.53,22552.53,1316.39,3.02,17813.69
2608200,1060.93,600.97,1.00,1,1,1,931.26,0.54,20003.00,1269.46,0.55,20258.58,1061.39,0.46,18995.32,390.63,0.55,2168.84,1497.41,3.02,6205.92
2622900,1084.96,616.37,1.00,1,1,1,1941.72,0.57,68798.76,1735.22,0.43,34051.64,1493.54,0.23,35709.73,325.10,2.40,38956.41,1590.68,3.02,6345.98
2637500,1107.12,622.21,1.00,1,1,1,1569.70,0.26,45095.24,1905.44,-0.03,58441.36,859.92,0.20,43435.87,1010.87,2.78,49213.78,1457.71,3.01,9155.47
2659700,1155.04,614.06,1.00,2,2,2,2189.57,-0.17,45014.06,370.47,-0.79,74586.64,1076.61,2.99,85862.84,1909.82,2.90,41245.70,1331.73,3.00,5704.63
2674500,1116.77,612.47,1.00,2,2,2,2588.22,-3.10,321060.02,4775.30,3.05,342241.73,2839.94,3.05,119406.82,2633.01,3.00,51183.62,1076.29,3.00,17259.33
2689300,1014.32,627.32,1.00,2,2,2,6994.84,3.00,302466.53,5457.50,3.02,47207.22,5506.89,3.04,180267.65,2727.83,3.07,13463.75,957.67,3.03,8180.32
2718700,877.39,642.19,1.00,1,1,1,4684.90,3.03,78878.27,5997.13,3.03,18504.61,5453.03,3.05,2662.61,2591.69,3.10,5438.05,917.47,3.00,1623.66
2733500,750.89,656.81,1.00,1,1,1,8603.98,3.03,264819.64,5453.52,3.08,41614.37,4084.94,3.09,93303.17,2940.01,3.09,23559.58,954.22,3.00,2484.64
2755600,676.53,654.43,1.00,1,1,1,3366.66,-3.11,239667.62,1844.47,-2.98,166498.69,2349.95,-3.13,79101.02,2230.77,3.10,32093.30,1129.27,3.10,9208.81
2770300,683.94,645.61,1.00,1,1,1,784.07,-0.87,265363.88,405.24,-0.98,139226.00,678.92,-2.74,118321.62,1542.95,3.13,46985.06,1143.25,-3.13,3771.32
2799900,686.59,639.56,1.00,1,1,1,222.91,-1.16,19382.94,431.45,-0.56,5896.08,537.07,-0.49,37184.57,877.84,-3.03,23006.19,1092.99,-3.12,1784.35
2814600,700.14,635.45,1.00,1,1,1,963.10,-0.29,56848.55,709.80,-0.25,22133.67,612.98,-0.26,10202.21,186.48,-2.01,54164.86,1251.79,3.13,11120.13
2851600,722.11,630.33,1.00,1,1,1,609.66,-0.23,9647.32,791.82,-0.12,3466.05,624.81,-0.27,372.50,376.81,-0.75,9894.86,1130.11,3.13,3290.49
2866500,740.93,630.42,1.00,1,1,1,1263.02,0.00,45957.53,477.56,-0.32,22561.86,472.04,-0.16,11038.52,409.18,-0.52,6291.69,751.34,-3.07,26013.09
2881300,735.58,625.91,1.00,1,1,1,472.73,-2.44,111729.88,103.29,-2.78,37956.55,266.81,-1.74,36743.06,578.61,-0.29,13691.36,513.03,-2.96,16720.82
2896000,738.07,629.35,1.00,1,1,1,289.05,0.94,51463.82,663.71,-2.54,38372.33,280.33,-1.69,1321.38,529.29,-0.22,4349.21,147.28,-2.28,27835.67
2910800,719.49,614.75,1.00,1,1,1,1596.62,-2.48,126772.12,521.46,-1.51,40195.16,522.19,-0.32,36460.88,274.49,-0.33,17455.80,517.80,-0.26,40280.14
2925500,739.02,613.99,1.00,1,1,1,1329.64,-0.04,186944.90,1332.01,0.00,95399.60,601.68,-0.28,5690.24,296.53,-0.52,4053.60,897.95,-0.11,26859.46
2947500,768.37,614.97,1.00,1,1,1,1334.96,0.03,4360.06,1025.98,0.12,15211.39,483.76,0.08,10186.57,113.85,-2.31,15436.55,1382.91,-0.07,22108.28
2962200,776.40,618.51,1.00,1,1,1,597.03,0.42,55262.23,234.31,2.86,84682.57,470.63,-0.11,6351.07,124.52,-2.74,3517.48,1641.04,-0.06,17633.34
2991600,758.46,617.86,1.00,1,1,1,610.88,-3.11,40347.93,201.12,-1.53,12062.28,592.23,-3.12,36072.97,735.02,-0.01,28929.54,1551.43,-0.03,3430.06
3006300,776.80,609.65,1.00,1,1,1,1367.17,-0.42,131580.29,1149.80,-3.03,78528.07,682.92,3.08,7173.55,1459.99,0.01,49343.08,1230.45,-0.04,21863.89
3021000,724.85,614.17,1.00,2,2,2,3547.08,3.05,330571.55,1544.30,2.92,40156.69,1044.54,-0.06,117514.08,2249.80,-0.02,53832.22,1247.45,-0.05,1249.88
3043200,721.21,622.17,1.00,2,2,2,396.33,2.00,151801.21,2779.12,-0.01,193710.11,2669.41,0.04,73582.29,2706.67,-0.03,20633.25,1251.05,-0.07,1488.84
3058000,827.68,613.56,1.00,3,3,3,7217.50,-0.08,501239.75,7890.80,-0.02,345433.25,5395.39,-0.01,184631.48,2775.40,-0.00,6841.07,1263.00,-0.08,1052.47
3072700,953.92,616.49,1.00,3,3,3,8589.92,0.02,108679.53,8688.04,-0.01,54581.06,6411.42,-0.03,69667.80,2067.07,0.02,48272.90,1247.05,-0.10,1958.17
3087400,1083.08,610.10,1.00,1,1,1,8797.60,-0.05,45161.65,5433.30,-0.04,221798.15,4192.65,0.01,151724.15,2382.93,-0.02,22006.49,1145.47,-0.12,7100.44
3117300,1196.03,606.42,1.00,1,1,1,3779.57,-0.03,167858.35,1646.95,0.08,127243.81,1651.44,-0.01,85007.99,2545.68,-0.05,6222.19,1082.63,-0.15,2440.27
3139200,1168.10,617.17,1.00,1,1,1,1366.55,2.77,232423.80,1634.84,3.04,149206.04,304.05,-0.06,61550.94,1705.14,-0.11,38728.61,1184.80,-0.13,4872.59
3168700,1112.45,615.06,1.00,1,1,1,1887.96,-3.10,28154.71,1273.52,-2.98,17703.29,1004.56,-3.08,44299.83,1085.87,-0.23,21699.28,1255.30,-0.11,2500.98
3183600,1112.27,608.21,1.00,1,1,1,459.76,-1.60,128494.60,462.92,-1.38,91806.97,569.01,-2.43,43872.98,336.51,-0.71,53907.36,1232.86,-0.10,1767.81
3198100,1115.00,601.69,1.00,1,1,1,487.47,-1.17,13815.54,597.57,-1.06,14812.27,623.81,-0.97,54904.81,566.16,-2.68,52686.74,920.80,-0.11,21528.85
3234600,1127.10,581.59,1.00,1,1,1,642.88,-1.03,4805.16,745.89,-0.82,5949.95,498.85,-1.16,4532.90,456.43,-2.46,4330.80,136.76,0.15,21625.97
3249500,1141.04,573.55,1.00,1,1,1,1079.58,-0.52,40506.06,348.03,-1.47,34306.27,444.14,-1.59,13851.35,470.01,-0.76,46706.02,599.98,3.09,49283.32
3263900,1128.18,571.45,1.00,1,1,1,904.60,-2.98,129843.32,967.22,-2.87,67558.99,276.49,-2.57,25677.50,219.85,-1.83,28587.72,1158.53,3.10,38792.13
3278100,1114.38,566.17,1.00,1,1,1,1040.82,-2.78,16880.13,499.28,3.06,37246.53,337.04,-0.27,39440.36,805.16,-3.07,53720.68,1419.84,3.12,18574.82
3293600,1113.41,572.73,1.00,2,2,2,428.05,1.72,77953.33,1291.55,0.03,115380.50,373.20,2.91,45811.77,2093.56,2.99,85146.22,1444.34,-3.13,3074.96
3315300,1162.40,567.60,1.00,2,2,2,2270.13,-0.10,111168.49,280.70,2.71,71314.35,1803.54,2.92,65914.40,2728.22,3.00,29254.20,1253.14,3.14,8837.90
3330100,1104.12,577.06,1.00,2,2,2,3989.48,2.98,422791.01,5681.95,2.99,365743.14,3785.48,2.95,134057.73,2873.07,3.01,9915.13,1226.52,3.11,3414.93
3344700,997.29,592.97,1.00,3,3,3,7397.82,2.99,233497.20,8147.56,2.96,169348.30,5466.22,2.99,115852.06,2435.00,3.01,30007.21,1145.76,3.11,5531.93
3359500,868.43,619.84,1.00,3,3,3,8893.82,2.94,105898.74,5322.78,3.00,191476.06,4910.12,3.01,38322.80,2604.99,3.04,12566.52,1195.73,3.08,3865.62
3388900,764.50,627.00,1.00,1,1,1,3543.58,3.07,183839.80,3092.30,3.09,77049.56,2963.26,3.05,66394.24,2783.75,3.03,6110.87,1167.72,3.06,1209.78
3411400,708.12,627.48,1.00,1,1,1,2505.58,3.13,46820.65,381.37,-2.03,131513.16,1675.23,-3.09,58946.36,2352.75,3.02,19194.04,1221.06,3.08,2449.55
3425700,758.23,614.45,1.00,1,1,1,3620.46,-0.25,425265.21,1000.11,-0.53,73067.51,389.39,-2.76,91762.40,1459.79,3.05,62600.54,1165.67,3.05,4639.38
3440400,733.09,612.73,1.00,1,1,1,1713.96,-3.07,358772.94,522.56,3.10,100768.59,488.18,-0.17,57476.55,530.70,-2.93,65727.11,1212.14,3.05,3220.72
3469700,735.25,615.39,1.00,1,1,1,117.21,0.89,61292.72,302.46,0.70,26391.32,38.40,-0.21,15351.89,224.92,-0.81,23048.20,1383.63,3.04,5873.36
3484600,743.32,621.33,1.00,1,1,1,672.34,0.63,37564.60,699.11,-0.06,35110.99,643.64,-0.22,40620.26,395.92,-0.55,12587.38,1097.80,3.04,19183.26
3507000,761.28,613.81,1.00,1,1,1,869.22,-0.40,34773.13,1222.82,-0.45,28326.12,691.10,-0.27,2610.86,136.53,-2.62,21253.69,1459.79,3.05,16175.18
3521800,784.27,601.51,1.00,1,1,1,1761.36,-0.49,60795.14,707.14,-0.44,34851.88,380.62,-0.99,32365.16,68.35,-2.67,4619.33,530.70,-2.93,65283.01
3551300,789.65,600.52,1.00,1,1,1,185.50,-0.18,53749.21,563.21,-2.89,40579.12,277.06,-2.70,16918.86,63.45,-2.70,177.37,224.92,-0.81,22891.94
3565900,760.20,595.39,1.00,1,1,1,2047.63,-2.97,152225.82,1011.93,3.11,34028.87,650.14,3.05,29861.37,106.53,-0.57,10268.94,395.92,-0.55,12846.02
3603100,737.26,602.32,1.00,1,1,1,644.05,2.85,40331.76,769.16,2.84,9100.57,797.06,2.98,4179.04,277.06,-2.70,9274.56,136.53,-2.62,12797.92
3617500,722.31,607.22,1.00,1,1,1,1092.55,2.82,31175.37,487.82,2.49,24494.49,205.84,1.71,52885.93,650.14,3.05,30276.12,68.35,-2.67,4747.65
3632300,725.94,610.96,1.00,1,1,1,351.98,0.80,86903.18,1211.70,0.13,107759.37,487.82,2.49,25050.63,797.06,2.98,10504.06,63.45,-2.70,353.54
3647100,757.87,611.94,1.00,1,1,1,2158.37,0.03,129827.91,2158.37,0.03,64913.96,1211.70,0.13,107759.37,205.84,1.71,51456.58,106.53,-0.57,10130.17
