@RELATION gaze_labels

%@METADATA width_px 1920
%@METADATA height_px 1080
%@METADATA width_mm 540.00
%@METADATA height_mm 254.00
%@METADATA distance_mm 620.00


@ATTRIBUTE time INTEGER
@ATTRIBUTE x NUMERIC
@ATTRIBUTE y NUMERIC
@ATTRIBUTE confidence NUMERIC
@ATTRIBUTE handlabeller1 INTEGER
@ATTRIBUTE handlabeller2 INTEGER
@ATTRIBUTE handlabeller_final INTEGER
@ATTRIBUTE speed_1 numeric
@ATTRIBUTE direction_1 numeric
@ATTRIBUTE acceleration_1 numeric
@ATTRIBUTE speed_2 numeric
@ATTRIBUTE direction_2 numeric
@ATTRIBUTE acceleration_2 numeric
@ATTRIBUTE speed_4 numeric
@ATTRIBUTE direction_4 numeric
@ATTRIBUTE acceleration_4 numeric
@ATTRIBUTE speed_8 numeric
@ATTRIBUTE direction_8 numeric
@ATTRIBUTE acceleration_8 numeric
@ATTRIBUTE speed_16 numeric
@ATTRIBUTE direction_16 numeric
@ATTRIBUTE acceleration_16 numeric

%The number after speed, direction denotes the step size that was used for the calculation.
%Acceleration was calculated between two adjacent samples of the already low pass filtered velocity

@DATA
0,586.03,629.32,1.00,1,1,1,0.00,0.00,0.00,2165.31,-0.22,0.00,1293.67,-0.26,0.00,854.57,-3.08,0.00,2063.33,3.09,0.00
29700,648.77,615.17,1.00,1,1,1,2165.31,-0.22,72906.16,1293.67,-0.26,29434.25,1265.11,3.11,85572.00,3159.01,3.06,78000.10,2663.46,3.07,20256.82
51900,650.89,611.95,1.00,2,2,2,173.82,-0.99,92059.97,1265.11,3.11,114481.46,854.57,-3.08,18980.77,5146.13,3.05,89533.42,2579.11,3.07,3818.50
66600,602.10,616.52,1.00,2,2,2,3333.23,3.05,234325.71,3327.67,3.06,140513.65,3159.01,3.06,157592.05,4692.24,3.06,30988.43,1851.95,3.11,49818.11
96200,503.98,624.19,1.00,3,3,3,3325.05,3.06,1768.09,4738.36,3.05,47680.15,5146.13,3.05,67150.06,2063.33,3.09,88881.91,280.36,-2.84,53717.91
110900,393.12,636.20,1.00,1,1,1,7585.81,3.03,290027.88,7877.33,3.04,213549.69,4692.24,3.06,30988.43,2663.46,3.07,40927.04,1553.90,-0.16,123077.27
125700,272.76,647.34,1.00,1,1,1,8167.37,3.05,40164.24,4637.32,3.07,219150.66,3825.37,3.05,58584.20,2579.11,3.07,5727.75,3450.26,-0.09,128587.25
147800,222.48,649.06,1.00,1,1,1,2276.02,3.11,266818.60,589.78,-3.12,183280.95,2059.10,3.09,80086.93,1851.95,3.11,33136.93,4605.10,-0.06,52450.64
162600,251.00,646.94,1.00,1,1,1,1931.79,-0.07,284254.59,1162.76,-0.18,117899.69,263.20,-2.86,122432.64,280.36,-2.84,107435.81,1076.64,-0.05,238417.06
177400,256.35,642.94,1.00,1,1,1,451.81,-0.64,106058.27,127.00,-1.35,75661.70,1293.77,-0.24,103227.66,1553.90,-0.16,122245.66,860.03,-0.04,14667.54
206900,252.21,641.45,1.00,2,2,2,149.13,-2.80,18585.92,1383.81,-0.28,45030.18,2212.53,-0.17,31392.93,3450.26,-0.09,64511.57,869.84,-0.08,1349.04
221600,315.22,626.32,1.00,2,2,2,4407.73,-0.24,308374.59,4064.66,-0.15,183537.47,4045.90,-0.12,125157.08,4605.10,-0.06,78854.36,985.34,-0.08,7857.77
258700,460.49,610.61,1.00,3,3,3,3938.63,-0.11,19129.96,6325.34,-0.09,61402.42,7155.72,-0.08,84063.81,4370.58,-0.05,6502.79,1303.88,-0.07,8598.20
273600,642.76,596.22,1.00,1,1,1,12270.40,-0.08,559342.15,12667.31,-0.04,426930.95,7639.29,-0.04,37718.72,4066.00,-0.06,20489.29,1589.63,-0.06,19181.12
287900,830.14,597.19,1.00,1,1,1,13103.66,0.01,94503.85,10022.20,0.02,190807.25,7929.15,0.00,29760.75,4499.06,-0.08,30862.49,1944.89,-0.08,24916.03
302700,934.32,602.98,1.00,1,1,1,7050.58,0.06,410293.96,3315.16,0.15,455776.02,4123.94,0.03,257391.59,3967.72,-0.06,36252.96,2187.03,-0.08,16361.58
317600,927.52,611.71,1.00,1,1,1,743.03,2.23,503284.40,521.04,3.02,256344.77,1253.38,-0.08,193427.28,3131.96,-0.03,56503.25,2071.95,-0.09,7805.12
339700,915.19,605.37,1.00,1,1,1,627.10,-2.67,39762.06,700.97,-2.17,29554.24,558.67,-2.83,80680.41,1644.81,0.03,67610.32,1979.78,-0.07,4454.82
354200,912.97,590.58,1.00,1,1,1,1031.74,-1.72,57763.82,721.98,-2.44,13111.30,424.36,-2.71,10180.80,287.32,0.04,93620.78,2035.55,-0.07,3847.55
369000,899.04,591.72,1.00,1,1,1,944.78,3.06,91300.02,404.99,2.75,43591.90,388.33,-3.11,11166.05,369.58,-3.00,44330.30,1976.62,-0.07,4032.64
398000,896.57,597.34,1.00,1,1,1,211.64,1.98,29815.16,383.26,2.45,4156.76,513.26,2.94,5659.00,392.02,-2.77,3035.77,1922.14,-0.06,1901.08
420300,883.91,604.29,1.00,1,1,1,647.47,2.64,22281.86,655.87,3.07,18461.36,233.15,2.95,12563.38,454.50,-3.05,5946.86,1626.02,-0.04,13384.86
435000,872.36,598.99,1.00,1,1,1,864.52,-2.71,48044.36,328.62,-1.93,43867.30,355.72,-2.87,12181.61,554.80,3.04,9484.35,1299.94,-0.02,22253.89
449700,880.55,595.23,1.00,1,1,1,612.92,-0.43,91626.49,274.50,-1.39,11423.89,546.75,-3.00,13545.38,42.72,-2.16,36488.30,968.77,-0.04,22575.11
464400,873.81,591.05,1.00,1,1,1,539.68,-2.59,69121.98,980.06,2.98,74944.41,618.90,-3.13,7187.62,786.10,-0.19,54655.72,885.85,-0.07,5889.13
479100,852.09,599.73,1.00,1,1,1,1591.01,2.76,91344.53,1300.75,2.95,22027.59,262.52,-0.53,58172.18,1617.13,-0.12,56823.69,934.59,-0.09,3453.71
494300,835.66,598.64,1.00,2,2,2,1083.04,-3.08,50767.59,1235.12,-0.30,166629.12,1697.73,-0.12,96115.83,2262.90,-0.03,43772.23,977.53,-0.08,2847.53
515900,895.57,586.49,1.00,2,2,2,2830.00,-0.20,179877.70,3453.69,-0.13,103878.85,2938.10,-0.09,57495.47,2176.77,-0.02,4384.94,970.51,-0.10,1054.35
545300,1010.25,575.28,1.00,3,3,3,3919.08,-0.10,38828.55,4023.77,-0.05,22198.73,4052.01,-0.03,38504.23,1919.38,0.00,8829.06,965.13,-0.11,231.34
574700,1131.90,575.19,1.00,1,1,1,4137.86,-0.00,15182.67,4776.83,0.06,30010.45,3521.11,0.01,18736.94,2022.22,-0.06,5158.99,1107.44,-0.12,4858.71
589800,1222.47,587.42,1.00,1,1,1,6052.41,0.13,134442.49,2761.61,0.14,135048.23,2121.87,0.08,93511.16,2192.36,-0.09,12009.94,1061.47,-0.04,6189.45
611900,1233.58,589.84,1.00,1,1,1,514.61,0.21,250660.11,186.07,2.71,132107.70,958.63,0.06,52650.23,1827.55,-0.08,16507.30,638.74,0.07,19593.67
641500,1213.73,591.44,1.00,1,1,1,672.88,3.06,39690.69,573.72,-2.74,15849.29,268.18,-1.61,34467.48,1131.45,-0.05,23565.10,209.69,0.61,15903.95
656400,1210.08,579.86,1.00,1,1,1,814.78,-1.88,62686.08,914.26,-1.27,68994.80,560.22,-2.34,27055.59,575.72,-0.13,37497.89,259.84,2.66,27036.40
671000,1221.65,565.66,1.00,1,1,1,1254.68,-0.89,72300.94,695.72,-1.83,33763.97,492.79,-2.22,6369.02,200.10,-3.06,52912.40,409.18,2.89,11458.50
685700,1204.77,560.18,1.00,1,1,1,1206.96,-2.83,138165.20,750.58,-3.13,59503.05,250.36,-1.18,28944.81,1151.66,3.02,65069.69,466.27,2.93,4050.37
707900,1193.95,565.37,1.00,1,1,1,540.58,2.69,40397.97,336.44,0.36,48339.02,519.16,2.55,33370.04,2050.36,3.01,40492.48,725.89,2.99,11780.51
722700,1216.44,564.53,1.00,2,2,2,1520.24,-0.04,136994.19,662.48,1.62,43578.96,2111.83,2.79,108918.26,2976.36,3.01,62571.25,1147.36,3.09,29137.50
737400,1193.04,584.89,1.00,2,2,2,2110.00,2.43,233250.60,5097.98,2.84,334206.71,3693.39,2.91,109924.66,3538.08,3.01,38256.32,1460.04,3.13,21577.39
752100,1073.23,608.76,1.00,2,2,2,8310.47,2.94,446471.26,6039.77,2.98,81736.90,5537.62,2.97,127185.39,3121.43,3.02,28346.32,1647.29,3.13,12738.64
781800,928.52,628.95,1.00,1,1,1,4919.66,3.00,114850.99,5829.72,3.04,14691.56,6089.47,3.05,23332.62,2896.44,3.03,7746.37,1729.81,3.13,2785.36
803100,777.42,638.61,1.00,1,1,1,7108.41,3.08,104830.09,6192.07,3.13,30691.93,4024.73,3.12,98248.06,2891.70,3.07,5381.39,1700.34,3.09,3766.37
817500,707.47,631.15,1.00,1,1,1,4884.88,-3.04,169347.00,1163.55,-2.45,371776.14,2091.39,-3.00,138660.44,2733.13,3.12,14446.50,1627.58,3.07,5694.74
832100,751.36,617.17,1.00,1,1,1,3155.00,-0.31,539436.86,3047.94,-0.25,263872.42,731.76,-1.20,162092.91,2131.39,-3.10,42495.41,1534.68,3.03,7219.61
846800,794.03,609.16,1.00,1,1,1,2953.05,-0.19,28929.76,1347.56,-0.49,120367.98,1421.29,-0.41,70815.64,1428.35,-2.96,50463.45,1415.85,3.02,8286.85
868800,794.98,593.86,1.00,1,1,1,696.83,-1.51,130136.94,425.31,-1.60,55436.25,355.69,-1.12,53344.34,357.30,-2.27,53496.76,1543.81,2.99,6102.11
883600,793.55,593.51,1.00,1,1,1,99.18,-2.91,46394.42,1127.44,3.08,82292.60,782.79,-2.88,62194.58,411.02,-0.55,39354.03,1491.02,3.04,6174.59
898400,761.67,595.96,1.00,1,1,1,2160.30,3.06,139605.01,1684.11,3.09,37637.38,799.51,2.92,25478.28,68.42,-1.04,23786.50,1042.86,-3.08,33250.09
913200,743.76,595.93,1.00,1,1,1,1210.29,-3.14,64755.47,519.13,2.56,85342.66,510.46,2.94,19558.74,152.31,2.74,14265.14,1428.35,-2.96,27787.67
928100,748.75,604.37,1.00,1,1,1,657.59,1.04,110474.91,309.16,0.38,49812.82,167.10,1.96,29500.49,361.24,2.31,15602.58,357.30,-2.27,78988.51
957600,756.52,600.99,1.00,1,1,1,287.46,-0.41,23200.04,170.32,0.49,4786.14,373.56,0.69,12261.41,387.77,2.46,2122.35,411.02,-0.55,19743.71
979500,756.48,608.48,1.00,1,1,1,342.15,1.58,24131.10,450.25,0.88,13679.41,336.87,1.30,9783.27,69.18,-2.55,17063.15,68.42,-1.04,16074.89
1008800,771.27,618.70,1.00,1,1,1,613.83,0.60,17310.54,609.90,1.53,12758.40,394.98,1.87,7345.59,373.56,0.69,15101.15,152.31,2.74,7205.60
1023500,757.48,635.30,1.00,1,1,1,1467.74,2.26,111590.11,931.08,2.66,58924.32,237.92,-1.79,41723.37,336.87,1.30,14575.08,361.24,2.31,15814.86
1038100,747.10,631.35,1.00,1,1,1,760.43,-2.78,97060.55,1246.86,-1.68,123732.20,931.08,2.66,69878.03,394.98,1.87,14741.49,387.77,2.46,4288.30
1060300,752.39,589.69,1.00,1,1,1,1891.61,-1.44,84052.27,1891.61,-1.44,33346.83,1246.86,-1.68,81373.43,237.92,-1.79,27627.64,69.18,-2.55,16832.56
