%@metadata width_px 1920.0
%@metadata height_px 1080.0
%@metadata width_mm 540.0
%@metadata height_mm 254.0
%@metadata distance_mm 620.0
% The number after speed, direction denotes the step size that was used for the calculation.
% Acceleration was calculated between two adjacent samples of the already low pass filtered velocity
@RELATION gaze_labels

@ATTRIBUTE time INTEGER
@ATTRIBUTE x NUMERIC
@ATTRIBUTE y NUMERIC
@ATTRIBUTE confidence NUMERIC
@ATTRIBUTE handlabeller_final INTEGER
@ATTRIBUTE EYE_MOVEMENT_TYPE {UNKNOWN, FIX, SACCADE, SP, NOISE, BLINK, NOISE_CLUSTER, PSO}

@DATA
0,316.65,521.93,1.0,1,FIX
22300,343.55,533.54,1.0,1,FIX
35600,314.49,535.11,1.0,1,FIX
65100,337.0,524.22,1.0,1,FIX
80800,339.94,539.2,1.0,1,FIX
101900,316.98,473.27,1.0,1,FIX
130600,334.72,541.96,1.0,1,FIX
145000,330.08,512.17,1.0,1,FIX
166500,329.98,548.25,1.0,1,FIX
196000,345.04,525.65,1.0,1,FIX
209500,333.89,508.25,1.0,1,FIX
230700,346.82,511.31,1.0,1,FIX
244700,326.81,517.89,1.0,2,FIX
259400,310.12,450.43,1.0,2,FIX
273500,318.2,469.15,1.0,1,FIX
288700,315.8,500.74,1.0,1,FIX
309600,319.72,495.11,1.0,1,FIX
323600,309.41,481.71,1.0,1,FIX
338300,322.46,522.6,1.0,1,FIX
352900,349.36,467.31,1.0,1,SACCADE
375100,298.55,525.29,1.0,2,SACCADE
389700,324.6,503.55,1.0,2,SP
404200,438.41,562.65,1.0,3,FIX
433500,616.58,545.35,1.0,1,FIX
448000,526.93,527.91,1.0,1,FIX
468900,538.34,521.55,1.0,1,FIX
483000,586.54,530.53,1.0,1,FIX
518600,654.69,522.29,1.0,1,FIX
533500,597.63,525.58,1.0,1,FIX
562400,537.78,490.96,1.0,1,FIX
576400,616.63,497.58,1.0,2,SACCADE
598500,692.68,498.64,1.0,2,SACCADE
612600,581.73,489.71,1.0,3,SACCADE
627500,897.2,518.09,1.0,1,SP
641900,1073.63,497.87,1.0,1,FIX
656100,1158.21,496.51,1.0,1,FIX
677600,1143.24,498.08,1.0,1,FIX
691900,1112.33,510.46,1.0,1,FIX
706500,1110.55,464.09,1.0,1,FIX
720900,1112.58,508.54,1.0,1,FIX
742400,1138.66,469.52,1.0,1,FIX
757000,1163.37,499.22,1.0,1,FIX
771000,1182.28,491.08,1.0,1,FIX
785100,1147.04,460.36,1.0,1,FIX
800000,1184.85,476.75,1.0,1,FIX
821000,1178.32,497.94,1.0,1,FIX
835300,1222.75,470.15,1.0,1,FIX
850600,1197.82,508.71,1.0,1,FIX
880400,1158.17,461.71,1.0,1,FIX
901900,1178.17,465.8,1.0,2,SACCADE
916000,1178.85,486.31,1.0,2,SACCADE
944800,1248.61,520.62,1.0,3,SP
966000,1448.56,547.28,1.0,1,FIX
980400,1549.25,566.52,1.0,1,FIX
994800,1569.69,522.66,1.0,1,FIX
1009700,1521.79,485.62,1.0,1,FIX
1030400,1588.35,471.54,1.0,1,FIX
1044500,1570.48,498.66,1.0,1,FIX
1059200,1547.03,463.94,1.0,1,FIX
1074000,1558.51,486.04,1.0,1,FIX
1088300,1512.37,494.69,1.0,1,FIX
1109800,1576.17,480.21,1.0,1,FIX
1124000,1461.25,466.66,1.0,1,FIX
1138600,1537.41,499.07,1.0,1,FIX
1152700,1537.98,491.67,1.0,1,FIX
1174600,1538.16,496.1,1.0,1,FIX
1189600,1505.88,472.26,1.0,1,FIX
1203800,1559.51,449.21,1.0,1,FIX
1218000,1578.36,461.22,1.0,1,FIX
1232200,1597.39,441.63,1.0,1,FIX
1268100,1558.01,480.98,1.0,1,FIX
1282500,1558.0,526.71,1.0,1,FIX
1318600,1573.6,482.47,1.0,1,FIX
1332600,1507.39,462.56,1.0,1,FIX
1347100,1508.35,464.22,1.0,1,FIX
1361800,1556.05,480.97,1.0,1,FIX
1376400,1559.52,450.3,1.0,1,FIX
1398300,1516.01,466.33,1.0,1,FIX
1413000,1515.87,489.84,1.0,1,FIX
1427800,1542.51,483.87,1.0,1,FIX
1442600,1506.74,459.3,1.0,1,FIX
1457400,1583.69,494.02,1.0,1,FIX
1478500,1480.4,465.05,1.0,1,FIX
1493000,1570.73,474.3,1.0,1,FIX
1508400,1565.92,524.23,1.0,1,FIX
1537500,1544.46,465.77,1.0,2,FIX
1552000,1486.53,460.58,1.0,2,FIX
1573300,1544.3,474.93,1.0,1,FIX
1588100,1572.91,497.71,1.0,1,FIX
1602000,1582.54,489.06,1.0,1,FIX
1638000,1559.54,499.54,1.0,1,FIX
1653200,1503.91,495.6,1.0,1,FIX
1681300,1531.01,464.82,1.0,1,FIX
1702600,1599.86,493.71,1.0,1,FIX
1716600,1579.52,481.2,1.0,1,FIX
