%@metadata width_px 1920.0
%@metadata height_px 1080.0
%@metadata width_mm 540.0
%@metadata height_mm 254.0
%@metadata distance_mm 620.0
% The number after speed, direction denotes the step size that was used for the calculation.
% Acceleration was calculated between two adjacent samples of the already low pass filtered velocity
@RELATION gaze_labels

@ATTRIBUTE time INTEGER
@ATTRIBUTE x NUMERIC
@ATTRIBUTE y NUMERIC
@ATTRIBUTE confidence NUMERIC
@ATTRIBUTE handlabeller_final INTEGER
@ATTRIBUTE EYE_MOVEMENT_TYPE {UNKNOWN, FIX, SACCADE, SP, NOISE, BLINK, NOISE_CLUSTER, PSO}

@DATA
0,282.82,582.14,1.0,1,FIX
22200,242.42,515.05,1.0,1,FIX
37000,252.23,545.16,1.0,1,FIX
51800,206.97,504.99,1.0,1,FIX
66400,211.12,499.81,1.0,1,FIX
81100,247.35,489.69,1.0,1,FIX
96000,268.68,491.33,1.0,1,FIX
118300,281.34,486.63,1.0,1,FIX
147700,279.43,504.63,1.0,1,FIX
162000,238.25,492.04,1.0,2,SACCADE
176800,298.82,478.6,1.0,2,SACCADE
199100,267.77,497.13,1.0,3,SP
213800,415.39,539.63,1.0,3,FIX
228600,526.28,563.48,1.0,1,FIX
258000,514.71,517.93,1.0,1,FIX
272400,571.7,549.8,1.0,1,FIX
294500,542.32,532.99,1.0,1,FIX
323900,568.09,574.1,1.0,1,FIX
338400,499.01,518.17,1.0,2,FIX
352800,536.52,515.5,1.0,2,FIX
390000,528.51,541.09,1.0,1,FIX
404700,477.59,526.26,1.0,1,FIX
419300,446.62,514.93,1.0,1,FIX
433700,464.6,546.2,1.0,1,FIX
448400,477.5,577.41,1.0,1,FIX
470300,490.44,549.26,1.0,1,FIX
485000,500.63,555.27,1.0,1,FIX
499800,497.23,558.87,1.0,1,FIX
529200,445.4,501.33,1.0,1,FIX
544200,469.3,544.15,1.0,1,FIX
566300,446.01,537.03,1.0,1,FIX
580900,469.62,529.68,1.0,1,FIX
595200,536.78,540.64,1.0,1,FIX
610000,485.57,541.44,1.0,1,SACCADE
624700,471.36,536.97,1.0,2,SACCADE
646300,474.47,506.33,1.0,2,SACCADE
675900,617.13,590.42,1.0,3,FIX
705300,823.04,599.46,1.0,1,FIX
720000,855.41,591.25,1.0,1,FIX
756700,832.53,587.3,1.0,1,FIX
771700,816.56,594.57,1.0,1,FIX
786500,838.27,585.1,1.0,1,FIX
800900,790.46,631.95,1.0,1,UNKNOWN
822900,810.75,594.81,1.0,1,UNKNOWN
837900,827.24,599.87,1.0,1,FIX
852700,837.77,542.71,1.0,1,FIX
882400,800.46,596.93,1.0,1,UNKNOWN
897100,835.85,556.6,1.0,2,UNKNOWN
912000,847.78,549.34,1.0,2,UNKNOWN
934300,829.45,580.36,1.0,3,UNKNOWN
948700,1008.32,584.97,1.0,3,UNKNOWN
963400,1158.86,601.86,1.0,1,FIX
978000,1167.2,570.21,1.0,1,FIX
992600,1149.15,566.15,1.0,1,UNKNOWN
1014500,1204.21,554.5,1.0,1,UNKNOWN
1044000,1197.1,533.75,1.0,1,UNKNOWN
1073400,1193.86,590.71,1.0,1,UNKNOWN
1088000,1171.22,540.78,1.0,1,UNKNOWN
1110100,1211.49,569.45,1.0,1,UNKNOWN
1140000,1209.23,539.07,1.0,1,UNKNOWN
1154700,1225.93,538.82,1.0,1,FIX
1169500,1203.04,540.29,1.0,1,FIX
1184100,1225.66,531.13,1.0,1,FIX
1206500,1206.71,556.81,1.0,1,FIX
1221200,1196.67,544.6,1.0,1,FIX
1236100,1227.47,560.27,1.0,1,FIX
1250700,1221.71,571.46,1.0,1,FIX
1280100,1206.8,578.9,1.0,1,FIX
1302200,1203.87,511.55,1.0,1,FIX
1316700,1190.84,542.46,1.0,1,FIX
1331600,1193.86,524.44,1.0,1,FIX
1346400,1234.58,547.24,1.0,1,FIX
1361100,1200.51,528.79,1.0,2,SACCADE
1376000,1216.56,548.18,1.0,2,SACCADE
1398100,1192.72,539.56,1.0,3,FIX
1412900,1324.13,560.84,1.0,1,FIX
1427900,1307.09,529.77,1.0,1,FIX
1457300,1313.05,541.6,1.0,1,FIX
1472000,1326.01,523.44,1.0,1,FIX
1508700,1349.75,546.12,1.0,1,FIX
1523600,1337.63,546.73,1.0,1,FIX
1538300,1298.48,539.54,1.0,1,FIX
1553000,1329.71,573.98,1.0,1,FIX
1575200,1317.22,572.92,1.0,1,FIX
1590000,1323.38,567.9,1.0,1,SACCADE
1604700,1374.64,576.85,1.0,2,SACCADE
1619500,1329.74,562.24,1.0,2,SACCADE
1648800,1219.09,557.81,1.0,3,SP
1671000,1019.73,578.38,1.0,1,FIX
1685700,960.57,634.86,1.0,1,FIX
1700400,914.38,587.35,1.0,1,FIX
1715100,913.15,598.87,1.0,1,FIX
1729900,901.04,576.49,1.0,1,FIX
1744300,900.99,575.44,1.0,1,FIX
1766500,910.65,560.32,1.0,1,FIX
1795700,902.42,550.51,1.0,1,FIX
1825000,919.89,549.26,1.0,1,FIX
1840100,912.91,567.53,1.0,1,FIX
1862200,936.43,562.69,1.0,1,FIX
1876500,881.76,581.3,1.0,1,SACCADE
1905900,926.13,584.34,1.0,2,NOISE
1920600,925.42,609.29,1.0,3,NOISE
1943000,841.91,613.17,1.0,3,NOISE
1957800,629.71,603.78,1.0,1,NOISE
1972600,699.53,577.79,1.0,1,SACCADE
1987300,667.49,565.45,1.0,1,FIX
2002000,706.77,533.28,1.0,1,FIX
2016700,679.71,541.65,1.0,1,FIX
2039000,674.47,570.66,1.0,1,FIX
2068300,697.75,570.29,1.0,1,FIX
2083000,661.15,535.41,1.0,1,FIX
2097900,656.76,556.92,1.0,1,FIX
2112600,643.27,555.03,1.0,1,FIX
2134900,667.32,565.03,1.0,1,FIX
2149600,689.23,555.62,1.0,1,FIX
2179000,705.27,565.79,1.0,1,FIX
2193600,671.73,579.76,1.0,1,FIX
2230400,680.19,576.39,1.0,1,FIX
2245200,659.24,541.06,1.0,1,FIX
2274300,666.12,530.74,1.0,1,FIX
2289000,689.31,577.47,1.0,1,FIX
2304200,679.4,559.62,1.0,1,FIX
2326700,665.24,574.24,1.0,1,FIX
2341300,732.12,555.27,1.0,1,FIX
2355800,650.55,542.37,1.0,1,FIX
2370100,687.43,584.16,1.0,1,FIX
2384700,664.05,559.75,1.0,1,FIX
2406900,731.94,591.02,1.0,1,FIX
2421800,672.42,574.11,1.0,1,FIX
2451400,668.7,547.18,1.0,1,FIX
2466100,671.37,557.21,1.0,1,FIX
2480700,684.77,584.72,1.0,2,SACCADE
2503200,689.6,576.88,1.0,3,SACCADE
2518000,673.46,580.05,1.0,3,SACCADE
2532900,763.74,585.92,1.0,1,FIX
2547600,794.53,596.21,1.0,1,FIX
2562100,788.94,580.91,1.0,1,FIX
2599100,820.86,585.98,1.0,1,FIX
2613800,847.57,587.54,1.0,1,FIX
2628700,806.72,570.95,1.0,1,FIX
2658200,810.11,596.38,1.0,1,FIX
2672900,815.09,604.06,1.0,1,FIX
2695000,844.23,617.7,1.0,1,FIX
2709800,811.22,599.71,1.0,1,FIX
2724500,838.12,605.35,1.0,1,FIX
2739200,803.34,598.32,1.0,1,FIX
2753900,829.66,565.32,1.0,1,FIX
2768600,814.68,603.93,1.0,1,FIX
2805100,854.32,608.93,1.0,1,FIX
2819900,817.75,588.57,1.0,1,FIX
2834800,801.47,592.11,1.0,1,FIX
2849500,798.42,579.06,1.0,2,FIX
2864600,810.63,613.81,1.0,3,FIX
2886500,762.23,583.38,1.0,3,FIX
