%@metadata width_px 1920.0
%@metadata height_px 1080.0
%@metadata width_mm 540.0
%@metadata height_mm 254.0
%@metadata distance_mm 620.0
% The number after speed, direction denotes the step size that was used for the calculation.
% Acceleration was calculated between two adjacent samples of the already low pass filtered velocity
@RELATION gaze_labels

@ATTRIBUTE time INTEGER
@ATTRIBUTE x NUMERIC
@ATTRIBUTE y NUMERIC
@ATTRIBUTE confidence NUMERIC
@ATTRIBUTE handlabeller_final INTEGER
@ATTRIBUTE EYE_MOVEMENT_TYPE {UNKNOWN, FIX, SACCADE, SP, NOISE, BLINK, NOISE_CLUSTER, PSO}

@DATA
0,-39.1,683.14,1.0,1,FIX
14300,-69.68,655.1,1.0,1,FIX
28600,-64.56,663.62,1.0,1,FIX
57500,-41.6,680.24,1.0,1,FIX
78800,-69.95,681.39,1.0,1,FIX
107600,-45.5,666.06,1.0,1,FIX
123000,-14.78,684.61,1.0,1,FIX
159000,-62.36,678.79,1.0,1,FIX
173400,-38.62,680.54,1.0,1,FIX
187400,-19.91,681.21,1.0,1,FIX
202200,-48.67,686.25,1.0,1,FIX
223500,-71.2,665.96,1.0,1,FIX
237800,-70.01,667.79,1.0,1,FIX
252200,-71.08,680.93,1.0,1,FIX
266100,-65.78,672.61,1.0,1,FIX
287600,-81.92,675.5,1.0,1,FIX
316600,-88.76,672.92,1.0,2,SACCADE
331100,-65.85,673.67,1.0,2,SACCADE
345800,-78.73,679.48,1.0,3,SP
367200,-5.5,670.97,1.0,1,FIX
381000,56.94,677.5,1.0,1,FIX
396100,25.8,667.39,1.0,1,FIX
425500,7.15,673.04,1.0,1,FIX
446600,34.02,669.81,1.0,1,FIX
475700,-0.34,669.65,1.0,1,FIX
489600,2.61,677.36,1.0,1,FIX
511800,0.41,672.25,1.0,2,SACCADE
540100,17.69,683.27,1.0,3,SACCADE
554200,12.15,675.65,1.0,3,FIX
575700,100.18,671.84,1.0,1,FIX
590000,83.91,669.93,1.0,1,FIX
605300,121.13,667.87,1.0,1,FIX
619600,120.29,666.03,1.0,1,FIX
633600,107.1,666.9,1.0,1,FIX
655200,42.24,666.7,1.0,1,FIX
670000,106.93,660.87,1.0,1,FIX
683800,19.06,657.85,1.0,1,FIX
697900,75.78,655.72,1.0,1,FIX
720100,96.0,652.46,1.0,2,FIX
735400,42.68,662.1,1.0,2,SACCADE
764000,73.15,654.67,1.0,3,SACCADE
778100,34.76,661.96,1.0,1,FIX
799900,-57.38,673.93,1.0,1,FIX
814200,-116.9,676.56,1.0,1,FIX
828100,-23.99,683.04,1.0,1,FIX
865000,-29.83,680.24,1.0,1,FIX
879200,-29.25,672.29,1.0,2,SACCADE
908500,-45.39,669.66,1.0,2,SACCADE
922200,18.17,670.32,1.0,3,SP
943200,163.88,645.81,1.0,1,FIX
957500,210.42,633.52,1.0,1,FIX
972100,256.8,646.56,1.0,1,FIX
986100,276.28,661.54,1.0,1,FIX
1007100,213.77,653.79,1.0,1,FIX
1022800,210.4,651.74,1.0,1,FIX
1051100,186.59,652.89,1.0,1,FIX
1065400,220.84,653.06,1.0,1,FIX
1086700,226.5,642.58,1.0,1,FIX
1101200,217.19,652.31,1.0,2,SACCADE
1115200,228.08,648.21,1.0,2,SACCADE
1129700,236.13,657.84,1.0,3,SP
1151500,207.06,668.22,1.0,1,FIX
1166300,101.56,660.83,1.0,1,FIX
1195500,45.72,664.66,1.0,1,FIX
1232000,127.22,671.05,1.0,1,FIX
1247100,73.46,653.59,1.0,1,FIX
1275400,113.13,658.5,1.0,1,FIX
1289900,101.69,659.54,1.0,1,FIX
1305500,73.69,654.96,1.0,1,FIX
1326700,118.08,657.97,1.0,1,FIX
1340800,135.98,656.83,1.0,1,FIX
1355100,109.31,655.87,1.0,2,FIX
1369400,78.08,659.11,1.0,2,SACCADE
1391400,82.83,649.49,1.0,3,SACCADE
1406000,132.27,652.65,1.0,3,SP
1420800,255.41,625.97,1.0,1,FIX
1450100,304.5,616.04,1.0,1,FIX
1470800,283.42,638.76,1.0,1,FIX
1485200,324.47,642.25,1.0,1,FIX
1499400,276.51,642.23,1.0,1,FIX
1514100,332.35,642.26,1.0,1,FIX
1535700,339.11,639.81,1.0,1,FIX
1549700,280.13,644.79,1.0,1,FIX
1563700,357.7,656.96,1.0,1,SACCADE
1599100,269.14,631.76,1.0,2,SACCADE
1613600,316.61,623.75,1.0,3,SP
1628100,658.65,620.52,1.0,1,FIX
1663400,948.79,625.15,1.0,1,FIX
1677600,851.73,647.48,1.0,1,FIX
1692400,831.54,641.62,1.0,1,FIX
1706300,850.41,626.79,1.0,1,FIX
1727500,900.06,656.43,1.0,1,FIX
1742200,802.7,625.98,1.0,1,FIX
1756700,870.9,633.87,1.0,1,FIX
1770600,875.98,642.84,1.0,1,FIX
1792200,831.74,630.13,1.0,1,FIX
1820400,1039.91,692.36,1.0,1,FIX
1835400,955.93,683.23,1.0,1,FIX
1849700,911.19,665.45,1.0,1,FIX
1871100,799.17,626.16,1.0,1,FIX
1885600,842.84,639.72,1.0,1,FIX
1900400,868.58,633.28,1.0,1,FIX
1929500,865.76,648.07,1.0,1,FIX
1951000,876.58,644.98,1.0,1,FIX
1980200,885.67,646.32,1.0,1,FIX
1995000,914.86,659.86,1.0,1,FIX
2032000,914.19,642.35,1.0,1,FIX
2046700,984.0,649.39,1.0,2,FIX
2060600,874.96,636.36,1.0,2,FIX
2074700,887.11,653.2,1.0,1,FIX
2089400,1016.76,683.29,1.0,1,FIX
2111200,757.19,630.97,1.0,1,FIX
2125600,890.79,627.33,1.0,1,FIX
2155000,915.46,634.17,1.0,1,SACCADE
2170100,885.36,661.33,1.0,1,SACCADE
2192000,763.2,627.0,1.0,1,FIX
2206700,966.07,666.89,1.0,2,FIX
2220700,800.61,648.37,1.0,2,FIX
2235100,764.54,632.51,1.0,1,FIX
2256200,873.55,656.35,1.0,1,FIX
2270600,887.13,670.17,1.0,1,FIX
2298900,927.75,673.06,1.0,1,FIX
2313600,896.63,650.96,1.0,1,FIX
2350000,914.23,651.15,1.0,1,FIX
2365300,764.51,626.46,1.0,1,FIX
2379400,726.4,613.09,1.0,1,FIX
2414900,833.46,651.68,1.0,1,FIX
2430500,855.47,656.98,1.0,1,FIX
2445500,810.1,651.88,1.0,1,FIX
2459300,809.79,634.44,1.0,1,FIX
2473600,870.91,662.44,1.0,1,FIX
2495000,837.45,652.15,1.0,1,SACCADE
2524400,789.45,639.67,1.0,2,SACCADE
2538000,765.46,628.04,1.0,3,SACCADE
2559200,631.09,632.13,1.0,1,SP
2573200,546.54,671.61,1.0,1,FIX
2587700,351.86,647.96,1.0,1,FIX
2602000,371.0,646.75,1.0,1,FIX
2623700,338.11,631.56,1.0,1,FIX
2638000,332.18,645.85,1.0,1,FIX
2666200,338.72,632.68,1.0,1,FIX
2688400,367.32,635.98,1.0,1,FIX
2702900,379.91,635.79,1.0,1,FIX
2730600,397.78,634.46,1.0,2,SACCADE
2752400,321.1,640.95,1.0,3,SP
2781000,211.9,664.43,1.0,1,FIX
2795300,175.48,663.68,1.0,1,FIX
2809600,261.35,660.51,1.0,1,FIX
2831800,210.16,662.3,1.0,1,FIX
2846200,159.44,667.54,1.0,1,FIX
2860300,246.86,660.16,1.0,1,FIX
2875200,185.5,661.92,1.0,1,FIX
2889400,219.31,649.98,1.0,1,FIX
2925400,217.14,660.59,1.0,2,FIX
2939900,144.82,656.93,1.0,2,SACCADE
2954900,203.17,662.9,1.0,2,FIX
2969600,172.69,663.78,1.0,1,FIX
2990700,69.64,659.37,1.0,1,FIX
3005300,70.37,670.1,1.0,1,FIX
3019800,109.12,654.94,1.0,1,FIX
3034600,109.12,654.94,1.0,1,FIX
3069500,84.78,661.31,1.0,1,FIX
3098200,126.25,652.87,1.0,1,FIX
3119200,75.26,649.89,1.0,1,FIX
