%@metadata width_px 1920.0
%@metadata height_px 1080.0
%@metadata width_mm 540.0
%@metadata height_mm 254.0
%@metadata distance_mm 620.0
% The number after speed, direction denotes the step size that was used for the calculation.
% Acceleration was calculated between two adjacent samples of the already low pass filtered velocity
@RELATION gaze_labels

@ATTRIBUTE time INTEGER
@ATTRIBUTE x NUMERIC
@ATTRIBUTE y NUMERIC
@ATTRIBUTE confidence NUMERIC
@ATTRIBUTE handlabeller_final INTEGER
@ATTRIBUTE EYE_MOVEMENT_TYPE {UNKNOWN, FIX, SACCADE, SP, NOISE, BLINK, NOISE_CLUSTER, PSO}

@DATA
0,-60.92,707.58,1.0,1,FIX
14400,-55.96,713.35,1.0,1,FIX
28500,-7.86,711.59,1.0,1,FIX
57400,-19.89,710.92,1.0,1,FIX
79300,7.14,700.15,1.0,1,FIX
93500,4.71,700.48,1.0,1,FIX
107800,-18.37,710.52,1.0,1,FIX
122300,-16.14,716.08,1.0,1,FIX
143400,-58.67,714.53,1.0,1,FIX
157700,5.79,714.68,1.0,1,FIX
185600,6.62,706.81,1.0,1,SACCADE
207400,-22.1,715.5,1.0,2,SACCADE
236200,-35.94,725.03,1.0,3,SP
250400,162.69,700.81,1.0,3,FIX
272100,258.62,720.98,1.0,1,FIX
300200,261.96,714.75,1.0,1,FIX
315000,230.94,714.54,1.0,1,FIX
330100,259.84,714.87,1.0,1,FIX
351100,274.58,708.58,1.0,1,FIX
365100,311.31,697.42,1.0,1,FIX
380100,283.29,716.71,1.0,1,FIX
394300,226.43,700.15,1.0,1,FIX
416100,308.7,700.7,1.0,1,FIX
430100,261.55,703.75,1.0,1,FIX
458900,266.08,716.36,1.0,1,FIX
473400,296.67,700.22,1.0,1,FIX
494700,293.25,715.19,1.0,1,FIX
508700,311.22,705.75,1.0,1,FIX
523400,253.53,704.9,1.0,1,SACCADE
537800,237.85,701.58,1.0,2,SACCADE
558800,287.75,706.78,1.0,3,FIX
573300,118.96,727.91,1.0,1,FIX
587600,135.09,728.76,1.0,1,FIX
623600,100.42,721.27,1.0,1,FIX
638000,130.31,712.21,1.0,1,FIX
652100,153.24,717.55,1.0,1,FIX
687800,136.5,713.07,1.0,4,FIX
701600,108.57,708.07,1.0,4,NOISE
715600,117.1,713.93,1.0,4,NOISE
730100,154.37,780.99,1.0,4,NOISE
752200,262.88,894.1,1.0,4,NOISE
766700,861.19,949.26,1.0,4,NOISE
781400,730.68,1078.6,1.0,4,NOISE
810200,872.54,1183.58,1.0,4,NOISE
831900,1093.18,1174.21,1.0,4,NOISE
846500,779.57,1045.93,1.0,4,NOISE
860600,572.64,955.45,1.0,4,NOISE
875000,301.31,875.69,1.0,4,NOISE
889500,280.66,827.17,1.0,4,NOISE
910300,203.25,795.7,1.0,4,FIX
924200,76.98,699.54,1.0,1,FIX
953200,67.24,701.48,1.0,1,FIX
975200,35.66,699.16,1.0,1,FIX
1003900,42.82,709.25,1.0,2,FIX
1018200,37.37,696.58,1.0,2,FIX
1054800,19.34,696.4,1.0,1,FIX
1069100,124.2,702.31,1.0,1,FIX
1083500,161.24,711.17,1.0,1,FIX
1097900,142.53,713.92,1.0,1,SACCADE
1119600,168.48,714.75,1.0,2,SACCADE
1133400,184.09,705.4,1.0,3,SP
1147500,294.58,701.56,1.0,1,FIX
1162500,327.47,719.73,1.0,1,FIX
1198200,422.27,715.54,1.0,1,FIX
1214100,372.85,695.67,1.0,1,FIX
1228600,464.78,710.9,1.0,1,FIX
1243400,384.43,703.94,1.0,1,FIX
1257700,442.78,705.92,1.0,1,FIX
1279400,418.62,698.89,1.0,1,FIX
1293400,391.33,697.76,1.0,1,FIX
1308100,420.67,708.8,1.0,2,SACCADE
1321900,459.75,739.29,1.0,3,SACCADE
1343500,438.62,706.15,1.0,1,SP
1372400,662.63,695.23,1.0,1,FIX
1386700,659.16,684.89,1.0,1,FIX
1422300,761.98,748.44,1.0,1,FIX
1436400,740.38,743.31,1.0,1,FIX
1450500,677.41,746.04,1.0,1,FIX
1472000,755.83,759.48,1.0,1,FIX
1486100,729.3,756.39,1.0,1,FIX
1500200,729.96,757.99,1.0,1,FIX
1514300,730.03,741.26,1.0,1,FIX
1549400,754.46,757.39,1.0,1,FIX
1563400,705.33,743.39,1.0,1,FIX
1577600,693.55,753.24,1.0,1,FIX
1599200,671.65,711.82,1.0,2,SACCADE
1613100,737.1,740.89,1.0,2,SACCADE
1627100,750.32,729.31,1.0,3,SP
1641400,1080.01,752.13,1.0,3,FIX
1663200,1321.91,740.61,1.0,1,FIX
1677500,1313.42,761.73,1.0,1,FIX
1706400,1329.64,771.07,1.0,1,FIX
1743200,1273.39,732.42,1.0,1,FIX
1757300,1282.13,750.72,1.0,1,FIX
1772200,1281.59,757.2,1.0,1,FIX
1807900,1262.41,747.39,1.0,1,FIX
1822500,1261.73,755.96,1.0,1,FIX
1836600,1310.17,761.15,1.0,1,FIX
1851300,1284.64,764.03,1.0,1,FIX
1865500,1308.03,758.14,1.0,1,FIX
1886600,1292.88,746.15,1.0,1,FIX
1901000,1289.91,761.21,1.0,1,FIX
1929300,1349.59,765.39,1.0,1,FIX
1950400,1328.63,804.08,1.0,1,FIX
1965100,1370.24,800.68,1.0,1,FIX
1979800,1275.54,775.4,1.0,1,FIX
1994100,1203.26,743.94,1.0,1,FIX
2015500,1321.67,757.42,1.0,1,FIX
2029600,1262.13,758.73,1.0,1,FIX
2058200,1278.94,777.62,1.0,2,SACCADE
2073400,1320.19,779.81,1.0,2,SACCADE
2094800,1232.09,762.67,1.0,3,SP
2123500,1044.82,744.24,1.0,1,FIX
2137800,1078.37,739.59,1.0,1,FIX
2173400,1075.96,742.07,1.0,1,FIX
2187600,1060.98,736.46,1.0,1,FIX
2202100,1095.01,751.9,1.0,1,FIX
2223200,1112.35,778.34,1.0,1,FIX
2237600,1046.39,748.38,1.0,1,FIX
2252100,1090.21,775.42,1.0,1,FIX
2266200,1089.75,780.97,1.0,1,FIX
2288100,1069.88,764.05,1.0,1,FIX
2302200,1090.84,763.26,1.0,1,FIX
2330200,1072.99,747.93,1.0,1,FIX
2351500,1051.88,746.59,1.0,1,FIX
2365900,1087.12,772.25,1.0,1,SACCADE
2380300,1057.84,748.58,1.0,1,SACCADE
2394400,1097.17,782.17,1.0,2,SP
2415800,1129.2,778.58,1.0,3,FIX
2430100,1249.37,777.24,1.0,1,FIX
2458300,1247.08,746.62,1.0,1,FIX
2494700,1310.34,785.32,1.0,1,FIX
2509000,1252.39,758.24,1.0,1,FIX
2523500,1292.46,777.81,1.0,1,FIX
2558900,1226.37,727.92,1.0,1,FIX
2573200,1232.93,743.55,1.0,1,FIX
2587300,1311.98,751.1,1.0,2,SACCADE
2601800,1277.42,763.64,1.0,2,SACCADE
2623500,1270.61,746.16,1.0,3,SP
2637700,886.45,734.13,1.0,3,FIX
2651800,972.2,716.44,1.0,1,FIX
2666300,971.57,739.75,1.0,1,FIX
2687200,978.36,738.46,1.0,1,FIX
2715900,951.71,741.4,1.0,1,FIX
2730200,1030.9,768.61,1.0,1,FIX
2751300,977.19,750.52,1.0,1,FIX
2765400,1008.54,741.35,1.0,1,FIX
2779400,940.37,741.11,1.0,1,FIX
2793800,1001.98,705.36,1.0,1,FIX
2814800,983.55,745.68,1.0,1,FIX
2843600,974.55,739.47,1.0,1,FIX
2879300,998.89,738.93,1.0,1,FIX
2893300,971.36,750.97,1.0,2,SACCADE
2922300,985.27,743.35,1.0,3,SACCADE
2944300,921.44,714.82,1.0,1,SP
2958200,863.66,716.47,1.0,1,FIX
2973500,782.99,747.93,1.0,1,FIX
2988100,710.45,724.89,1.0,1,FIX
3003600,703.67,725.75,1.0,1,FIX
3033300,754.59,719.93,1.0,1,FIX
3054900,738.39,725.75,1.0,1,FIX
3069200,756.69,715.31,1.0,1,FIX
3083700,820.26,731.55,1.0,1,FIX
3098000,695.1,706.26,1.0,1,FIX
3113200,742.85,722.21,1.0,1,FIX
3134200,724.75,715.92,1.0,1,FIX
3148500,752.65,710.83,1.0,1,FIX
3177900,724.63,711.61,1.0,1,FIX
3199300,754.62,685.36,1.0,1,FIX
3213700,703.74,711.12,1.0,1,FIX
3243200,835.0,730.36,1.0,1,FIX
3257700,673.85,686.76,1.0,1,FIX
3293300,772.62,684.34,1.0,1,FIX
