@RELATION gaze_labels

%@METADATA width_px 1920
%@METADATA height_px 1080
%@METADATA width_mm 540.00
%@METADATA height_mm 254.00
%@METADATA distance_mm 620.00


@ATTRIBUTE time INTEGER
@ATTRIBUTE x NUMERIC
@ATTRIBUTE y NUMERIC
@ATTRIBUTE confidence NUMERIC
@ATTRIBUTE handlabeller1 INTEGER
@ATTRIBUTE handlabeller2 INTEGER
@ATTRIBUTE handlabeller_final INTEGER
@ATTRIBUTE speed_1 numeric
@ATTRIBUTE direction_1 numeric
@ATTRIBUTE acceleration_1 numeric
@ATTRIBUTE speed_2 numeric
@ATTRIBUTE direction_2 numeric
@ATTRIBUTE acceleration_2 numeric
@ATTRIBUTE speed_4 numeric
@ATTRIBUTE direction_4 numeric
@ATTRIBUTE acceleration_4 numeric
@ATTRIBUTE speed_8 numeric
@ATTRIBUTE direction_8 numeric
@ATTRIBUTE acceleration_8 numeric
@ATTRIBUTE speed_16 numeric
@ATTRIBUTE direction_16 numeric
@ATTRIBUTE acceleration_16 numeric

%The number after speed, direction denotes the step size that was used for the calculation.
%Acceleration was calculated between two adjacent samples of the already low pass filtered velocity

@DATA
0,20.53,598.27,1.00,1,1,1,0.00,0.00,0.00,6578.70,-0.10,0.00,4117.56,-0.12,0.00,1124.06,-0.23,0.00,270.96,-0.79,0.00
15100,119.36,588.25,1.00,1,1,1,6578.70,-0.10,435675.76,4117.56,-0.12,163092.52,238.72,-0.91,261866.00,1057.20,-3.07,142767.05,269.18,-2.42,26081.63
30000,143.20,583.75,1.00,1,1,1,1628.16,-0.19,332781.91,238.72,-0.91,265380.98,1124.06,-0.23,63795.69,1759.36,-3.13,47440.10,286.69,-0.91,25638.45
45300,123.77,582.54,1.00,1,1,1,1272.62,-3.08,188152.74,1921.71,-3.12,135504.93,1057.20,-3.07,140900.82,1514.21,-3.11,16148.87,933.35,-0.30,46895.02
59800,85.94,582.79,1.00,1,1,1,2608.69,3.14,92543.68,2031.34,3.14,8184.53,1759.36,-3.13,48748.79,270.96,-0.79,117941.46,1801.80,-0.20,60530.99
82400,48.41,583.01,1.00,1,1,1,1660.92,3.14,41936.78,1631.38,-3.13,17754.58,1514.21,-3.11,10932.64,269.18,-2.42,17426.22,2661.80,-0.17,38206.73
97600,24.28,582.08,1.00,1,1,1,1588.43,-3.10,6737.98,888.28,-3.00,49978.76,625.94,-2.93,59582.88,286.69,-0.91,25132.43,3399.85,-0.16,48582.53
112700,21.76,579.18,1.00,1,1,1,254.00,-2.29,94480.71,749.30,-0.38,104751.16,810.55,-0.36,91238.27,933.35,-0.30,47516.15,4010.88,-0.17,40528.40
127100,44.78,573.82,1.00,1,1,1,1641.31,-0.23,123212.68,2486.22,-0.18,122070.42,2425.53,-0.19,113441.58,1801.80,-0.20,60951.34,2456.10,-0.21,108403.58
142100,93.62,565.76,1.00,1,1,1,3299.61,-0.16,111018.87,4101.28,-0.15,107866.20,2947.60,-0.16,35243.71,2661.80,-0.17,57564.81,2243.49,-0.25,15242.11
156900,165.55,555.04,1.00,1,1,1,4914.03,-0.15,109165.28,3214.84,-0.15,59928.30,3810.31,-0.14,58365.55,3399.85,-0.16,49895.57,2154.67,-0.26,6513.09
193000,255.51,541.94,1.00,2,2,2,2518.23,-0.14,66366.46,3637.06,-0.14,11716.51,3855.40,-0.14,1398.06,4010.88,-0.17,16952.32,2057.70,-0.26,2735.51
206900,345.65,529.89,1.00,2,2,2,6543.04,-0.13,289575.02,4620.93,-0.13,70800.32,3978.03,-0.15,9042.53,4240.85,-0.18,17250.14,1999.89,-0.20,9031.36
235600,450.61,515.78,1.00,1,1,1,3690.01,-0.13,99408.73,4318.50,-0.15,10947.02,5107.10,-0.17,39549.68,4162.86,-0.20,4132.15,2008.44,-0.10,6819.19
257000,559.51,497.06,1.00,1,1,1,5163.08,-0.17,69241.17,5702.09,-0.21,66016.92,4680.31,-0.21,22197.49,3694.10,-0.23,22281.56,1942.49,0.02,11984.63
270900,647.48,473.85,1.00,1,1,1,6545.74,-0.26,106009.62,5340.14,-0.30,44823.43,4628.27,-0.28,23002.61,3208.14,-0.24,35167.42,1889.25,0.16,19912.66
286000,707.37,451.03,1.00,1,1,1,4244.38,-0.36,156842.25,3421.09,-0.42,131756.60,3279.07,-0.39,93838.78,2200.70,-0.20,67135.55,1930.95,0.28,15210.77
301000,741.31,431.43,1.00,1,1,1,2612.99,-0.52,114384.82,1385.83,-0.74,143297.14,1085.63,-0.64,149409.95,1267.98,0.05,68177.23,1944.36,0.37,11028.55
315900,737.87,422.99,1.00,1,1,1,611.69,-1.96,174561.20,979.58,-3.12,147736.78,775.04,2.83,123235.36,794.43,1.40,90056.63,1952.15,0.44,9508.29
337500,705.56,430.79,1.00,1,1,1,1538.91,2.90,72636.26,2505.09,2.64,79888.24,2352.57,2.50,75929.79,1707.04,2.03,53697.82,2068.77,0.49,6949.69
352000,658.64,466.57,1.00,4,4,4,4069.76,2.49,188438.10,4369.79,2.33,146691.73,3586.94,2.33,91862.27,2437.66,2.02,50393.77,1982.16,0.50,6302.83
367000,617.00,524.46,1.00,4,4,4,4753.84,2.19,97721.58,5134.86,2.14,77415.70,4715.87,2.15,90057.76,2681.30,1.90,26147.34,1952.72,0.50,2166.06
381700,576.00,594.75,1.00,4,4,4,5535.41,2.10,62719.44,5180.90,2.00,51577.28,4569.80,1.89,82098.03,2840.46,1.72,36360.16,1829.57,0.47,9029.62
397300,552.16,667.42,1.00,4,4,4,4903.14,1.89,81230.05,4370.70,1.59,133144.42,3632.91,1.54,108367.88,2969.43,1.45,50634.57,1687.88,0.42,10892.85
412100,573.18,727.58,1.00,4,4,4,4306.06,1.23,203259.16,3362.53,0.96,175001.46,3387.09,1.09,107022.41,2829.76,1.11,66730.01,1419.45,0.34,19686.23
434800,624.56,770.66,1.00,4,4,4,2953.56,0.70,102443.50,3471.78,0.58,57120.62,3605.76,0.60,74658.17,2838.38,0.69,51490.85,1309.78,0.28,6071.32
449700,682.47,798.98,1.00,4,4,4,4326.19,0.45,108911.61,4425.88,0.27,103929.65,3758.16,0.25,87925.51,3212.88,0.27,88053.62,1404.75,0.18,10965.58
464600,751.81,805.36,1.00,4,4,4,4673.29,0.09,111446.63,4569.85,-0.06,99349.76,4528.80,-0.05,98001.81,3824.05,-0.04,84641.99,1639.18,0.09,18529.62
479800,819.75,790.35,1.00,4,4,4,4577.74,-0.22,93951.17,5039.87,-0.33,88906.79,5065.79,-0.31,88431.73,3494.88,-0.28,61250.96,1895.74,-0.01,20144.03
494800,895.92,756.39,1.00,4,4,4,5559.65,-0.42,94228.89,5815.89,-0.51,82448.01,5448.50,-0.50,71944.63,3689.41,-0.48,48715.55,2115.43,-0.09,18441.81
509700,971.88,706.11,1.00,4,4,4,6113.75,-0.58,74545.56,6001.10,-0.65,58638.43,4020.38,-0.68,110913.69,3774.19,-0.61,34453.56,2285.02,-0.17,16517.08
524900,1039.68,647.02,1.00,4,4,4,5916.66,-0.72,53844.34,3097.70,-0.87,200814.25,3637.54,-0.87,52850.77,3429.37,-0.68,27420.94,2344.33,-0.26,14364.45
561900,1076.24,582.59,1.00,4,4,4,2002.12,-1.05,110323.02,2446.57,-1.18,28962.97,3188.92,-0.97,15563.30,3128.08,-0.70,8359.11,2133.28,-0.39,9737.46
576000,1087.34,531.44,1.00,4,4,4,3712.17,-1.36,134549.65,3434.20,-1.14,70492.69,2282.68,-0.94,64480.19,2705.61,-0.71,30090.22,1834.22,-0.58,33134.40
590500,1117.16,493.30,1.00,1,1,1,3338.71,-0.91,111335.03,2268.92,-0.65,123506.71,2223.42,-0.73,33043.55,2108.17,-0.72,41206.22,1445.80,-0.82,38518.04
620000,1166.87,471.10,1.00,1,1,1,1845.71,-0.42,64882.78,1869.67,-0.32,26404.95,1903.15,-0.42,24380.79,1416.20,-0.75,23545.90,1165.37,-1.18,18152.36
642700,1209.71,462.34,1.00,1,1,1,1926.21,-0.20,18431.38,1659.70,-0.05,23277.10,1395.29,-0.11,31306.43,810.95,-0.95,28254.86,1016.66,-1.69,25281.35
657700,1229.38,468.19,1.00,1,1,1,1367.61,0.29,64406.61,933.71,0.70,77332.30,671.43,0.45,60164.56,368.15,-2.20,51891.94,1084.48,-2.26,39348.79
672800,1231.26,480.39,1.00,1,1,1,817.57,1.42,83305.03,1089.18,2.35,98804.96,1268.55,2.74,118152.55,1033.64,3.14,57662.70,1371.83,-2.62,35019.89
686700,1207.17,490.65,1.00,1,1,1,1883.79,2.74,133753.28,3217.04,3.02,177035.15,2985.43,3.02,129321.88,2177.59,3.05,82781.20,1658.01,-2.85,31707.61
700800,1141.81,491.00,1.00,2,2,2,4635.41,3.14,211946.43,5143.60,-3.14,141203.31,4122.17,3.09,82683.46,3430.48,3.05,88858.13,2044.30,-2.99,33333.15
715900,1056.98,489.84,1.00,2,2,2,5618.58,-3.13,65435.58,4822.96,3.12,22474.54,5002.91,3.12,59230.04,3904.47,3.08,31943.33,2140.04,-3.07,13140.90
737400,965.31,493.99,1.00,2,2,2,4267.76,3.10,64254.29,4891.02,3.11,5311.60,5388.77,3.12,18088.80,4455.77,3.11,26386.23,2231.63,-3.13,7041.69
752000,880.52,496.16,1.00,1,1,1,5809.44,3.12,105809.87,6086.53,3.11,81884.43,4573.82,3.11,55927.75,4475.32,3.13,6772.67,2367.72,3.13,10123.78
767100,784.66,500.37,1.00,1,1,1,6354.97,3.10,36883.47,4316.49,3.10,117223.41,4746.09,3.12,12636.66,4378.95,3.14,6521.10,2438.50,3.12,4865.17
796500,688.57,503.28,1.00,1,1,1,3269.66,3.11,104963.75,3858.57,3.14,16332.92,4052.74,3.14,23671.02,3964.53,3.14,14118.47,2223.10,3.13,7400.98
811900,611.79,500.67,1.00,1,1,1,4988.58,-3.11,112885.09,3741.83,-3.10,12577.40,3550.24,-3.12,33138.16,3494.26,-3.12,30841.59,2156.77,-3.13,5398.64
833500,550.23,497.89,1.00,1,1,1,2853.04,-3.10,98886.27,3166.81,-3.09,26665.44,3231.24,-3.08,16201.76,2548.94,-3.10,43922.42,1930.38,-3.11,10560.89
847700,498.56,495.16,1.00,1,1,1,3644.14,-3.09,55738.37,2585.24,-3.04,42280.90,2070.04,-3.03,82301.48,1608.37,-3.04,66767.13,1643.04,-3.11,20255.86
862600,475.38,490.32,1.00,1,1,1,1588.85,-2.94,140132.01,768.87,-2.70,125955.19,706.95,-2.73,94551.61,658.77,-2.82,65435.88,1303.08,-3.09,22854.40
876800,478.29,485.69,1.00,1,1,1,385.24,-1.01,123935.13,969.10,-0.31,114050.75,878.39,-0.34,104103.12,209.97,-1.31,47902.82,966.59,-3.05,23913.82
898200,508.23,479.78,1.00,1,1,1,1426.24,-0.19,55875.47,2092.51,-0.13,53922.89,1555.94,-0.14,33461.91,435.69,-0.35,16733.84,622.15,-2.98,16299.14
912400,552.20,476.38,1.00,1,1,1,3105.44,-0.08,119535.70,2050.21,-0.07,8313.43,1785.22,-0.10,16726.48,884.91,-0.16,32768.53,269.88,-2.68,26284.59
941900,597.59,473.33,1.00,1,1,1,1542.30,-0.07,52992.69,1537.64,-0.07,17375.81,1130.29,-0.06,22307.80,1148.64,-0.11,9086.33,170.18,-0.90,11765.25
956400,619.67,471.37,1.00,2,2,2,1528.38,-0.09,2479.77,349.59,0.03,82091.15,905.19,-0.04,15564.06,1237.85,-0.09,6383.04,371.31,-0.35,16752.03
993300,615.55,473.80,1.00,1,1,1,129.47,2.61,44611.37,364.29,0.09,704.55,749.74,-0.05,4222.49,1222.35,-0.07,715.20,504.35,-0.21,4002.46
1007500,638.21,472.97,1.00,1,1,1,1596.70,-0.04,120534.18,1456.84,-0.09,77442.64,701.02,-0.06,3454.77,1033.31,-0.08,13316.94,681.88,-0.12,12945.66
1022500,657.94,470.15,1.00,1,1,1,1328.33,-0.14,20591.70,1284.42,-0.13,12212.22,1371.31,-0.09,44739.07,825.52,-0.08,13852.96,829.03,-0.10,9912.89
1037500,676.42,467.93,1.00,1,1,1,1240.67,-0.12,6142.55,1287.59,-0.10,2448.41,1238.13,-0.12,9141.57,636.43,-0.09,12623.62,848.61,-0.07,1898.98
1052300,696.11,466.23,1.00,1,1,1,1335.50,-0.09,7022.88,1192.19,-0.11,6451.42,916.48,-0.10,21781.45,603.12,-0.07,2382.66,802.43,-0.05,3300.62
1067600,712.10,464.15,1.00,1,1,1,1054.09,-0.13,18687.89,623.16,-0.09,37199.15,559.74,-0.13,23374.53,427.38,-0.04,11536.43,679.82,-0.04,8054.97
1090000,719.50,464.06,1.00,1,1,1,330.39,-0.01,32456.41,57.79,-0.62,25622.55,80.90,2.72,28473.20,423.09,-0.05,277.95,515.25,0.00,7409.74
1105000,713.86,462.89,1.00,1,1,1,384.00,-2.94,47350.45,988.19,2.99,69341.64,316.97,2.82,15768.38,377.71,-0.00,3281.75,350.57,0.07,11142.26
1119000,691.18,468.42,1.00,1,1,1,1667.67,2.90,95073.05,799.07,2.79,18556.77,156.91,2.75,11478.70,316.27,0.04,4481.75,252.12,0.15,7269.49
1133900,692.19,470.88,1.00,1,1,1,179.10,1.18,114369.93,681.49,-0.04,98188.67,208.38,0.38,22776.27,267.97,0.15,3952.92,78.54,2.12,19554.93
1148200,711.06,467.54,1.00,1,1,1,1339.60,-0.18,91813.89,952.93,-0.09,19142.04,710.29,-0.02,36618.42,166.53,0.47,8511.29,371.27,2.85,22176.17
1170000,726.46,467.86,1.00,1,1,1,706.83,0.02,30316.37,733.55,0.01,10694.88,840.77,-0.03,5997.96,121.12,1.49,6709.84,670.45,2.93,13862.72
1185000,738.05,467.71,1.00,1,1,1,772.63,-0.01,4687.63,707.23,0.08,3848.83,416.53,0.22,29851.57,160.47,2.29,7643.19,1003.31,2.97,22274.98
1199000,746.91,469.45,1.00,1,1,1,644.91,0.19,13839.82,196.03,1.59,51610.67,257.76,2.42,43300.04,509.62,2.85,27392.98,1214.14,2.99,15114.35
1214300,737.95,473.46,1.00,1,1,1,641.58,2.72,80153.39,1099.65,2.88,69482.53,1052.50,2.88,54217.93,1114.97,2.94,39792.73,1450.89,3.00,15509.80
1229000,715.01,477.87,1.00,1,1,1,1588.81,2.95,66334.22,2046.61,2.97,65086.96,1801.90,2.97,51592.93,1648.15,2.98,36484.81,1522.91,3.00,4907.18
1244000,678.00,483.55,1.00,1,1,1,2495.95,2.99,60684.15,2372.61,3.00,22048.75,2599.66,3.00,53385.94,2239.68,3.00,39509.85,1381.96,3.01,9466.75
1266200,627.63,490.31,1.00,2,2,2,2289.45,3.01,9516.44,3043.23,3.01,30258.52,2675.66,3.01,3814.83,2402.65,3.01,7532.91,1132.69,3.03,11256.67
1281100,566.01,497.85,1.00,3,3,3,4166.45,3.02,125997.22,2926.54,3.02,8089.20,3099.93,3.02,28540.99,2667.31,3.03,17890.75,1114.97,2.94,7009.27
1311200,496.84,505.68,1.00,1,1,1,2312.81,3.03,61589.98,3147.02,3.03,7375.24,2827.67,3.03,9085.32,2684.28,3.04,1025.18,1648.15,2.98,17818.17
1326000,425.54,513.14,1.00,1,1,1,4843.71,3.04,171017.72,2739.61,3.04,27585.07,2715.61,3.04,7773.03,2355.30,3.05,22325.10,2239.68,3.00,40043.77
1361600,359.44,519.39,1.00,1,1,1,1864.91,3.05,83678.42,2333.09,3.05,11453.78,2694.36,3.06,1216.90,1673.14,3.07,19213.87,2402.65,3.01,4697.49
1376600,307.93,523.38,1.00,1,1,1,3444.52,3.06,105345.93,2618.24,3.08,19593.45,1597.40,3.09,73304.28,2715.61,3.04,69630.58,2667.31,3.03,17771.48
1391000,282.60,523.86,1.00,1,1,1,1759.56,3.12,117439.64,379.51,-2.77,158210.39,248.01,-0.88,123229.97,2694.36,3.06,3008.46,2684.28,3.04,2142.90
1406300,297.42,519.32,1.00,1,1,1,1013.04,-0.30,179590.09,2905.40,-0.18,211436.55,379.51,-2.77,33690.64,1597.40,3.09,71866.94,2355.30,3.05,21595.52
1421200,368.90,508.03,1.00,1,1,1,4857.02,-0.16,258830.56,4857.02,-0.16,131129.39,2905.40,-0.18,217112.70,248.01,-0.88,119094.74,1673.14,3.07,45906.95
