@RELATION gaze_labels

%@METADATA width_px 1920
%@METADATA height_px 1080
%@METADATA width_mm 540.00
%@METADATA height_mm 254.00
%@METADATA distance_mm 620.00


@ATTRIBUTE time INTEGER
@ATTRIBUTE x NUMERIC
@ATTRIBUTE y NUMERIC
@ATTRIBUTE confidence NUMERIC
@ATTRIBUTE handlabeller1 INTEGER
@ATTRIBUTE handlabeller2 INTEGER
@ATTRIBUTE handlabeller_final INTEGER
@ATTRIBUTE speed_1 numeric
@ATTRIBUTE direction_1 numeric
@ATTRIBUTE acceleration_1 numeric
@ATTRIBUTE speed_2 numeric
@ATTRIBUTE direction_2 numeric
@ATTRIBUTE acceleration_2 numeric
@ATTRIBUTE speed_4 numeric
@ATTRIBUTE direction_4 numeric
@ATTRIBUTE acceleration_4 numeric
@ATTRIBUTE speed_8 numeric
@ATTRIBUTE direction_8 numeric
@ATTRIBUTE acceleration_8 numeric
@ATTRIBUTE speed_16 numeric
@ATTRIBUTE direction_16 numeric
@ATTRIBUTE acceleration_16 numeric

%The number after speed, direction denotes the step size that was used for the calculation.
%Acceleration was calculated between two adjacent samples of the already low pass filtered velocity

@DATA
0,179.61,562.24,1.00,4,4,4,0.00,0.00,0.00,5799.05,0.24,0.00,4663.13,-0.07,0.00,3142.06,-0.59,0.00,1733.18,-0.61,0.00
15100,264.75,582.68,1.00,4,4,4,5799.05,0.24,384043.14,4663.13,-0.07,129139.13,3838.50,-0.82,213441.18,3017.85,-1.09,101757.29,1187.64,-0.69,36992.16
29000,314.50,552.74,1.00,4,4,4,4177.65,-0.54,292686.84,3838.50,-0.82,231867.75,3142.06,-0.59,77856.42,2565.94,-1.30,53638.33,785.81,-0.19,44837.68
44100,340.33,500.95,1.00,4,4,4,3832.05,-1.11,149826.06,3023.69,-1.23,105546.37,3017.85,-1.09,101757.29,1654.38,-1.33,60503.82,1058.67,0.63,51673.40
65700,351.66,448.17,1.00,4,4,4,2499.27,-1.36,71370.90,2593.41,-1.40,29951.41,2565.94,-1.30,34517.26,1733.18,-0.61,55664.65,1721.31,0.89,34635.88
80300,356.09,408.40,1.00,4,4,4,2740.67,-1.46,24472.54,2019.25,-1.44,39723.43,1654.38,-1.33,62575.87,1187.64,-0.69,38259.01,2317.80,0.91,40983.84
94900,359.48,389.73,1.00,4,4,4,1299.91,-1.39,99080.51,560.82,-0.92,106651.01,493.33,-0.73,87599.75,785.81,-0.19,42687.92,2479.79,0.88,12557.53
109900,366.16,395.20,1.00,4,4,4,575.41,0.69,110502.21,868.07,1.05,80131.37,927.25,0.96,73364.64,1058.67,0.63,52017.89,2592.10,0.78,17892.40
140100,379.05,423.74,1.00,4,4,4,1036.90,1.15,19216.81,1571.53,1.15,23635.75,1894.08,1.11,32679.44,1721.31,0.89,24772.68,1862.50,0.21,47820.53
162700,399.88,471.02,1.00,4,4,4,2286.00,1.16,55274.12,3126.82,1.13,68850.54,2699.01,1.10,35628.75,2317.80,0.91,26476.29,1719.11,0.12,9213.33
177800,429.28,530.39,1.00,4,4,4,4387.19,1.11,139469.24,4709.29,1.07,105909.37,3690.76,1.04,66965.00,2479.79,0.88,12141.71,1710.14,0.10,2853.04
192400,466.97,593.74,1.00,4,4,4,5049.49,1.03,51703.60,4441.14,0.96,40344.65,4238.89,0.90,53059.64,2592.10,0.78,18382.60,1696.14,0.09,1246.87
207400,505.13,637.75,1.00,4,4,4,3883.16,0.86,93722.91,3921.51,0.70,79772.79,3223.62,0.73,79896.16,2660.99,0.62,28371.76,1768.45,0.09,4826.16
222400,557.20,669.23,1.00,4,4,4,4056.71,0.54,83228.19,2584.56,0.47,101366.62,2754.21,0.47,59831.50,2699.71,0.43,34404.70,1787.51,0.09,1279.72
252400,608.89,690.30,1.00,4,4,4,1860.42,0.39,74602.76,2203.79,0.24,22163.49,2400.55,0.18,27690.88,2636.08,0.18,22266.20,1808.96,0.08,757.69
275000,669.80,696.77,1.00,4,4,4,2710.52,0.11,46789.70,2422.84,-0.09,35081.87,2354.24,-0.10,29156.32,2466.75,-0.11,33656.88,1891.35,0.07,3825.32
304600,734.83,678.75,1.00,4,4,4,2279.77,-0.27,34624.07,2830.05,-0.42,31981.29,2967.10,-0.37,31719.83,2507.22,-0.35,20333.94,2079.05,0.03,6765.71
318700,782.77,646.43,1.00,4,4,4,4100.11,-0.59,146718.61,4313.05,-0.66,120640.05,3068.08,-0.65,59504.05,2473.37,-0.56,35855.99,2162.32,-0.04,12605.20
333100,832.07,603.55,1.00,4,4,4,4537.55,-0.72,47638.13,3529.96,-0.87,78690.80,3630.30,-0.87,65003.52,2670.18,-0.70,29412.12,2050.40,-0.15,18289.45
354900,865.30,548.88,1.00,1,1,1,2934.94,-1.02,89748.33,3259.15,-1.09,36477.06,3348.82,-1.02,27121.77,2697.39,-0.77,7892.03,2009.25,-0.27,10749.74
370300,888.20,496.09,1.00,1,1,1,3736.55,-1.16,59798.77,3246.13,-1.22,27637.58,2767.80,-1.14,44422.99,2725.15,-0.77,1814.71,1972.62,-0.36,11877.72
385300,899.18,456.19,1.00,1,1,1,2758.46,-1.30,71796.88,2163.61,-1.24,72228.06,2283.95,-0.98,41900.14,2400.58,-0.73,22628.43,1861.55,-0.44,12734.18
399800,909.11,435.78,1.00,1,1,1,1565.32,-1.12,86389.34,1599.29,-0.46,104603.89,1785.90,-0.52,72412.53,1835.00,-0.73,39010.95,1840.23,-0.52,10463.89
414800,941.44,435.21,1.00,1,1,1,2155.83,-0.02,134005.01,2425.25,0.12,93316.79,1854.34,-0.09,52233.15,1539.49,-0.59,25289.08,1770.44,-0.58,8220.06
428800,978.92,444.28,1.00,1,1,1,2754.70,0.24,61549.46,2302.73,0.17,12469.00,1579.09,0.04,25057.09,1283.69,-0.36,29050.10,1628.85,-0.63,11793.82
443900,1007.44,446.80,1.00,1,1,1,1895.81,0.09,61195.80,947.84,-0.12,94128.20,1290.52,0.06,19212.77,1157.37,-0.10,22551.14,1365.14,-0.64,17512.61
466600,1014.50,440.06,1.00,1,1,1,429.94,-0.76,72421.32,557.17,-0.30,18206.92,901.43,-0.10,18712.55,1087.07,0.03,7346.03,1113.37,-0.63,11114.13
481600,1027.48,440.51,1.00,1,1,1,865.83,0.03,42884.79,843.81,-0.07,21960.47,552.30,-0.15,23425.00,978.97,0.04,7246.35,876.29,-0.52,17275.30
496700,1039.84,438.37,1.00,1,1,1,830.90,-0.17,11782.08,564.29,0.04,19104.82,537.78,0.00,5642.54,692.52,-0.06,19794.63,702.45,-0.34,14975.46
511300,1044.23,441.13,1.00,1,1,1,354.81,0.56,42110.46,236.83,0.25,23047.58,629.49,-0.00,6282.56,449.55,-0.19,17305.74,545.59,-0.15,13252.77
526400,1046.66,440.10,1.00,1,1,1,174.71,-0.40,19341.36,695.44,-0.03,31295.26,455.82,0.02,11524.24,411.90,-0.11,3353.19,466.98,-0.03,6595.45
541000,1064.87,440.45,1.00,1,1,1,1247.63,0.02,74674.10,683.19,-0.06,1551.45,345.87,-0.24,10270.61,298.29,-0.19,8045.02,440.57,-0.04,1857.66
556100,1066.92,438.88,1.00,1,1,1,170.66,-0.66,74140.60,137.19,-1.24,42603.58,305.11,-0.28,2845.23,185.17,-0.16,7511.56,434.39,-0.11,2049.47
577600,1066.51,435.71,1.00,1,1,1,148.83,-1.70,7443.73,122.68,-1.78,3310.93,108.43,-1.12,11475.50,50.09,-1.73,8923.24,404.96,-0.16,1607.98
592300,1065.98,434.54,1.00,1,1,1,87.20,-2.00,4784.04,86.56,-0.98,6026.80,58.37,-1.84,5093.86,54.51,-1.87,586.64,410.69,-0.12,1136.07
622300,1068.68,432.50,1.00,1,1,1,112.67,-0.65,4214.30,9.23,-2.49,2883.23,314.22,-3.08,10005.07,70.82,-1.23,1411.73,275.82,-0.16,4518.98
637800,1065.65,434.28,1.00,1,1,1,226.78,2.61,21867.67,856.60,3.08,54818.54,229.04,-3.01,5610.23,235.00,-0.23,13244.30,55.61,-0.47,14427.05
652200,1043.12,434.16,1.00,1,1,1,1564.47,-3.14,95449.22,425.89,-3.02,30912.74,35.88,-1.55,15813.93,367.17,-0.13,9437.05,248.18,-3.07,20635.17
688900,1044.05,431.64,1.00,1,1,1,73.08,-1.22,43346.34,502.19,-0.18,25008.20,477.38,-0.11,12920.13,409.75,-0.13,1160.24,567.56,3.11,8763.91
704000,1068.73,429.57,1.00,1,1,1,1640.16,-0.08,106665.33,2003.38,-0.03,99912.60,984.80,-0.07,33653.32,254.76,-0.12,10264.47,987.31,3.10,27800.56
718900,1104.13,429.99,1.00,1,1,1,2375.94,0.01,50976.92,1825.32,-0.02,11982.49,1442.81,-0.06,30748.27,81.55,-2.87,22247.30,1366.08,3.10,25425.14
734000,1123.48,428.44,1.00,1,1,1,1285.49,-0.08,72994.48,870.86,-0.14,64009.95,564.74,-0.05,58157.93,476.59,3.11,26453.42,1776.05,3.09,27171.05
748100,1129.30,426.40,1.00,1,1,1,437.72,-0.34,61645.34,480.93,-3.11,95538.85,758.16,3.12,93815.63,1279.88,3.06,57055.72,2076.07,3.09,21278.49
770200,1106.08,427.87,1.00,1,1,1,1053.07,3.08,66935.86,2047.42,3.08,71007.66,2292.80,3.09,69463.93,2301.13,3.07,46214.53,2492.54,3.09,18844.72
784900,1054.10,431.04,1.00,2,2,2,3542.32,3.08,169336.88,4510.99,3.08,167589.89,3674.65,3.07,94136.20,3431.48,3.08,76945.55,2696.42,3.09,13872.85
799800,972.80,436.12,1.00,2,2,2,5466.66,3.08,129150.76,5638.38,3.06,75992.84,5478.77,3.07,121085.82,4437.43,3.08,67514.01,2714.53,3.09,1240.05
815400,882.72,445.24,1.00,2,2,2,5804.44,3.04,25754.85,6430.94,3.06,50811.01,6377.84,3.07,57673.96,4963.03,3.08,33692.37,2977.16,3.08,16855.80
829900,779.86,451.72,1.00,3,3,3,7107.37,3.08,91418.53,7146.23,3.09,50818.47,6785.71,3.07,28129.29,5683.79,3.08,49717.02,3017.36,3.08,2772.83
844800,672.93,456.71,1.00,1,1,1,7184.52,3.10,9411.80,7142.75,3.09,443.96,6261.61,3.09,35637.02,5715.99,3.08,2161.07,3029.83,3.09,1518.77
859900,565.91,463.59,1.00,1,1,1,7102.08,3.08,9970.17,5566.21,3.09,104407.72,5865.61,3.09,26313.07,5299.43,3.08,27588.91,2738.40,3.09,19299.78
882200,465.06,467.95,1.00,1,1,1,4526.74,3.10,115608.45,4846.88,3.10,32391.16,5130.71,3.09,32962.96,4669.55,3.09,28266.26,2727.59,3.08,695.23
897500,383.82,471.13,1.00,1,1,1,5313.50,3.10,51439.51,4593.19,3.09,16724.08,3980.55,3.10,75193.49,3724.50,3.09,61773.01,2643.80,3.08,5476.98
912500,326.05,474.70,1.00,1,1,1,3859.05,3.08,97202.81,2898.56,3.09,112987.58,2900.00,3.09,72056.74,2633.73,3.10,72729.06,2513.48,3.08,8693.29
927600,296.71,475.96,1.00,1,1,1,1944.67,3.10,126826.26,1178.68,3.07,113919.42,1312.27,3.08,105153.25,1312.87,3.11,87493.66,2245.12,3.09,17780.64
942300,291.02,477.25,1.00,1,1,1,397.28,2.92,105818.44,285.19,0.00,99536.55,192.38,-0.25,102150.33,627.20,3.11,46644.33,1894.56,3.10,23949.67
957500,305.24,476.00,1.00,1,1,1,939.27,-0.09,87761.79,1545.13,-0.12,83060.44,882.69,-0.09,45630.25,189.90,3.11,28769.71,1560.31,3.11,22022.22
972400,337.21,471.82,1.00,1,1,1,2163.76,-0.13,82277.34,1224.43,-0.10,21572.59,1027.19,-0.08,9716.25,91.96,-0.20,18855.51,1162.71,3.13,26722.18
1009900,369.07,469.50,1.00,1,1,1,851.90,-0.07,35044.46,731.61,-0.03,13250.45,499.59,-0.08,14069.30,251.69,-0.15,4265.92,795.02,-3.12,9849.93
1024900,375.59,470.50,1.00,1,1,1,440.06,0.15,28941.52,339.89,2.97,71292.10,30.63,-0.01,31268.59,255.16,-0.27,2113.26,485.38,-3.06,20783.41
1055200,353.89,472.10,1.00,1,1,1,718.15,3.07,37995.92,796.38,3.11,15238.64,451.04,3.12,15896.65,143.59,-0.53,4029.07,218.37,-2.88,9011.66
1069400,340.18,471.78,1.00,1,1,1,966.09,-3.12,18361.31,636.61,-3.04,13225.49,543.52,-3.04,7777.57,70.96,-1.85,10094.91,63.36,-1.65,14501.54
1084000,335.65,470.22,1.00,1,1,1,327.69,-2.81,45301.46,281.56,-2.56,27907.69,446.69,-2.87,8852.60,256.58,-2.81,15326.27,124.32,-0.51,7799.40
1106600,331.41,466.04,1.00,1,1,1,263.36,-2.36,6410.64,318.27,-2.60,1696.03,190.28,-2.08,15089.77,352.02,-2.85,4262.03,156.51,-0.38,1631.50
1121200,325.51,464.11,1.00,1,1,1,425.20,-2.82,15236.63,202.24,-1.12,24722.07,187.26,-1.63,5745.58,270.45,-2.64,7224.52,125.78,-0.39,2108.60
1136300,334.02,460.63,1.00,1,1,1,608.64,-0.39,64396.04,387.56,-0.59,15659.18,171.49,-1.88,3176.49,166.66,-2.37,7835.53,38.96,-0.89,6180.19
1150500,334.95,457.79,1.00,1,1,1,210.88,-1.26,35160.25,245.05,-2.52,37003.73,146.15,-1.85,1822.71,106.33,-2.15,4714.05,78.00,-2.85,7013.00
1164800,328.37,456.54,1.00,1,1,1,468.48,-2.95,37588.62,347.66,-2.91,10806.65,161.05,-2.73,9240.87,46.19,-1.31,5811.70,96.12,-2.85,1267.08
1186000,322.93,455.00,1.00,1,1,1,266.73,-2.87,9632.00,107.31,-3.13,11512.94,107.36,3.04,4035.13,107.22,-0.15,4639.11,44.13,-2.10,3318.66
1200600,324.52,456.51,1.00,1,1,1,150.79,0.76,27835.82,207.24,0.61,20685.80,91.87,0.72,12515.11,85.46,0.24,2927.64,34.44,-1.63,1413.91
1215700,327.99,458.50,1.00,1,1,1,264.43,0.52,8143.90,310.66,0.45,7354.72,293.11,0.43,13697.63,112.62,0.38,2029.15,47.95,-2.72,2922.09
1230500,332.90,460.52,1.00,1,1,1,359.19,0.39,6975.23,385.59,0.33,5735.93,351.48,0.32,4545.01,174.68,0.28,4305.85,126.76,3.03,6010.09
1244900,338.63,462.16,1.00,1,1,1,413.92,0.28,4811.79,397.25,0.23,2954.69,319.27,0.23,3125.55,209.35,0.28,2407.49,107.22,-0.15,16245.83
1259900,344.28,463.14,1.00,1,1,1,382.38,0.17,3537.63,270.86,0.12,8754.16,267.91,0.14,3878.42,114.98,0.37,6359.12,85.46,0.24,2849.57
1282400,348.72,463.35,1.00,1,1,1,197.37,0.05,8359.77,169.06,-0.03,4741.79,142.88,0.02,5647.39,48.39,2.29,6183.15,112.62,0.38,1361.79
1297000,350.55,462.94,1.00,1,1,1,128.71,-0.22,5539.71,39.54,-2.09,13074.34,57.99,-2.99,13733.66,238.23,2.89,13710.25,174.68,0.28,4364.83
1311500,348.15,462.36,1.00,1,1,1,170.83,-2.90,20125.80,246.26,-3.09,15684.06,270.38,3.10,14741.86,142.88,0.02,26059.51,209.35,0.28,2390.89
1341500,339.61,462.42,1.00,1,1,1,284.67,3.13,4203.43,380.35,3.06,4656.54,577.65,3.01,10307.42,57.99,-2.99,6683.71,114.98,0.37,3179.56
1378400,322.79,464.41,1.00,1,1,1,459.06,3.02,4846.77,865.28,2.97,13216.84,380.35,3.06,5381.33,270.38,3.10,5792.87,48.39,2.29,3770.22
1393500,295.27,470.10,1.00,1,1,1,1860.56,2.94,92963.38,1860.56,2.94,65968.24,865.28,2.97,32298.10,577.65,3.01,20478.32,238.23,2.89,13256.26
