@RELATION gaze_labels

%@METADATA width_px 1920
%@METADATA height_px 1080
%@METADATA width_mm 540.00
%@METADATA height_mm 254.00
%@METADATA distance_mm 620.00


@ATTRIBUTE time INTEGER
@ATTRIBUTE x NUMERIC
@ATTRIBUTE y NUMERIC
@ATTRIBUTE confidence NUMERIC
@ATTRIBUTE handlabeller1 INTEGER
@ATTRIBUTE handlabeller2 INTEGER
@ATTRIBUTE handlabeller_final INTEGER
@ATTRIBUTE speed_1 numeric
@ATTRIBUTE direction_1 numeric
@ATTRIBUTE acceleration_1 numeric
@ATTRIBUTE speed_2 numeric
@ATTRIBUTE direction_2 numeric
@ATTRIBUTE acceleration_2 numeric
@ATTRIBUTE speed_4 numeric
@ATTRIBUTE direction_4 numeric
@ATTRIBUTE acceleration_4 numeric
@ATTRIBUTE speed_8 numeric
@ATTRIBUTE direction_8 numeric
@ATTRIBUTE acceleration_8 numeric
@ATTRIBUTE speed_16 numeric
@ATTRIBUTE direction_16 numeric
@ATTRIBUTE acceleration_16 numeric

%The number after speed, direction denotes the step size that was used for the calculation.
%Acceleration was calculated between two adjacent samples of the already low pass filtered velocity

@DATA
0,99.67,450.93,1.00,4,4,4,0.00,0.00,0.00,7599.19,0.68,0.00,6408.82,0.71,0.00,4614.52,0.75,0.00,2231.26,0.55,0.00
15500,191.38,524.83,1.00,4,4,4,7599.19,0.68,490270.13,6408.82,0.71,78368.22,4394.48,0.79,132506.71,2912.83,0.78,110008.76,1204.58,0.28,72338.01
31000,249.95,580.87,1.00,4,4,4,5229.65,0.76,156736.45,4394.48,0.79,132506.71,4614.52,0.75,18801.38,1603.87,0.68,85408.38,923.03,-0.31,43424.58
45800,285.25,619.28,1.00,4,4,4,3524.25,0.83,116730.24,2754.29,0.83,111185.45,2912.83,0.78,115211.88,788.36,0.12,69264.39,995.14,-0.77,29986.77
60700,305.36,641.05,1.00,4,4,4,1989.50,0.82,103004.53,1417.88,0.74,90506.92,1603.87,0.68,88847.64,2231.26,0.55,103994.56,1297.42,-0.94,24175.02
75800,316.79,647.81,1.00,4,4,4,879.42,0.53,77771.05,633.13,0.03,67556.57,788.36,0.12,67888.28,1204.58,0.28,74254.25,1231.71,-0.99,5823.01
91000,324.54,641.68,1.00,4,4,4,649.65,-0.67,58295.36,911.28,-0.97,51486.82,812.53,-0.82,48142.93,923.03,-0.31,44281.65,1340.51,-0.96,7679.36
105900,332.26,625.16,1.00,4,4,4,1224.26,-1.13,47388.03,1205.54,-1.16,23645.41,1041.90,-1.09,22415.59,995.14,-0.77,29785.52,1418.93,-0.81,14633.81
127900,342.43,600.95,1.00,0,0,0,1193.24,-1.17,2580.97,1122.69,-1.14,3824.22,1373.07,-1.11,15088.38,1297.42,-0.94,16373.08,1472.29,-0.03,50076.26
158000,356.46,571.90,1.00,0,0,0,1071.78,-1.12,4484.72,1511.77,-1.08,13254.86,1361.01,-1.06,2428.81,1231.71,-0.99,2921.18,1259.01,-0.22,11291.63
173100,374.84,540.80,1.00,0,0,0,2392.82,-1.04,87938.71,1646.74,-0.99,13071.79,1696.50,-0.99,23165.25,1340.51,-0.96,7730.22,1155.22,-0.42,17108.89
202900,397.32,510.28,1.00,1,1,1,1271.85,-0.94,38076.89,1930.40,-0.91,10539.53,1398.38,-0.93,10504.37,1418.93,-0.81,7316.91,1082.46,-0.60,7347.67
210900,419.65,483.21,1.00,1,1,1,4386.91,-0.88,389719.63,1192.11,-0.86,92735.45,1337.50,-0.83,18779.13,1489.47,-0.68,25077.01,1001.98,-0.76,22054.69
255700,438.32,462.52,1.00,1,1,1,621.95,-0.84,84055.11,974.30,-0.73,5849.99,1580.94,-0.56,10112.44,1534.18,-0.57,3808.97,905.51,-0.89,3542.08
271100,463.51,444.27,1.00,1,1,1,2020.29,-0.63,92070.75,2412.42,-0.31,101894.90,1453.18,-0.35,22747.35,1372.43,-0.49,13227.59,799.85,-0.98,8476.63
286500,509.00,439.60,1.00,1,1,1,2968.97,-0.10,102949.04,2630.94,-0.08,41308.52,2059.65,-0.17,43974.49,1206.86,-0.45,11072.73,667.34,-1.07,9706.13
301600,543.53,438.18,1.00,1,1,1,2288.64,-0.04,46281.08,1747.42,0.03,60417.93,1721.84,-0.04,27601.07,775.59,-0.45,28562.39,520.43,-1.27,12280.67
315600,559.82,441.13,1.00,1,1,1,1183.03,0.18,83086.35,778.41,0.07,69281.05,738.15,-0.12,70524.85,483.46,-0.51,21024.17,405.53,-1.61,13959.60
330800,566.21,439.69,1.00,1,1,1,430.44,-0.22,52929.88,318.18,-2.37,68510.17,256.36,-2.68,63324.01,45.77,-2.05,31861.74,321.07,-2.17,14278.13
346300,552.82,434.32,1.00,1,1,1,930.40,-2.76,84374.56,1074.67,-2.91,52753.12,1040.44,-3.02,51851.60,640.01,3.06,40244.64,359.50,-2.73,12417.94
366800,528.57,430.70,1.00,1,1,1,1195.81,-2.99,17646.05,1731.42,-3.12,34970.23,1610.57,-3.14,28746.85,1250.58,3.04,29789.61,439.06,-3.08,7629.43
381700,491.55,432.89,1.00,2,2,2,2489.53,3.08,90064.35,2320.70,3.02,44260.83,1911.53,3.05,23431.57,1660.88,3.06,27603.50,571.49,3.03,10714.85
396200,460.88,439.19,1.00,2,2,2,2159.21,2.94,32288.49,2157.56,2.93,17492.89,2399.24,2.98,34911.52,1848.81,3.04,13232.88,672.63,2.96,7620.72
411100,429.53,446.21,1.00,1,1,1,2156.13,2.92,2622.88,2480.22,2.95,21865.13,2383.23,2.97,2259.47,1885.23,2.99,6622.10,766.30,2.99,6449.33
425700,389.05,453.15,1.00,1,1,1,2812.56,2.97,45763.07,2606.64,3.00,12542.94,2095.01,2.97,19753.27,1870.98,2.95,5251.11,851.43,3.01,6021.72
441200,351.83,457.15,1.00,1,1,1,2415.15,3.03,27723.76,1794.87,2.98,52444.43,1864.88,2.94,15131.41,1590.23,2.91,18660.23,799.06,3.05,3828.57
463500,322.07,463.93,1.00,1,1,1,1368.89,2.92,47876.81,1276.14,2.84,25066.59,1413.52,2.91,20368.20,1323.31,2.92,11994.56,787.20,3.06,732.23
478500,306.32,471.10,1.00,1,1,1,1153.39,2.71,22228.91,950.88,2.74,22975.53,904.45,2.78,35310.13,873.88,2.94,29993.29,742.00,3.03,3333.53
493400,295.89,475.03,1.00,1,1,1,748.02,2.78,27521.07,462.01,2.57,33700.32,463.68,2.72,29708.98,521.75,2.95,23637.42,674.94,3.01,4620.67
508900,294.53,478.72,1.00,1,1,1,254.22,1.92,39515.25,34.09,0.25,31336.51,58.40,2.99,26304.50,143.48,2.90,24419.94,514.42,2.96,10523.24
523100,296.87,475.28,1.00,1,1,1,293.31,-0.97,38272.53,191.82,-0.77,12438.63,220.22,-0.42,19504.66,111.40,-0.36,17914.10,417.53,2.95,6831.87
560400,301.59,471.82,1.00,1,1,1,156.96,-0.63,4142.59,330.58,-0.46,4289.13,390.63,-0.44,4570.52,227.05,-0.40,3104.20,323.61,2.87,2634.97
575300,312.36,467.68,1.00,1,1,1,774.37,-0.37,41897.09,631.94,-0.32,20632.97,461.29,-0.40,4858.82,298.06,-0.43,4803.15,194.04,2.84,8716.37
605900,328.86,462.69,1.00,1,1,1,563.19,-0.29,7081.04,611.57,-0.36,1081.64,535.40,-0.37,2471.27,327.47,-0.37,1155.71,67.47,2.49,4334.29
621000,338.47,457.70,1.00,1,1,1,717.15,-0.48,12828.78,392.08,-0.48,15035.45,382.52,-0.44,10347.60,286.55,-0.29,3159.98,44.87,0.49,6312.23
635800,339.24,457.24,1.00,1,1,1,60.52,-0.54,44375.72,78.76,-1.57,24449.63,239.57,-0.21,10749.94,263.13,-0.02,5222.96,95.68,-0.13,4380.84
650800,338.48,455.36,1.00,1,1,1,135.42,-1.95,9282.79,153.57,0.39,13150.46,81.35,0.90,14423.91,160.30,0.10,7059.15,137.41,-0.15,2786.07
672300,344.42,459.38,1.00,1,1,1,333.61,0.60,21034.99,204.50,1.10,6222.86,209.38,1.60,7262.04,77.20,0.71,4950.84,140.53,-0.29,892.17
686600,341.77,461.90,1.00,1,1,1,255.39,2.38,32266.67,439.21,2.02,24742.78,226.10,1.80,3248.71,106.44,1.98,7776.02,125.70,-0.23,1158.79
701800,338.79,471.05,1.00,1,1,1,633.43,1.89,28066.07,342.65,2.26,8894.24,212.61,2.27,6802.76,86.48,2.06,1415.86,111.15,-0.26,978.71
717400,335.02,470.01,1.00,1,1,1,250.69,-2.87,42992.91,108.82,-2.47,22884.83,197.98,2.39,1764.97,106.13,1.81,1986.90,69.93,-0.30,2652.30
731800,336.23,469.03,1.00,1,1,1,108.32,-0.68,22614.68,63.25,-3.08,4680.07,92.13,-2.50,14084.75,108.26,2.53,5246.26,29.52,-0.15,2847.57
745700,333.24,469.90,1.00,1,1,1,224.55,2.86,23530.63,78.66,-2.54,2919.01,16.30,-1.42,6163.54,85.84,2.66,1859.95,24.76,1.10,2298.65
768700,333.84,467.39,1.00,1,1,1,112.39,-1.34,12903.42,58.34,-0.45,5170.43,52.47,-2.56,2087.95,88.14,-2.47,4117.92,41.92,0.54,1071.22
782700,335.18,468.96,1.00,1,1,1,147.58,0.86,16591.05,18.75,-2.69,5110.03,48.33,-1.90,2378.50,64.53,-2.01,2984.03,74.01,0.41,2354.34
797200,333.36,467.16,1.00,1,1,1,176.81,-2.36,22351.59,123.66,-2.53,7256.44,83.67,-2.42,3343.84,51.12,-1.49,2233.66,59.14,0.23,1319.07
812100,332.21,466.86,1.00,1,1,1,79.44,-2.89,7741.04,147.34,-2.39,2003.78,109.40,-2.08,2797.11,69.68,-0.64,3531.18,90.30,0.15,2126.76
826600,330.19,464.20,1.00,1,1,1,230.35,-2.22,12071.61,113.44,-1.77,5939.51,80.72,-1.02,6857.31,104.52,-0.24,3336.03,53.86,-0.34,3418.07
857300,331.20,461.83,1.00,1,1,1,83.93,-1.17,6597.05,135.70,-0.39,5206.15,119.91,-0.32,2526.63,150.14,-0.22,1488.69,21.42,-1.36,1508.63
879600,336.85,461.50,1.00,1,1,1,253.84,-0.06,10268.08,285.02,0.18,8318.83,199.58,-0.04,4085.32,161.25,-0.13,804.58,35.20,-2.40,1371.87
894200,341.54,463.73,1.00,1,1,1,356.09,0.44,12431.47,291.35,0.16,675.19,330.31,0.07,9163.88,205.37,-0.03,3294.11,31.75,-2.06,811.00
923800,349.57,463.49,1.00,1,1,1,271.38,-0.03,5709.49,370.01,0.01,3131.97,261.28,0.08,2332.15,134.43,0.06,2441.82,33.10,-0.79,1298.74
938800,358.05,463.82,1.00,1,1,1,565.31,0.04,19681.36,237.30,-0.01,8850.28,283.76,0.08,1500.46,33.80,0.34,6824.31,64.20,-0.59,2158.13
975800,361.91,463.41,1.00,1,1,1,105.08,-0.11,12475.64,212.54,0.19,1369.76,62.48,0.43,6108.21,54.34,3.11,2343.71,149.30,-0.12,2609.54
991200,368.98,465.94,1.00,1,1,1,487.42,0.34,25677.29,266.16,2.86,30240.56,263.82,-3.13,20901.15,83.27,-2.96,2104.44,269.07,-0.12,7778.10
1005800,354.23,465.61,1.00,1,1,1,1010.13,-3.12,101415.13,1102.90,-3.07,58738.13,560.61,-3.09,20357.36,65.59,-2.81,1429.51,418.52,-0.08,10273.40
1020800,336.41,463.66,1.00,1,1,1,1195.20,-3.03,13860.41,874.48,-2.99,16051.13,678.80,-3.03,8322.56,58.84,-2.42,1659.97,635.86,-0.04,14542.36
1035700,328.37,461.77,1.00,1,1,1,554.45,-2.91,43519.59,267.15,-2.85,41039.47,240.38,-2.77,30214.28,132.50,-0.11,11914.77,810.75,-0.05,11744.27
1050900,328.72,461.33,1.00,1,1,1,37.03,-0.91,37565.33,414.61,-0.11,43987.27,238.10,-0.36,29415.40,361.58,-0.19,15115.11,916.52,-0.06,6973.84
1065800,340.78,460.42,1.00,1,1,1,811.64,-0.08,52829.24,614.37,-0.15,13464.56,749.17,-0.00,35743.09,821.56,-0.11,31007.92,1022.16,-0.07,7119.51
1088300,351.45,458.00,1.00,2,2,2,486.52,-0.22,15027.91,1023.80,0.03,19225.60,1279.40,-0.05,23639.45,1411.09,-0.05,26339.10,1031.76,-0.08,550.30
1102800,378.64,461.59,1.00,2,2,2,1891.24,0.13,99644.16,2136.44,-0.01,76847.69,1751.28,-0.05,32549.94,1869.88,-0.05,31643.71,1167.98,-0.08,9399.16
1117500,413.83,457.36,1.00,2,2,2,2411.32,-0.12,50712.77,2655.02,-0.09,37717.15,2744.42,-0.02,67701.48,2143.38,-0.05,18609.47,1206.77,-0.09,2831.51
1132800,457.95,454.22,1.00,1,1,1,2890.67,-0.07,32427.13,3321.12,-0.03,45107.78,3116.01,-0.06,25347.82,2228.88,-0.06,5722.92,1343.40,-0.08,8998.59
1148300,516.07,454.11,1.00,1,1,1,3749.88,-0.00,57344.78,3573.12,-0.04,16333.61,3089.78,-0.05,3460.39,2292.15,-0.05,4085.10,1408.54,-0.06,4657.69
1163200,566.49,450.00,1.00,1,1,1,3394.95,-0.08,30472.11,2853.09,-0.06,48626.47,2758.69,-0.06,22312.04,2196.23,-0.08,7353.05,1588.11,-0.04,12128.83
1178300,601.49,448.63,1.00,1,1,1,2319.61,-0.04,71640.41,1935.07,-0.09,60932.70,1891.54,-0.09,57693.79,2047.29,-0.08,9869.63,1764.73,-0.03,11738.47
1193200,624.31,444.77,1.00,1,1,1,1553.08,-0.17,53978.50,1121.18,-0.15,54978.25,1374.29,-0.11,34762.11,1863.35,-0.07,12411.18,1863.28,-0.03,6660.67
1215600,642.82,442.24,1.00,1,1,1,834.12,-0.14,32137.13,926.48,-0.14,8703.74,1098.31,-0.15,12502.35,1406.34,-0.06,20407.59,2138.80,-0.01,12350.52
1230700,658.69,439.80,1.00,1,1,1,1063.57,-0.15,15230.05,1069.13,-0.14,9446.64,1058.91,-0.09,5215.29,1344.13,-0.03,4679.19,2251.73,-0.02,7479.98
1244800,673.72,437.79,1.00,1,1,1,1075.18,-0.13,1679.51,1229.92,-0.03,14597.84,1001.64,-0.00,7214.26,1438.48,-0.02,6903.42,2322.30,-0.00,5534.34
1260400,695.20,438.68,1.00,1,1,1,1378.43,0.04,23709.02,972.59,0.08,18328.22,1324.86,0.03,20890.30,1578.43,0.00,9196.07,2267.08,0.01,3948.00
1295800,723.15,441.91,1.00,2,2,2,794.69,0.12,16634.75,1383.46,0.07,11621.45,1728.89,0.05,11442.40,2016.37,0.02,12404.93,2171.93,0.02,2709.34
1310400,764.23,443.18,1.00,2,2,2,2815.09,0.03,138653.13,3007.40,0.03,111316.70,1948.10,0.04,15106.79,2303.64,0.03,19749.13,2033.40,0.03,9606.56
1326000,813.92,444.97,1.00,2,2,2,3187.40,0.04,23884.05,2569.49,0.02,28152.39,3091.90,0.03,73329.16,2553.73,0.05,16182.85,1871.23,0.03,10432.22
1355900,881.11,445.71,1.00,1,1,1,2247.39,0.01,31515.83,3148.00,0.03,19360.10,3334.15,0.03,8108.82,2590.37,0.05,1348.30,1748.91,0.04,4120.51
1371500,957.10,449.09,1.00,1,1,1,4875.42,0.04,168611.41,4486.73,0.04,85897.05,3444.39,0.05,7514.22,2971.65,0.05,24441.23,1645.59,0.04,6626.02
1386100,1016.48,451.72,1.00,1,1,1,4071.41,0.04,55069.45,3899.97,0.07,40678.20,3503.78,0.07,6497.99,2745.83,0.06,15491.08,1582.40,0.05,4394.19
1401200,1072.67,456.76,1.00,1,1,1,3736.18,0.09,25111.13,2703.68,0.10,79507.00,2836.99,0.08,44262.25,2322.34,0.07,28085.20,1605.77,0.05,1611.76
1423100,1116.04,461.44,1.00,1,1,1,1991.95,0.11,79676.81,1982.35,0.11,32947.92,2089.03,0.10,34219.82,1970.32,0.08,16137.63,1655.77,0.05,2283.19
1438100,1145.41,464.45,1.00,1,1,1,1968.35,0.10,1730.64,1343.45,0.11,42594.68,1076.17,0.14,67649.06,1213.29,0.09,50471.87,1815.73,0.05,10672.54
1453600,1156.78,465.87,1.00,1,1,1,738.82,0.12,79342.94,88.21,1.88,88005.24,253.96,0.31,53337.41,745.31,0.11,30235.89,1763.69,0.06,3513.73
1468700,1144.58,467.02,1.00,1,1,1,811.12,3.05,102036.61,896.23,3.14,57788.54,410.63,-3.09,43674.58,497.43,0.10,16425.06,1655.07,0.08,7471.81
1482900,1130.52,466.03,1.00,1,1,1,992.94,-3.07,16474.41,743.87,-2.99,13966.69,627.26,-3.07,15271.33,456.57,0.06,3179.22,1602.52,0.08,3708.77
1504700,1118.10,463.04,1.00,1,1,1,585.92,-2.90,19561.13,418.88,-2.94,14970.45,102.98,-2.57,24735.31,507.24,0.04,2381.64,1607.96,0.07,724.56
1519700,1115.42,462.93,1.00,1,1,1,179.01,-3.10,27461.28,687.15,0.01,73426.80,646.77,-0.03,48938.30,640.38,0.07,8978.01,1647.47,0.05,3305.39
1534900,1138.85,463.33,1.00,1,1,1,1541.86,0.02,113212.17,1935.33,0.03,82129.03,1541.54,0.04,59034.92,890.31,0.11,16566.02,1521.83,0.03,8404.41
1549900,1173.84,464.84,1.00,2,2,2,2334.36,0.04,52936.73,2434.68,0.05,33362.87,2058.17,0.07,34632.94,1252.43,0.07,24338.37,1395.93,0.03,8393.81
1563800,1209.13,466.69,1.00,2,2,2,2543.00,0.05,15099.95,2189.37,0.11,20113.75,2008.59,0.14,10352.72,2025.27,0.05,55621.21,1019.85,0.07,27236.92
1578800,1236.75,471.52,1.00,2,2,2,1869.27,0.17,48220.42,1612.20,0.27,43641.27,1867.53,0.10,10532.46,2606.21,0.03,38924.59,664.25,0.19,24678.94
1593100,1254.65,479.31,1.00,1,1,1,1365.14,0.41,44058.43,1619.55,0.09,19842.45,2452.16,0.06,41296.83,2502.05,0.02,7402.83,337.27,0.62,26733.50
1616300,1297.21,477.27,1.00,1,1,1,1836.61,-0.05,37076.01,3143.01,-0.02,66628.73,3092.92,0.00,28461.43,2248.72,0.03,10942.83,350.22,2.19,21023.15
1630800,1373.12,476.78,1.00,1,1,1,5234.88,-0.01,234531.75,4984.35,-0.03,127037.26,2868.01,-0.04,17590.71,1417.39,0.08,57671.36,891.70,2.67,41538.29
1645700,1443.67,472.26,1.00,1,1,1,4744.62,-0.06,38122.73,2633.03,-0.05,157870.77,2601.33,-0.02,18191.78,689.13,0.28,50712.22,1514.21,2.80,43068.40
1674800,1488.81,470.68,1.00,1,1,1,1552.24,-0.03,109737.47,1007.07,0.03,56071.18,690.04,0.12,65999.26,328.75,2.19,29390.78,2276.66,2.87,26554.62
1689600,1487.86,473.63,1.00,1,1,1,209.63,1.88,110508.11,1023.74,2.87,135643.32,1090.99,2.84,117841.85,1525.32,2.84,86425.18,3041.95,2.91,52188.35
1726000,1438.32,484.76,1.00,1,1,1,1394.76,2.92,35734.67,2847.05,2.94,50205.17,3328.17,2.95,61694.46,3152.55,2.93,45089.66,3694.50,2.94,18093.59
1741100,1344.15,502.75,1.00,4,4,4,6349.08,2.95,328162.14,7267.53,2.97,292833.28,5175.23,2.96,122418.84,4624.24,2.96,97675.60,4144.15,2.96,30419.30
1756000,1223.68,523.00,1.00,4,4,4,8199.19,2.98,124630.77,9147.40,2.98,126317.31,9217.95,2.97,271355.07,6728.60,2.97,141303.82,4305.84,2.99,13410.98
1771300,1071.65,548.11,1.00,4,4,4,10070.83,2.98,122340.83,11181.86,2.98,132978.66,9629.95,2.98,27147.95,7997.25,2.98,82980.38,4332.44,3.02,9729.60
1785800,894.87,577.03,1.00,4,4,4,12354.19,2.98,157478.05,10020.69,2.98,80094.58,10863.89,2.98,85126.10,10230.92,2.99,154134.26,3809.23,3.09,40390.11
1808600,702.70,607.96,1.00,4,4,4,8536.68,2.98,167438.61,10607.89,2.98,25820.21,11496.95,2.99,27886.88,10279.25,3.00,6067.29,4624.24,2.96,42771.08
1822800,507.19,638.29,1.00,4,4,4,13933.61,2.99,380090.42,13422.83,2.99,198374.86,11151.58,3.00,25794.64,9590.37,3.02,50719.10,6728.60,2.97,148269.50
1837200,323.00,664.52,1.00,4,4,4,12919.66,3.00,71370.65,11850.20,3.01,110549.07,11032.14,3.02,19788.25,7825.73,3.07,125680.30,7997.25,2.98,88166.65
1851700,167.53,682.10,1.00,4,4,4,10790.54,3.03,148692.08,8765.10,3.06,215489.91,8172.27,3.08,200985.68,4649.49,-3.07,226755.74,10230.92,2.99,154134.26
1867200,60.88,685.45,1.00,4,4,4,6883.87,3.11,256067.35,4728.73,-3.04,270995.95,3972.04,-2.96,285470.25,11032.14,3.02,420750.89,10279.25,3.00,8924.78
1881800,25.92,667.73,1.00,4,4,4,2684.26,-2.67,322463.68,2330.13,-1.17,401218.03,2710.55,-0.93,391019.98,8172.27,3.08,199609.07,9590.37,3.02,49329.54
1897300,88.30,620.89,1.00,4,4,4,5032.88,-0.64,430259.64,7596.11,-0.49,385377.44,2330.13,-1.17,45568.87,3972.04,-2.96,285470.25,7825.73,3.07,116761.05
1919100,276.49,535.46,1.00,1,1,1,9480.21,-0.43,215335.80,9480.21,-0.43,89482.71,7596.11,-0.49,274006.90,2710.55,-0.93,261875.77,4649.49,-3.07,150823.77
