@RELATION gaze_labels

%@METADATA width_px 1920
%@METADATA height_px 1080
%@METADATA width_mm 540.00
%@METADATA height_mm 254.00
%@METADATA distance_mm 620.00


@ATTRIBUTE time INTEGER
@ATTRIBUTE x NUMERIC
@ATTRIBUTE y NUMERIC
@ATTRIBUTE confidence NUMERIC
@ATTRIBUTE handlabeller1 INTEGER
@ATTRIBUTE handlabeller2 INTEGER
@ATTRIBUTE handlabeller_final INTEGER
@ATTRIBUTE speed_1 numeric
@ATTRIBUTE direction_1 numeric
@ATTRIBUTE acceleration_1 numeric
@ATTRIBUTE speed_2 numeric
@ATTRIBUTE direction_2 numeric
@ATTRIBUTE acceleration_2 numeric
@ATTRIBUTE speed_4 numeric
@ATTRIBUTE direction_4 numeric
@ATTRIBUTE acceleration_4 numeric
@ATTRIBUTE speed_8 numeric
@ATTRIBUTE direction_8 numeric
@ATTRIBUTE acceleration_8 numeric
@ATTRIBUTE speed_16 numeric
@ATTRIBUTE direction_16 numeric
@ATTRIBUTE acceleration_16 numeric

%The number after speed, direction denotes the step size that was used for the calculation.
%Acceleration was calculated between two adjacent samples of the already low pass filtered velocity

@DATA
0,62.21,449.49,1.00,2,2,2,0.00,0.00,0.00,4894.61,-0.07,0.00,4419.14,-0.10,0.00,2945.54,-0.18,0.00,2023.88,-0.16,0.00
22500,172.10,442.28,1.00,2,2,2,4894.61,-0.07,217538.44,4419.14,-0.10,22296.74,2621.81,-0.24,82671.78,1669.12,-0.35,59354.36,1782.95,-0.15,10751.68
37400,226.66,433.00,1.00,1,1,1,3714.24,-0.17,84512.88,2621.81,-0.24,124839.93,2945.54,-0.18,24804.48,1074.93,-0.49,41775.76,1743.60,-0.08,8163.94
52800,249.25,423.33,1.00,1,1,1,1595.55,-0.40,142522.05,1206.49,-0.53,97859.80,1669.12,-0.35,86719.03,1028.31,-0.34,11106.66,2143.73,-0.02,27265.47
67500,257.94,414.54,1.00,1,1,1,840.47,-0.79,59609.34,775.54,-0.75,32715.48,1074.93,-0.49,42344.14,2023.88,-0.16,69913.19,2496.64,0.03,24976.58
82500,266.04,407.56,1.00,1,1,1,713.10,-0.71,9420.87,940.76,-0.44,21000.21,1028.31,-0.34,11402.83,1782.95,-0.15,16127.52,2961.53,0.06,31462.38
96500,282.63,402.95,1.00,1,1,1,1230.33,-0.27,47135.91,1317.00,-0.14,35922.40,1260.74,-0.12,23885.12,1743.60,-0.08,8688.77,3302.55,0.08,24751.80
118600,313.13,401.02,1.00,1,1,1,1382.62,-0.06,14030.90,1472.18,-0.01,10458.70,1909.09,-0.02,30316.84,2143.73,-0.02,18999.47,3741.86,0.09,19928.03
148900,359.77,401.81,1.00,1,1,1,1539.47,0.02,6454.64,2387.98,0.04,30398.87,2220.86,0.04,10863.62,2496.64,0.03,12117.35,3033.77,0.01,24955.55
164300,422.18,405.14,1.00,2,2,2,4058.61,0.05,163687.95,3103.92,0.06,46720.80,3007.57,0.06,51280.58,2961.53,0.06,30645.17,2885.36,0.02,9973.05
193500,497.92,410.67,1.00,2,2,2,2600.63,0.07,49977.89,3649.45,0.08,18763.99,3747.30,0.08,25398.11,3302.55,0.08,11867.30,2879.81,0.03,1321.63
208500,582.98,417.90,1.00,1,1,1,5691.35,0.08,206070.46,4521.43,0.09,58205.86,4027.96,0.09,19051.76,3741.86,0.09,29360.62,2899.93,0.04,2022.64
230600,664.98,425.75,1.00,1,1,1,3727.48,0.10,88890.28,4479.63,0.10,3537.08,4877.82,0.10,38533.09,4141.56,0.09,18121.92,2920.10,0.05,1143.67
245600,748.27,435.27,1.00,1,1,1,5588.27,0.11,124178.68,5324.21,0.12,56512.26,4735.11,0.11,9529.66,4032.85,0.10,7285.27,2833.45,0.05,5886.85
260300,821.99,444.61,1.00,1,1,1,5054.96,0.13,36546.15,5056.42,0.11,18703.77,4682.17,0.11,3641.59,4303.50,0.09,18437.24,2642.01,0.06,13061.89
275100,896.57,451.28,1.00,1,1,1,5059.58,0.09,12580.32,4047.41,0.09,68334.66,4039.60,0.10,43491.89,3789.49,0.08,34878.63,2314.77,0.07,22141.17
290300,942.89,455.80,1.00,1,1,1,3061.93,0.10,131441.26,3036.85,0.09,66504.79,3661.97,0.07,25728.21,3472.93,0.06,21126.24,2071.76,0.07,16040.85
305000,987.04,459.00,1.00,1,1,1,3011.40,0.07,6216.76,3274.42,0.05,18015.83,2851.01,0.04,55738.32,2666.70,0.05,54985.16,1593.49,0.09,32573.77
320000,1040.03,460.47,1.00,1,1,1,3533.78,0.03,36146.49,2705.99,-0.01,39485.03,2381.67,-0.01,32387.24,1781.84,0.01,59194.70,1108.69,0.12,32454.51
341900,1086.89,458.21,1.00,1,1,1,2142.29,-0.05,64249.87,1653.86,-0.11,49043.34,1445.44,-0.09,43236.23,735.68,-0.05,47890.18,471.13,0.22,29289.56
355800,1098.88,453.97,1.00,1,1,1,914.83,-0.34,93032.98,316.14,-2.16,131104.21,215.89,-1.18,97831.32,119.05,-0.57,45699.29,166.02,2.67,43749.05
370800,1081.78,450.64,1.00,1,1,1,1161.19,-2.95,133592.06,1801.90,-3.02,107469.16,1183.35,-3.00,83589.62,721.40,-3.01,54387.20,703.42,3.08,37055.69
385700,1045.41,447.35,1.00,1,1,1,2451.07,-3.05,87344.57,1810.67,-3.08,7844.92,1714.00,-3.09,36569.82,1611.07,-3.09,59954.10,1128.28,3.14,28682.32
416000,1000.08,445.83,1.00,1,1,1,1496.83,-3.11,31696.72,1667.92,-3.13,5401.27,2435.15,-3.11,23872.18,2686.76,-3.11,35533.86,1445.74,-3.13,10509.63
438300,957.69,446.23,1.00,2,2,2,1901.29,3.13,18426.09,3193.73,-3.14,68425.84,2946.83,-3.14,23174.51,3031.05,-3.13,15621.58,1648.16,-3.12,9112.66
453300,880.96,445.15,1.00,2,2,2,5115.66,-3.13,214348.13,5160.03,3.13,131130.09,4369.60,-3.14,94851.83,3383.27,-3.13,23526.28,1806.57,-3.11,10604.26
468700,800.82,447.29,1.00,1,1,1,5205.37,3.11,14883.25,5866.65,3.14,45896.10,4493.71,3.14,8105.09,3342.52,-3.14,2928.86,1927.82,-3.11,7877.13
482600,709.07,445.80,1.00,1,1,1,6602.12,-3.13,102099.63,4033.40,-3.14,131897.11,4431.25,3.14,4527.74,3311.94,-3.14,2202.03,2036.53,-3.11,7872.73
512700,623.36,447.21,1.00,1,1,1,2847.95,3.13,124811.05,3504.88,3.14,17574.40,3744.03,-3.14,22853.71,3300.37,-3.14,668.73,1931.60,-3.12,3553.90
528000,549.95,446.68,1.00,1,1,1,4797.99,-3.13,127579.67,3407.23,-3.14,6902.45,2593.16,-3.14,75220.28,2841.42,-3.13,30010.68,1825.35,-3.13,7001.25
550500,494.56,446.42,1.00,1,1,1,2461.52,-3.14,103843.92,1806.51,-3.12,71152.61,2219.44,-3.12,16752.72,2230.61,-3.12,27179.66,1759.16,-3.14,2989.24
580600,454.94,445.10,1.00,1,1,1,1317.20,-3.11,38055.44,1207.39,-3.08,20042.54,1384.37,-3.09,27810.43,1454.96,-3.12,25769.27,1734.38,3.14,1017.25
594800,441.19,442.97,1.00,1,1,1,979.91,-2.99,25635.75,629.80,-2.88,42513.52,564.53,-2.97,58160.22,774.82,-3.10,47909.75,1631.98,3.13,7225.07
609400,437.44,440.33,1.00,1,1,1,314.04,-2.53,48782.81,428.07,-0.29,69814.47,434.93,-0.19,67378.42,180.21,-3.04,40756.84,1359.75,3.13,18645.89
624500,453.39,439.38,1.00,1,1,1,1057.90,-0.06,87292.58,1404.27,-0.00,66263.30,995.97,-0.00,38015.53,79.58,-0.17,17074.71,1094.00,3.14,17614.75
639900,480.27,440.25,1.00,1,1,1,1746.62,0.03,45444.15,1464.64,0.06,6985.90,1274.57,0.04,18417.76,300.20,0.09,14548.65,774.76,3.13,20735.86
661800,507.92,442.67,1.00,1,1,1,1267.31,0.09,22204.98,1169.67,0.09,13564.35,773.17,0.10,23032.40,404.12,0.14,4828.86,554.52,-3.14,10060.28
676800,523.27,444.00,1.00,1,1,1,1027.11,0.09,16012.93,94.25,2.44,82526.01,222.70,0.57,38869.57,450.69,0.15,3108.96,271.34,-3.12,18890.55
692500,505.71,444.54,1.00,1,1,1,1118.92,3.11,136456.46,966.89,3.00,56576.70,278.76,2.68,27852.38,293.51,0.22,10136.24,34.65,-2.23,15973.32
708300,493.13,448.41,1.00,1,1,1,832.91,2.84,24382.93,465.83,2.72,33737.46,480.10,2.97,14461.38,61.33,1.18,16671.73,198.55,-0.13,13810.31
723300,492.59,450.35,1.00,1,1,1,134.26,1.84,51252.98,50.72,0.32,33632.20,263.36,2.95,14456.28,299.70,3.02,21438.32,277.68,-0.02,5535.47
737500,494.54,448.88,1.00,1,1,1,171.78,-0.65,20435.68,128.47,-2.28,12249.94,148.74,-3.08,8757.78,378.85,3.13,6095.43,254.42,0.06,2262.31
752700,490.13,447.49,1.00,1,1,1,304.01,-2.84,28091.94,307.51,-3.05,15331.67,345.98,-3.00,13033.10,128.44,-2.81,17206.56,155.94,0.30,7181.16
773900,483.39,447.85,1.00,1,1,1,318.41,3.09,5307.50,550.73,-3.13,11570.97,299.17,-2.93,2466.78,127.03,-0.60,10772.78,56.06,1.92,7948.81
789300,469.98,447.20,1.00,1,1,1,872.11,-3.09,36126.85,295.07,-2.78,18905.73,110.47,-1.75,17967.50,177.99,-0.37,4020.96,224.53,2.84,12712.98
804000,475.08,444.71,1.00,1,1,1,386.42,-0.45,83337.18,458.95,-0.43,47516.53,346.99,-0.37,23356.15,106.54,-0.23,5026.42,404.59,2.92,12355.43
833800,488.53,438.67,1.00,1,1,1,494.80,-0.42,3665.19,728.96,-0.19,10153.41,617.74,-0.13,9856.09,52.17,0.67,2835.05,504.50,2.93,3354.40
850000,507.99,438.25,1.00,1,1,1,1201.01,-0.02,47520.09,900.95,0.10,18000.59,375.17,0.01,15475.83,72.20,2.39,5873.72,634.46,2.98,8223.09
864500,516.06,441.37,1.00,1,1,1,597.09,0.37,47416.92,147.83,1.09,57157.55,199.06,1.04,22236.62,176.60,2.62,7418.93,774.78,3.01,9762.38
901100,511.51,444.93,1.00,1,1,1,157.86,2.48,18891.29,435.21,2.61,12369.82,400.20,2.65,12395.72,431.96,2.80,7105.10,923.79,3.01,4072.74
915900,496.81,452.76,1.00,1,1,1,1125.50,2.65,65568.80,877.27,2.84,31456.31,783.21,2.86,27080.55,847.04,2.86,28175.61,1026.92,3.01,6974.33
945400,474.36,456.32,1.00,2,2,2,770.70,2.98,15932.89,1205.74,2.96,11889.29,1376.14,2.91,20173.74,1288.76,2.95,15256.06,1096.59,3.00,2373.33
960600,443.77,462.30,1.00,2,2,2,2050.63,2.95,84258.44,1975.20,2.94,50665.00,1761.14,2.97,26180.60,1596.87,2.99,20635.54,1057.72,2.98,2940.55
982500,402.51,470.76,1.00,1,1,1,1922.89,2.94,5893.64,2435.89,2.98,21347.03,2582.38,3.01,37668.31,2114.46,3.01,23700.32,1054.71,2.96,1236.13
997400,355.30,476.77,1.00,1,1,1,3194.20,3.02,86249.16,3342.72,3.06,62737.52,2780.12,3.04,14171.90,2260.60,3.03,10265.99,1100.82,2.92,4145.09
1012500,302.57,479.04,1.00,1,1,1,3495.07,3.10,27183.25,3212.19,3.09,11225.57,3128.92,3.07,23765.72,2498.37,3.03,15754.61,1094.40,2.90,1451.21
1027400,259.05,481.55,1.00,1,1,1,2925.68,3.08,38343.52,2916.03,3.07,20187.32,2954.81,3.07,11767.84,2205.45,3.02,19685.16,1037.86,2.89,3859.54
1042600,215.00,484.90,1.00,1,1,1,2906.81,3.07,3701.50,2691.68,3.05,15445.86,2404.96,3.04,36561.41,1939.43,3.01,17580.93,1056.22,2.89,1236.40
1056600,180.79,488.73,1.00,1,1,1,2459.00,3.03,32708.16,1892.58,2.99,57809.35,1630.44,2.99,55910.38,1430.16,2.96,36780.49,1014.97,2.95,5068.78
1072400,159.22,493.23,1.00,1,1,1,1394.46,2.94,68272.73,817.47,2.82,69399.87,893.52,2.82,48393.28,849.38,2.81,38248.22,1197.39,3.04,13128.95
1094000,151.78,498.40,1.00,1,1,1,419.30,2.53,47307.11,290.90,1.66,34746.45,312.63,1.78,36198.43,383.07,2.34,24804.81,2205.45,3.02,46693.80
1109600,158.27,504.01,1.00,1,1,1,549.47,0.71,49308.69,881.47,0.42,53330.04,707.59,0.46,44827.47,294.36,0.92,28693.24,1939.43,3.01,17130.14
1124600,176.36,509.52,1.00,1,1,1,1260.83,0.30,52705.04,1517.22,0.23,44978.76,1265.20,0.24,39699.19,343.51,0.39,11605.94,1430.16,2.96,34328.46
1138700,201.26,514.05,1.00,1,1,1,1795.14,0.18,39863.89,1692.05,0.14,16243.24,1352.73,0.13,11798.19,51.55,-0.78,23188.42,849.38,2.81,42859.71
1153800,225.30,516.27,1.00,1,1,1,1598.93,0.09,16287.78,1209.20,0.01,34178.16,716.13,-0.07,44189.97,1265.20,0.24,82062.66,383.07,2.34,35482.38
1168700,237.53,514.39,1.00,1,1,1,830.63,-0.15,54904.84,283.64,-1.76,86935.42,672.34,-2.54,87890.16,1352.73,0.13,11164.73,294.36,0.92,30041.25
1190400,223.35,506.07,1.00,1,1,1,757.75,-2.61,68982.72,2094.68,-2.80,90631.07,283.64,-1.76,23525.02,716.13,-0.07,30749.70,343.51,0.39,8022.54
1205900,164.09,488.37,1.00,1,1,1,3990.48,-2.85,210287.30,3990.48,-2.85,122667.59,2094.68,-2.80,126883.50,672.34,-2.54,84487.96,51.55,-0.78,21093.98
