%@metadata width_px 1920.0
%@metadata height_px 1080.0
%@metadata width_mm 540.0
%@metadata height_mm 254.0
%@metadata distance_mm 620.0
% The number after speed, direction denotes the step size that was used for the calculation.
% Acceleration was calculated between two adjacent samples of the already low pass filtered velocity
@RELATION gaze_labels

@ATTRIBUTE time INTEGER
@ATTRIBUTE x NUMERIC
@ATTRIBUTE y NUMERIC
@ATTRIBUTE confidence NUMERIC
@ATTRIBUTE handlabeller_final INTEGER
@ATTRIBUTE EYE_MOVEMENT_TYPE {UNKNOWN, FIX, SACCADE, SP, NOISE, BLINK, NOISE_CLUSTER, PSO}

@DATA
0,295.92,510.23,1.0,1,FIX
15300,261.44,510.67,1.0,1,FIX
29400,210.94,509.6,1.0,1,FIX
51400,221.23,517.71,1.0,1,FIX
65300,262.69,442.4,1.0,1,FIX
79300,186.99,488.07,1.0,1,FIX
93400,308.21,521.62,1.0,1,FIX
115300,305.08,510.38,1.0,1,FIX
129400,358.67,520.76,1.0,1,FIX
158700,268.18,468.57,1.0,1,FIX
180000,228.39,473.09,1.0,1,FIX
194200,242.22,437.52,1.0,1,FIX
208300,235.46,435.04,1.0,1,FIX
223100,206.62,482.74,1.0,1,FIX
237300,246.19,518.48,1.0,1,FIX
258200,301.76,523.06,1.0,1,SACCADE
287300,298.65,502.85,1.0,1,SACCADE
322400,546.68,474.82,1.0,1,SP
337300,681.58,458.95,1.0,1,FIX
351400,731.77,468.75,1.0,1,FIX
386300,827.05,514.59,1.0,1,FIX
400300,815.0,457.07,1.0,1,FIX
415300,794.68,486.61,1.0,1,FIX
429400,745.61,499.97,1.0,1,FIX
451300,718.28,430.79,1.0,1,FIX
465700,716.12,495.74,1.0,1,FIX
480100,743.81,497.43,1.0,1,FIX
494100,841.86,528.23,1.0,1,FIX
515400,749.61,454.82,1.0,1,FIX
545300,844.82,449.78,1.0,1,SACCADE
559400,808.97,480.69,1.0,1,SACCADE
573800,916.2,422.12,1.0,1,SP
596300,1136.79,455.2,1.0,1,FIX
610500,1204.97,442.42,1.0,1,FIX
624300,1322.57,505.84,1.0,1,FIX
638200,1268.42,423.79,1.0,1,FIX
673300,1282.44,431.95,1.0,1,FIX
702300,1216.55,419.44,1.0,1,FIX
723700,1243.37,450.49,1.0,1,FIX
752200,1323.43,486.64,1.0,1,FIX
766800,1329.86,468.45,1.0,1,FIX
787900,1308.41,469.95,1.0,1,FIX
802600,1301.94,412.29,1.0,1,SACCADE
816500,1286.28,435.65,1.0,1,SACCADE
830900,1264.41,427.51,1.0,1,SP
845400,1119.61,472.94,1.0,1,FIX
866700,934.64,445.46,1.0,1,FIX
881400,946.29,483.53,1.0,1,FIX
909400,986.2,445.76,1.0,1,FIX
930900,1027.04,485.3,1.0,1,FIX
945400,984.36,448.03,1.0,1,FIX
959600,999.51,459.1,1.0,1,FIX
973800,982.16,460.07,1.0,1,FIX
995100,994.91,469.84,1.0,1,FIX
1009700,1003.55,442.89,1.0,1,FIX
1038100,909.67,437.54,1.0,1,SACCADE
1074000,984.32,445.22,1.0,1,SACCADE
1088000,1099.41,440.13,1.0,1,FIX
1102100,1246.17,419.33,1.0,1,FIX
1137600,1248.76,396.23,1.0,1,FIX
1152000,1324.42,462.45,1.0,1,FIX
1166100,1331.22,470.25,1.0,1,FIX
1187300,1342.36,406.26,1.0,1,FIX
1202500,1332.12,414.93,1.0,1,FIX
1216600,1291.96,418.24,1.0,1,FIX
1230500,1314.96,424.66,1.0,1,FIX
1245300,1294.67,414.54,1.0,1,FIX
1280100,1361.29,464.85,1.0,1,FIX
1294100,1337.92,415.24,1.0,1,FIX
1315600,1318.15,423.14,1.0,1,FIX
1330200,1314.94,412.55,1.0,1,SACCADE
1345000,1323.7,420.13,1.0,1,SACCADE
1359300,1253.67,457.91,1.0,1,SACCADE
1373500,1261.0,468.45,1.0,1,FIX
1395100,999.61,450.88,1.0,1,FIX
1425200,969.36,460.16,1.0,1,FIX
1454000,933.07,467.49,1.0,1,FIX
1475600,1024.56,503.5,1.0,1,FIX
1505300,872.57,413.55,1.0,1,FIX
1519100,880.91,405.33,1.0,1,NOISE
1533600,973.61,474.84,1.0,1,NOISE
1554900,959.54,547.33,1.0,4,NOISE
1569500,850.46,938.49,1.0,4,NOISE
1584300,474.1,763.91,1.0,4,NOISE
1613400,-172.96,466.97,1.0,4,NOISE
1634900,418.59,1063.68,1.0,1,NOISE
1649000,714.88,1186.15,1.0,1,NOISE
1663400,861.66,999.13,1.0,1,NOISE
1678200,848.18,838.36,1.0,1,NOISE
1699600,844.19,652.34,1.0,1,NOISE
1713300,799.44,550.11,1.0,1,FIX
1727300,884.71,499.47,1.0,1,FIX
1742100,828.04,472.89,1.0,1,FIX
1763700,865.42,417.3,1.0,1,FIX
1792400,825.56,381.63,1.0,1,FIX
1827600,847.32,382.52,1.0,1,FIX
1842300,884.41,408.15,1.0,1,FIX
1870700,844.81,387.49,1.0,1,FIX
1885400,857.38,399.02,1.0,1,SACCADE
1907300,830.72,426.34,1.0,1,SACCADE
1921400,912.21,386.04,1.0,1,SP
1935900,1077.9,374.42,1.0,1,SP
1949800,1163.88,381.0,1.0,1,FIX
1971300,1314.76,473.73,1.0,1,FIX
1985300,1302.45,433.1,1.0,1,FIX
2013700,1260.18,387.82,1.0,1,FIX
2035500,1258.72,403.42,1.0,1,FIX
2049400,1206.27,410.8,1.0,1,FIX
2063500,1208.49,355.81,1.0,1,FIX
2077500,1223.81,392.54,1.0,1,FIX
2099100,1192.68,357.43,1.0,1,FIX
2113000,1228.4,412.55,1.0,1,FIX
2127200,1193.45,389.05,1.0,1,SACCADE
2142200,1265.97,393.4,1.0,1,SACCADE
2163600,1252.95,430.65,1.0,1,SP
2192700,875.84,445.68,1.0,1,FIX
2206300,855.16,424.42,1.0,1,FIX
2227500,769.47,381.87,1.0,1,FIX
2256300,823.19,389.46,1.0,1,FIX
2270600,780.93,368.29,1.0,1,FIX
2285300,775.6,380.28,1.0,1,FIX
2307300,787.0,379.62,1.0,1,FIX
2321200,832.98,390.64,1.0,1,FIX
2335700,792.22,408.08,1.0,1,FIX
2350200,761.16,415.5,1.0,1,FIX
2370900,728.65,421.17,1.0,1,FIX
2385300,831.51,391.82,1.0,1,FIX
2399700,797.0,396.21,1.0,1,FIX
2414300,794.07,432.59,1.0,1,FIX
2449800,834.09,454.48,1.0,1,SACCADE
2464100,803.61,400.44,1.0,1,SACCADE
2478000,792.9,428.87,1.0,1,SP
2499100,955.6,371.4,1.0,1,FIX
2513200,941.23,346.78,1.0,1,FIX
2528300,959.65,368.2,1.0,1,FIX
2542300,954.28,360.01,1.0,1,FIX
2578200,976.16,377.33,1.0,1,FIX
2592200,932.06,352.55,1.0,1,FIX
2627400,855.85,321.09,1.0,1,FIX
2642700,898.37,385.55,1.0,1,FIX
2656800,988.5,401.67,1.0,1,FIX
2670800,965.28,406.01,1.0,1,FIX
2685400,965.5,405.02,1.0,1,FIX
2721200,1026.45,413.42,1.0,1,FIX
2735700,969.21,390.09,1.0,1,FIX
2749900,905.11,392.49,1.0,1,FIX
2771300,999.88,432.2,1.0,1,FIX
2785300,966.04,391.7,1.0,1,FIX
2799400,946.01,364.43,1.0,1,FIX
2814500,967.76,377.23,1.0,1,FIX
2835500,998.66,402.33,1.0,1,FIX
2849300,970.29,389.65,1.0,1,FIX
2877800,967.42,428.38,1.0,1,FIX
2899700,913.03,351.48,1.0,1,FIX
2914100,935.34,377.9,1.0,1,FIX
2942900,966.31,396.09,1.0,1,SACCADE
2957400,972.82,389.18,1.0,1,SACCADE
2993300,981.8,377.43,1.0,1,FIX
3007500,1072.97,416.62,1.0,1,FIX
3022300,1113.66,379.1,1.0,1,FIX
3043400,1112.11,389.32,1.0,1,FIX
3057400,1067.39,337.28,1.0,1,FIX
3071400,1069.7,393.55,1.0,1,FIX
3086000,1070.66,371.11,1.0,1,FIX
3107300,1116.76,332.84,1.0,1,FIX
3122200,1142.88,423.53,1.0,1,FIX
3150200,1146.95,410.66,1.0,1,FIX
3171500,1187.18,395.63,1.0,1,FIX
3185900,1107.33,367.35,1.0,1,FIX
3200400,1144.3,409.81,1.0,1,FIX
3215200,1110.68,369.44,1.0,1,FIX
3229400,1088.56,350.93,1.0,1,FIX
3251000,1096.75,384.64,1.0,1,FIX
3279100,1137.87,376.33,1.0,1,SACCADE
3314200,1129.11,414.85,1.0,1,SACCADE
3328900,992.11,418.1,1.0,1,SP
3343300,910.32,478.06,1.0,1,FIX
3378300,798.76,470.1,1.0,1,FIX
3392600,794.79,403.79,1.0,1,FIX
3406600,821.03,424.54,1.0,1,FIX
3421300,862.11,408.84,1.0,1,FIX
3443300,862.63,414.02,1.0,1,FIX
3458000,878.93,383.23,1.0,1,FIX
3486400,734.14,405.52,1.0,1,FIX
3508200,729.4,410.72,1.0,1,FIX
3522200,856.71,394.89,1.0,1,FIX
3536200,871.68,410.81,1.0,1,FIX
3550700,838.54,406.42,1.0,1,FIX
3565700,820.45,406.61,1.0,1,SACCADE
3587400,823.17,389.9,1.0,1,SACCADE
3602300,798.23,382.74,1.0,1,SACCADE
3631000,977.82,444.68,1.0,1,SP
3645300,964.05,349.5,1.0,1,FIX
3666300,1102.33,420.18,1.0,1,FIX
3695200,1196.27,436.16,1.0,1,FIX
3709500,1154.3,458.89,1.0,1,FIX
3745400,1049.08,389.23,1.0,1,FIX
3759500,1080.07,383.03,1.0,1,FIX
3774100,1075.55,357.31,1.0,1,FIX
3795200,1100.7,392.81,1.0,1,FIX
3809200,1155.02,424.32,1.0,1,FIX
3823700,1148.53,400.23,1.0,1,FIX
3838200,1159.18,408.95,1.0,1,FIX
3874300,1119.41,375.97,1.0,1,FIX
3889100,1167.56,398.56,1.0,1,FIX
3903100,1148.61,418.85,1.0,1,FIX
3924300,1142.31,384.64,1.0,1,FIX
3938400,1137.76,383.89,1.0,1,FIX
3952500,1124.6,376.36,1.0,1,SACCADE
3966300,1139.62,391.58,1.0,1,SACCADE
3987600,1148.6,429.32,1.0,1,SP
4002500,798.34,418.25,1.0,1,FIX
4030300,773.13,434.89,1.0,1,FIX
4067000,751.9,437.7,1.0,1,FIX
4081400,725.78,412.8,1.0,1,FIX
4095800,826.53,418.08,1.0,1,FIX
4125300,814.23,429.21,1.0,1,FIX
4146700,823.31,392.65,1.0,1,FIX
4160900,774.69,409.59,1.0,1,FIX
4175800,703.26,373.71,1.0,1,FIX
4190200,869.47,452.44,1.0,1,FIX
4205700,852.29,463.7,1.0,1,FIX
4226600,776.37,405.52,1.0,1,FIX
4240600,781.96,391.87,1.0,1,SACCADE
4255300,936.23,445.07,1.0,1,SACCADE
4269500,909.33,423.75,1.0,1,SP
4290800,1160.68,378.14,1.0,1,FIX
4319600,1173.36,384.58,1.0,1,FIX
4334100,1176.67,373.64,1.0,1,FIX
4355700,1218.44,390.35,1.0,1,FIX
4369600,1182.85,378.01,1.0,1,FIX
4384100,1217.85,420.25,1.0,1,FIX
4398700,1225.54,401.36,1.0,1,FIX
4413900,1275.09,439.5,1.0,1,FIX
4449600,1219.47,405.01,1.0,1,FIX
4464100,1209.25,392.79,1.0,1,FIX
4499200,1168.85,351.71,1.0,1,FIX
4514100,1221.83,411.98,1.0,1,FIX
4528100,1164.36,379.36,1.0,1,FIX
4542400,1117.95,365.16,1.0,1,FIX
4564000,1112.16,365.04,1.0,1,SACCADE
4592200,1199.68,356.57,1.0,1,SACCADE
4606200,1130.72,414.2,1.0,1,SP
4627500,986.84,425.6,1.0,1,FIX
4642100,951.09,411.37,1.0,1,FIX
4656000,908.34,368.18,1.0,1,FIX
4670100,897.54,353.63,1.0,1,FIX
4692400,950.86,392.94,1.0,1,FIX
4706500,924.36,388.03,1.0,1,NOISE
4721300,949.97,415.2,1.0,1,NOISE
4749300,889.93,389.68,1.0,1,NOISE
4770500,955.06,534.78,1.0,4,NOISE
4785200,892.35,999.81,1.0,4,NOISE
4813600,-161.35,214.75,1.0,4,NOISE
4835100,-157.73,31.51,1.0,4,NOISE
4863400,105.86,891.56,1.0,4,NOISE
4877600,196.24,975.4,1.0,4,NOISE
4898600,236.54,992.45,1.0,4,NOISE
4913600,171.95,962.65,1.0,4,FIX
4927900,254.04,1085.6,1.0,4,FIX
4942000,370.04,1070.18,1.0,4,FIX
4963700,250.83,1028.42,1.0,4,FIX
4977400,304.56,1086.46,1.0,4,SACCADE
5006900,329.0,973.16,1.0,4,SACCADE
5021300,343.9,1043.77,1.0,4,NOISE
5042500,718.48,1055.43,1.0,4,NOISE
5056900,862.22,1024.57,1.0,1,NOISE
5071800,1154.84,1068.3,1.0,1,NOISE
5086200,1009.39,543.97,1.0,1,NOISE
5107700,1014.94,598.93,1.0,1,NOISE
5122100,1068.79,366.33,1.0,1,NOISE
5150400,980.93,369.35,1.0,1,NOISE
5186200,1025.74,351.41,1.0,1,FIX
5200600,1085.71,327.75,1.0,1,FIX
5215000,1056.96,358.45,1.0,1,FIX
5250700,969.09,304.18,1.0,1,FIX
5265400,960.36,297.9,1.0,1,FIX
5279800,1000.96,312.66,1.0,1,FIX
5294200,1093.86,403.7,1.0,1,NOISE
5315200,1102.17,380.23,1.0,1,NOISE
5329200,1086.22,381.05,1.0,1,NOISE
5357900,1036.16,501.23,1.0,4,NOISE
5379300,993.3,742.67,1.0,4,NOISE
5394000,715.08,870.65,1.0,4,NOISE
5408100,286.5,554.19,1.0,4,NOISE
5422100,-51.55,466.56,1.0,4,NOISE
5443300,720.35,1026.89,1.0,1,NOISE
5457200,1193.45,752.53,1.0,1,NOISE
5486200,1112.64,627.19,1.0,1,NOISE
5507500,1152.71,725.1,1.0,1,NOISE
5522300,1196.59,429.93,1.0,1,NOISE
5536300,1229.74,434.11,1.0,1,FIX
5566200,1283.55,367.56,1.0,1,FIX
5586900,1246.7,382.0,1.0,1,FIX
5615400,1231.72,377.99,1.0,1,FIX
5629400,1278.11,397.98,1.0,1,FIX
5650400,1260.66,387.06,1.0,1,FIX
5665400,1311.28,381.8,1.0,1,FIX
5680300,1234.45,378.37,1.0,1,SACCADE
5695200,1310.85,411.46,1.0,1,SACCADE
5709700,1193.06,373.65,1.0,1,SP
5731200,950.09,401.36,1.0,1,FIX
5745400,745.94,411.42,1.0,1,FIX
5773900,665.43,398.91,1.0,1,FIX
5795200,716.66,364.11,1.0,1,FIX
5809500,737.93,371.82,1.0,1,FIX
5823200,714.24,372.94,1.0,1,FIX
5837500,702.45,415.54,1.0,1,FIX
5859500,722.71,384.98,1.0,1,FIX
5874400,649.25,367.21,1.0,1,FIX
5903300,699.69,398.15,1.0,1,FIX
5938500,701.54,379.96,1.0,1,FIX
5952600,734.32,415.92,1.0,1,FIX
5966700,738.67,409.79,1.0,1,FIX
6002000,659.83,378.77,1.0,1,FIX
6016700,641.82,400.58,1.0,1,FIX
6031000,734.96,414.95,1.0,1,FIX
6045800,705.68,420.26,1.0,1,SACCADE
6066800,693.09,384.31,1.0,1,SACCADE
6080600,710.79,430.94,1.0,1,SACCADE
6109400,1071.99,394.0,1.0,1,SP
6130700,1075.13,352.23,1.0,1,FIX
6145100,1088.92,328.08,1.0,1,FIX
6159500,1168.13,366.77,1.0,1,FIX
6173400,1248.32,403.33,1.0,1,FIX
6195200,1210.12,368.92,1.0,1,FIX
6209400,1171.01,373.36,1.0,1,FIX
6223900,1208.86,404.67,1.0,1,FIX
6254100,1202.76,371.32,1.0,1,FIX
6275400,1216.5,419.43,1.0,1,FIX
6289400,1156.56,376.86,1.0,1,FIX
6318100,1233.66,393.43,1.0,1,FIX
6339500,1205.21,394.0,1.0,1,FIX
