%@metadata width_px 1920.0
%@metadata height_px 1080.0
%@metadata width_mm 540.0
%@metadata height_mm 254.0
%@metadata distance_mm 620.0
% The number after speed, direction denotes the step size that was used for the calculation.
% Acceleration was calculated between two adjacent samples of the already low pass filtered velocity
@RELATION gaze_labels

@ATTRIBUTE time INTEGER
@ATTRIBUTE x NUMERIC
@ATTRIBUTE y NUMERIC
@ATTRIBUTE confidence NUMERIC
@ATTRIBUTE handlabeller_final INTEGER
@ATTRIBUTE EYE_MOVEMENT_TYPE {UNKNOWN, FIX, SACCADE, SP, NOISE, BLINK, NOISE_CLUSTER, PSO}

@DATA
0,1379.17,837.57,1.0,1,FIX
15000,1377.53,840.3,1.0,2,FIX
29100,1345.32,848.86,1.0,2,SACCADE
44200,1406.01,840.8,1.0,3,SACCADE
65900,1412.49,842.26,1.0,1,FIX
80600,1534.86,845.18,1.0,1,FIX
110200,1562.55,844.74,1.0,1,FIX
124300,1494.74,849.77,1.0,1,FIX
161500,1510.71,845.58,1.0,1,FIX
176500,1554.2,847.87,1.0,1,FIX
206800,1490.41,849.0,1.0,1,FIX
222500,1478.17,845.17,1.0,2,FIX
237000,1561.14,843.76,1.0,1,FIX
258500,1532.99,851.01,1.0,1,FIX
273300,1555.99,852.9,1.0,1,FIX
287400,1514.54,847.48,1.0,1,FIX
301900,1490.35,842.79,1.0,1,FIX
317000,1425.71,852.26,1.0,1,FIX
339500,1521.09,849.4,1.0,1,FIX
354100,1455.65,849.45,1.0,1,FIX
368500,1476.97,847.27,1.0,1,FIX
382900,1486.95,862.43,1.0,2,FIX
398400,1485.32,852.09,1.0,2,FIX
413200,1558.11,850.68,1.0,2,FIX
428200,1558.11,850.68,1.0,3,FIX
449400,1508.83,866.48,1.0,1,FIX
480300,1471.85,862.86,1.0,1,FIX
495700,1559.96,859.07,1.0,1,FIX
510700,1532.28,859.33,1.0,1,FIX
540200,1586.01,867.73,1.0,1,FIX
562200,1512.25,861.62,1.0,1,FIX
577200,1485.89,856.82,1.0,1,FIX
592900,1551.37,854.61,1.0,1,FIX
607200,1590.18,858.62,1.0,1,FIX
622100,1527.67,859.84,1.0,1,FIX
637200,1524.91,858.86,1.0,1,FIX
652200,1514.68,857.47,1.0,1,FIX
675200,1519.2,858.9,1.0,1,FIX
689800,1544.62,860.3,1.0,1,FIX
704800,1512.72,861.98,1.0,1,FIX
720100,1502.24,866.43,1.0,1,FIX
735100,1538.99,863.02,1.0,1,FIX
750700,1545.15,866.06,1.0,1,FIX
764700,1480.85,865.11,1.0,1,FIX
787300,1470.18,863.59,1.0,1,FIX
802200,1509.95,861.34,1.0,1,FIX
816200,1485.3,867.07,1.0,1,FIX
830200,1537.52,864.66,1.0,1,FIX
860300,1482.58,857.43,1.0,2,FIX
882500,1487.09,854.93,1.0,1,FIX
911800,1542.56,855.35,1.0,1,FIX
927500,1614.52,836.03,1.0,1,FIX
942200,1544.67,866.53,1.0,1,FIX
956300,1529.09,862.84,1.0,1,FIX
978800,1530.37,868.7,1.0,1,FIX
993200,1590.6,857.2,1.0,1,FIX
1008700,1570.41,848.18,1.0,1,FIX
1024200,1528.98,871.42,1.0,1,FIX
1038700,1564.45,863.76,1.0,1,FIX
1053200,1549.58,859.93,1.0,1,FIX
1068200,1541.11,859.12,1.0,1,FIX
1090400,1564.7,857.47,1.0,1,FIX
1105300,1600.86,837.92,1.0,1,FIX
1119200,1589.63,844.48,1.0,1,FIX
1134400,1560.06,856.06,1.0,1,FIX
1149500,1592.59,854.52,1.0,1,FIX
1164600,1546.93,861.62,1.0,1,FIX
1180100,1559.31,856.54,1.0,1,FIX
1202200,1532.14,860.56,1.0,1,FIX
1231700,1535.92,865.04,1.0,1,FIX
1246700,1563.71,861.18,1.0,1,FIX
1283300,1539.49,861.97,1.0,1,FIX
1298600,1538.96,854.79,1.0,1,FIX
1313500,1560.59,860.86,1.0,1,FIX
1328300,1549.81,859.86,1.0,1,FIX
1342800,1565.65,853.57,1.0,1,FIX
1358200,1586.33,851.0,1.0,2,SACCADE
1373000,1587.57,840.35,1.0,2,SACCADE
1395200,1548.02,858.23,1.0,2,SACCADE
1409100,1462.08,865.37,1.0,1,SACCADE
1423700,1591.19,864.6,1.0,1,FIX
