%@metadata width_px 1920.0
%@metadata height_px 1080.0
%@metadata width_mm 540.0
%@metadata height_mm 254.0
%@metadata distance_mm 620.0
% The number after speed, direction denotes the step size that was used for the calculation.
% Acceleration was calculated between two adjacent samples of the already low pass filtered velocity
@RELATION gaze_labels

@ATTRIBUTE time INTEGER
@ATTRIBUTE x NUMERIC
@ATTRIBUTE y NUMERIC
@ATTRIBUTE confidence NUMERIC
@ATTRIBUTE handlabeller_final INTEGER
@ATTRIBUTE EYE_MOVEMENT_TYPE {UNKNOWN, FIX, SACCADE, SP, NOISE, BLINK, NOISE_CLUSTER, PSO}

@DATA
0,554.97,851.96,1.0,1,FIX
14000,647.39,849.49,1.0,1,FIX
29000,652.04,845.59,1.0,1,FIX
43500,542.75,853.09,1.0,1,FIX
80300,504.03,857.14,1.0,1,FIX
94800,532.09,852.87,1.0,1,FIX
124300,627.73,846.48,1.0,1,FIX
138700,583.07,847.09,1.0,1,FIX
161100,666.78,846.17,1.0,1,FIX
175700,623.33,846.71,1.0,2,SACCADE
190300,627.32,845.59,1.0,2,SACCADE
205600,640.01,845.92,1.0,3,SACCADE
220100,716.22,856.15,1.0,1,SP
234800,756.11,860.09,1.0,1,FIX
256500,805.32,855.27,1.0,1,FIX
270600,810.87,853.94,1.0,1,FIX
285000,850.53,856.7,1.0,1,FIX
300100,845.99,857.73,1.0,1,FIX
321500,834.78,855.87,1.0,1,FIX
336100,887.26,847.84,1.0,1,FIX
350600,867.86,853.73,1.0,1,FIX
366300,848.84,852.4,1.0,1,FIX
380200,816.33,852.78,1.0,1,FIX
394800,839.27,858.77,1.0,1,FIX
416600,848.41,849.57,1.0,1,FIX
446900,885.16,851.47,1.0,1,FIX
461500,858.91,846.53,1.0,2,FIX
476900,792.37,853.87,1.0,2,FIX
513000,929.18,851.8,1.0,1,FIX
527600,824.42,866.49,1.0,1,FIX
542600,767.99,865.31,1.0,1,FIX
557700,799.55,864.99,1.0,1,FIX
572000,806.27,872.92,1.0,1,FIX
586900,809.31,868.49,1.0,1,FIX
608000,792.62,866.38,1.0,1,FIX
623000,817.24,860.56,1.0,1,FIX
638500,780.44,865.69,1.0,1,FIX
667600,864.62,870.51,1.0,1,FIX
689000,823.67,863.06,1.0,1,FIX
704200,808.72,860.91,1.0,1,FIX
718600,785.29,872.36,1.0,1,FIX
733200,833.53,856.39,1.0,1,FIX
748200,829.34,864.58,1.0,2,FIX
763200,815.38,863.27,1.0,2,SACCADE
785800,804.08,865.25,1.0,1,SACCADE
801300,826.65,855.44,1.0,1,SACCADE
831500,936.56,841.7,1.0,1,FIX
845900,936.99,849.88,1.0,1,FIX
874800,913.57,846.58,1.0,1,FIX
896600,949.27,842.2,1.0,1,FIX
910600,898.63,851.9,1.0,1,FIX
925500,922.38,847.09,1.0,1,FIX
940100,910.4,850.33,1.0,1,FIX
962200,903.3,853.24,1.0,1,FIX
977600,899.35,856.27,1.0,1,FIX
992600,911.05,844.31,1.0,1,FIX
1007600,935.52,842.63,1.0,1,FIX
1022000,930.5,843.23,1.0,1,FIX
1037200,942.31,827.64,1.0,1,FIX
1051700,942.31,827.64,1.0,1,FIX
1074300,937.92,839.86,1.0,1,FIX
1088800,940.65,835.59,1.0,1,FIX
