@RELATION gaze_labels

%@METADATA width_px 1920
%@METADATA height_px 1080
%@METADATA width_mm 540.00
%@METADATA height_mm 254.00
%@METADATA distance_mm 620.00


@ATTRIBUTE time INTEGER
@ATTRIBUTE x NUMERIC
@ATTRIBUTE y NUMERIC
@ATTRIBUTE confidence NUMERIC
@ATTRIBUTE handlabeller1 INTEGER
@ATTRIBUTE handlabeller2 INTEGER
@ATTRIBUTE handlabeller_final INTEGER
@ATTRIBUTE speed_1 numeric
@ATTRIBUTE direction_1 numeric
@ATTRIBUTE acceleration_1 numeric
@ATTRIBUTE speed_2 numeric
@ATTRIBUTE direction_2 numeric
@ATTRIBUTE acceleration_2 numeric
@ATTRIBUTE speed_4 numeric
@ATTRIBUTE direction_4 numeric
@ATTRIBUTE acceleration_4 numeric
@ATTRIBUTE speed_8 numeric
@ATTRIBUTE direction_8 numeric
@ATTRIBUTE acceleration_8 numeric
@ATTRIBUTE speed_16 numeric
@ATTRIBUTE direction_16 numeric
@ATTRIBUTE acceleration_16 numeric

%The number after speed, direction denotes the step size that was used for the calculation.
%Acceleration was calculated between two adjacent samples of the already low pass filtered velocity

@DATA
0,-17.20,715.79,1.00,1,1,1,0.00,0.00,0.00,857.72,-1.65,0.00,409.55,-1.29,0.00,403.94,-0.78,0.00,90.47,-1.23,0.00
14200,-18.13,703.64,1.00,1,1,1,857.72,-1.65,60402.87,409.55,-1.29,34801.02,382.70,-0.63,18406.87,228.36,-0.54,13449.33,92.48,0.23,8625.62
50200,-11.59,696.01,1.00,1,1,1,279.33,-0.86,19141.64,382.70,-0.63,7260.49,403.94,-0.78,1833.36,55.11,0.46,5660.45,126.11,0.75,1808.09
64600,-2.49,692.35,1.00,1,1,1,680.65,-0.38,31369.80,598.18,-0.16,21417.66,228.36,-0.54,13262.53,119.14,2.00,9012.93,111.13,0.88,1482.16
78900,5.36,693.27,1.00,1,1,1,552.99,0.12,22980.01,75.46,1.67,43481.74,55.11,0.46,14250.08,90.47,-1.23,14642.21,78.23,1.44,4268.21
92800,-2.70,694.47,1.00,1,1,1,586.51,2.99,81266.16,407.94,2.84,27680.92,119.14,2.00,9337.14,92.48,0.23,8811.79,84.12,0.92,3015.84
114300,-8.42,697.58,1.00,1,1,1,302.79,2.64,14859.26,157.45,2.12,14276.01,324.97,2.63,11116.06,126.11,0.75,3027.49,119.15,0.68,1976.25
129100,-5.70,699.33,1.00,1,1,1,218.64,0.57,30436.56,256.48,2.22,6807.09,156.89,1.66,18201.22,111.13,0.88,1442.10,191.47,0.31,6174.22
143400,-12.91,703.54,1.00,1,1,1,583.55,2.61,49627.52,179.75,1.33,13931.89,184.97,0.82,9871.88,78.23,1.44,4268.21,157.15,-0.21,6650.13
173200,-3.82,707.03,1.00,1,1,1,326.72,0.37,27787.30,300.15,0.33,8519.41,179.64,0.39,2644.45,84.12,0.92,1406.72,169.01,-0.08,778.44
194800,1.70,708.50,1.00,1,1,1,264.44,0.26,3232.88,319.01,-0.19,7319.41,243.71,0.05,4397.29,119.15,0.68,1967.11,120.21,0.05,2420.16
210200,7.78,704.86,1.00,1,1,1,460.28,-0.54,21740.10,217.59,-0.65,10313.89,134.86,-0.30,8208.77,191.47,0.31,5933.67,72.22,-0.04,3163.26
224500,6.83,704.57,1.00,1,1,1,69.42,-2.85,35634.25,103.88,-2.97,20853.45,47.49,-0.15,6171.69,275.60,0.07,7019.13,50.17,-0.40,2140.23
239800,4.75,704.34,1.00,1,1,1,136.85,-3.03,4561.01,143.89,2.16,9066.43,209.62,0.22,10862.81,269.00,-0.21,5067.40,91.12,-0.28,2723.73
253900,4.47,708.08,1.00,1,1,1,266.07,1.64,21527.10,535.11,0.21,42807.44,315.03,0.09,7825.03,167.99,-0.48,8203.93,140.96,-0.08,3874.06
268300,19.66,707.51,1.00,1,1,1,1055.69,-0.04,77556.98,633.23,-0.07,13127.75,406.60,-0.18,9287.83,113.80,-0.87,5283.35,148.98,-0.08,556.54
290300,27.47,706.49,1.00,1,1,1,357.72,-0.13,31830.73,373.01,-0.62,16802.10,258.01,-0.52,8397.72,132.76,-0.93,939.85,186.77,-0.03,1770.99
305100,30.87,699.57,1.00,1,1,1,520.46,-1.11,29652.10,225.67,-2.08,27970.48,166.75,-1.60,15695.03,163.78,-0.74,2869.94,207.03,-0.15,2181.64
334900,22.60,697.68,1.00,1,1,1,284.64,-2.92,21744.17,239.79,-2.54,3598.11,216.55,-1.96,2823.62,196.23,-0.43,2157.62,193.35,-0.22,620.42
364500,19.15,691.47,1.00,1,1,1,239.79,-2.08,7339.12,211.05,-1.86,5172.25,152.42,-2.05,2230.07,139.51,-0.50,1956.00,107.16,-0.24,2914.59
385900,19.58,687.35,1.00,1,1,1,193.94,-1.47,6429.43,194.95,-0.76,9926.14,145.82,-0.28,10777.13,115.54,-0.22,1961.57,94.40,-0.10,904.54
400200,24.21,686.70,1.00,1,1,1,327.08,-0.14,23620.29,402.79,0.38,25633.14,269.34,0.17,10620.51,161.04,-0.08,3463.79,241.10,-0.14,10270.00
429400,35.84,693.87,1.00,1,1,1,467.92,0.55,10284.61,392.42,0.45,1043.96,394.04,0.49,5548.50,224.00,-0.04,2168.70,494.92,-0.15,8693.64
450800,42.06,695.39,1.00,1,1,1,299.25,0.24,9567.68,389.73,0.62,3095.95,455.54,0.30,4748.38,142.37,0.28,4691.84,747.96,-0.14,11827.82
465200,47.17,702.00,1.00,1,1,1,580.40,0.91,27293.92,583.37,0.11,21416.76,347.49,0.10,9270.15,149.29,0.74,4549.38,987.49,-0.11,16717.16
479900,58.93,697.32,1.00,1,1,1,860.57,-0.38,60921.32,432.61,-0.49,22750.26,64.82,2.63,27360.54,372.66,0.14,17895.80,1066.01,-0.08,5923.44
494200,58.25,696.11,1.00,1,1,1,97.46,-2.08,61437.74,705.84,-3.14,77336.74,178.82,-3.12,8901.02,868.40,-0.08,35710.50,1121.67,-0.06,4209.33
508400,38.81,697.23,1.00,1,1,1,1371.07,3.08,93762.91,649.94,2.90,12546.21,291.67,-0.17,32990.94,1567.74,-0.10,49283.39,1174.46,-0.05,3823.54
530200,35.55,701.80,1.00,2,2,2,257.42,2.19,56251.99,1072.74,-0.08,78771.83,1296.28,-0.12,46110.66,2039.41,-0.11,21641.24,1186.31,-0.04,643.99
544600,77.51,694.07,1.00,2,2,2,2963.09,-0.18,218967.26,2888.67,-0.14,126312.68,2739.31,-0.11,100217.37,2157.72,-0.08,9269.05,1134.92,-0.03,3713.94
574100,161.11,684.03,1.00,3,3,3,2854.22,-0.12,7190.25,4117.06,-0.11,41763.90,3838.40,-0.10,37263.25,2100.46,-0.06,2389.15,1115.78,-0.04,757.55
588400,256.69,673.71,1.00,1,1,1,6722.44,-0.11,270530.22,4994.69,-0.07,62598.20,3664.30,-0.07,14635.52,2194.86,-0.07,6714.18,1267.76,-0.04,10630.78
610300,341.42,670.60,1.00,1,1,1,3871.70,-0.04,131216.36,3131.04,-0.00,86055.04,3075.22,-0.03,27705.29,2305.55,-0.09,5450.39,1415.44,-0.04,6747.46
624800,370.66,673.32,1.00,1,1,1,2024.94,0.09,129778.10,816.23,0.33,163693.36,1550.82,0.02,105404.03,1928.41,-0.06,26307.72,1652.90,-0.02,16618.76
640300,364.61,678.45,1.00,1,1,1,511.61,2.44,155507.33,360.18,2.89,73188.72,253.24,0.25,84210.08,1388.79,-0.01,35230.68,1712.25,0.00,4253.73
655100,360.10,676.08,1.00,1,1,1,344.57,-2.66,33700.40,325.18,-2.69,16130.65,411.55,2.94,43829.19,962.58,0.07,29368.45,1824.23,0.02,7755.39
669700,356.00,674.31,1.00,1,1,1,305.99,-2.73,3126.71,465.53,2.98,18739.20,318.60,2.94,6365.95,782.79,0.13,12877.26,1839.04,0.01,1391.24
684400,346.64,678.32,1.00,1,1,1,692.43,2.74,36121.44,401.02,2.53,13858.30,366.13,0.26,45353.38,1142.63,0.10,24539.52,1716.52,0.02,8409.47
705900,344.15,682.70,1.00,2,2,2,234.22,2.09,24416.24,1029.07,0.10,63099.33,1176.54,0.11,37955.18,1368.22,0.08,10559.79,1571.73,0.05,7307.71
720000,383.08,682.12,1.00,2,2,2,2761.48,-0.01,204792.26,2401.10,0.02,97759.71,2282.20,0.06,78617.46,1501.24,0.12,10311.07,1306.04,0.10,19479.66
749900,449.78,684.75,1.00,1,1,1,2232.36,0.04,18261.29,3278.86,0.05,29516.45,2517.52,0.06,7878.25,1454.77,0.14,1675.98,1042.49,0.15,9027.05
764800,529.78,689.77,1.00,1,1,1,5379.55,0.06,211289.37,2619.51,0.09,44815.59,2272.66,0.11,18361.93,1541.40,0.10,6892.39,925.53,0.18,7990.94
801500,584.42,696.65,1.00,1,1,1,1500.69,0.13,105801.69,1403.05,0.23,33919.16,1732.59,0.15,14909.69,1726.58,0.09,5049.73,892.98,0.12,1620.66
815800,599.51,705.81,1.00,1,1,1,1234.51,0.55,43866.68,343.84,1.24,87891.66,799.28,0.21,65411.16,1566.05,0.12,11577.40,755.78,0.11,9615.03
830400,587.61,706.06,1.00,1,1,1,814.95,3.12,135019.43,281.31,-2.76,38968.20,561.47,0.35,17491.41,1271.35,0.16,20657.84,847.01,0.08,6398.01
844400,592.05,702.79,1.00,1,1,1,393.42,-0.63,82784.61,877.77,0.09,82129.52,704.47,0.16,13144.68,747.37,0.27,38122.45,1324.49,0.04,34265.38
865300,618.13,708.77,1.00,1,1,1,1280.07,0.23,50994.23,1265.97,0.19,19250.90,796.33,0.19,4526.50,362.76,0.28,18405.45,1934.19,0.03,29176.39
894300,654.10,714.66,1.00,1,1,1,1256.87,0.16,2865.21,737.81,0.29,18517.11,702.12,0.34,4944.32,86.22,-2.76,15469.53,2430.90,0.05,17153.88
908500,648.68,717.87,1.00,1,1,1,443.49,2.61,114247.32,267.22,2.16,60259.49,205.31,0.15,35354.79,184.43,-0.39,17829.33,2717.63,0.04,20208.45
930000,648.80,722.60,1.00,1,1,1,219.97,1.55,18023.18,444.95,-2.71,22457.04,1047.60,-2.94,58261.87,1100.57,-0.05,43219.18,2260.30,0.04,21271.32
944400,634.20,711.12,1.00,1,1,1,1289.55,-2.48,99990.31,2250.46,-2.80,125563.09,664.48,-2.61,32876.28,2170.84,-0.02,74385.48,1842.72,0.01,29457.65
958600,588.10,701.18,1.00,2,2,2,3320.84,-2.93,157356.86,945.50,-2.55,95585.89,1729.79,-0.25,158423.39,3604.50,0.01,101068.56,1503.78,-0.05,24766.38
972900,611.89,696.00,1.00,2,2,2,1702.89,-0.21,344173.80,4689.68,-0.04,383304.17,4577.35,-0.03,203800.97,4501.69,0.00,62752.19,1340.55,-0.10,12435.23
994700,757.29,695.12,1.00,3,3,3,6669.64,-0.01,230091.88,8796.36,0.02,189155.34,8182.06,0.03,166128.96,4208.08,-0.01,13591.80,1360.91,-0.09,1238.39
1009100,930.24,703.08,1.00,1,1,1,12023.42,0.05,373198.78,12548.00,0.06,262026.03,9510.84,0.04,92355.07,3325.53,-0.02,61420.69,1318.65,-0.08,2981.90
1023700,1120.51,717.14,1.00,1,1,1,13067.78,0.07,75390.38,10401.84,0.05,147193.03,6713.49,0.05,191802.77,2931.00,-0.04,27226.35,1290.44,-0.06,3018.58
1038200,1232.55,718.47,1.00,1,1,1,7726.84,0.01,370829.38,2092.47,0.01,573188.87,2305.52,-0.02,304595.29,2344.42,-0.08,41138.30,1393.74,-0.04,7360.07
1060300,1197.09,718.15,1.00,1,1,1,1604.31,-3.13,422223.67,2400.14,-2.99,202774.00,824.04,-2.68,138486.76,1610.30,-0.11,33343.14,1419.68,-0.03,1187.14
1088500,1113.27,699.79,1.00,1,1,1,3042.77,-2.93,53504.35,2642.39,-2.90,11280.01,2404.37,-2.92,57256.29,619.65,-0.27,35548.88,1427.63,-0.03,426.31
1116900,1051.72,683.00,1.00,1,1,1,2246.48,-2.88,28424.90,2420.46,-2.85,9352.20,2107.94,-2.87,11021.22,414.71,-2.80,34838.55,1569.19,-0.02,4988.12
1138200,998.17,664.82,1.00,1,1,1,2655.04,-2.81,20410.72,1267.80,-2.76,54538.04,910.15,-2.84,56268.33,878.13,-3.04,22755.55,1372.74,-0.03,9253.70
1152500,1009.76,666.37,1.00,1,1,1,817.92,0.13,242037.54,847.83,0.28,147791.66,114.40,1.68,65654.79,714.65,-3.06,11504.35,772.57,-0.11,42321.44
1180900,1032.92,674.97,1.00,1,1,1,869.84,0.36,6858.96,981.01,0.57,10324.02,1124.21,0.45,38424.63,319.99,3.14,13960.26,212.42,-0.45,20306.53
1202100,1050.69,692.69,1.00,1,1,1,1183.62,0.78,25159.27,1482.64,0.56,23669.71,999.62,0.57,8525.79,87.42,0.63,18583.06,493.25,-2.82,31267.78
1216100,1077.12,702.72,1.00,1,1,1,2019.44,0.36,75484.31,1031.78,0.57,32216.20,611.37,0.69,28489.35,285.29,0.43,14318.06,711.49,-2.97,16699.13
1230800,1075.61,708.68,1.00,1,1,1,418.31,1.82,137070.74,492.00,-2.94,102132.09,195.18,-0.20,34799.49,150.10,2.98,28486.46,642.78,-2.90,5557.04
1245000,1063.19,699.85,1.00,1,1,1,1072.78,-2.52,90463.31,767.41,-2.22,36259.28,712.71,-2.68,61571.65,349.86,3.13,14275.23,391.04,-2.87,17765.49
1260600,1061.87,690.40,1.00,1,1,1,612.22,-1.71,50641.90,906.03,-2.56,20554.20,1467.59,-2.72,48482.61,602.17,-2.84,18478.45,232.74,-2.99,10399.23
1281600,1035.42,681.74,1.00,3,3,3,1325.52,-2.83,56720.45,2164.81,-2.87,63243.13,1221.84,-2.83,13502.25,514.62,-2.81,4268.05,122.24,2.91,6087.17
1295800,988.52,669.75,1.00,1,1,1,3408.73,-2.89,147035.99,1698.23,-3.01,37913.54,1247.36,-2.91,7153.93,584.96,-2.66,7498.00,182.90,3.09,4648.12
1309900,987.79,675.31,1.00,1,1,1,397.82,1.70,246708.53,342.34,3.13,96505.94,363.16,-3.03,62991.28,490.38,-2.68,6721.94,118.02,2.87,5118.03
1331000,976.47,669.95,1.00,1,1,1,593.50,-2.70,38364.59,392.89,0.17,34696.06,159.77,0.03,24765.74,532.38,-2.91,6102.19,80.28,-2.78,3365.82
1359900,1007.15,678.62,1.00,1,1,1,1103.17,0.28,58521.55,567.82,0.01,6611.05,180.39,-0.53,3303.59,504.27,-3.02,2063.49,110.27,-2.57,1255.12
1374300,1001.06,670.10,1.00,1,1,1,727.28,-2.19,120268.28,434.41,-2.16,61662.80,103.46,0.31,9386.28,214.07,-3.13,20317.22,34.93,-1.30,7311.61
1389000,1000.11,668.12,1.00,1,1,1,149.41,-2.02,39506.62,471.97,3.00,32790.49,676.47,-3.01,52964.88,89.57,0.65,19803.79,55.33,-0.01,3857.78
1410200,984.28,672.44,1.00,1,1,1,774.24,2.87,35940.26,1033.59,3.01,26494.38,588.38,-3.12,5463.32,310.09,0.27,10811.28,69.60,0.49,1576.77
1424100,964.13,672.72,1.00,1,1,1,1449.91,3.13,52270.71,694.28,-3.04,28231.81,188.44,1.61,44206.44,268.20,0.14,4027.66,246.62,0.35,12804.35
1452700,954.94,669.32,1.00,1,1,1,342.61,-2.79,39755.04,741.51,0.31,49934.05,485.57,0.26,16774.02,460.64,0.34,7173.98,559.66,0.26,11003.26
1474300,999.54,684.18,1.00,1,1,1,2176.64,0.32,116624.46,1468.36,0.20,34084.67,912.70,0.14,20139.56,487.53,0.37,1402.96,584.68,0.19,2078.89
1503500,1028.03,684.19,1.00,1,1,1,975.73,0.00,44120.55,1131.00,0.01,14344.44,1263.34,0.23,12438.70,592.83,0.28,3960.42,700.94,0.22,4036.07
1518200,1049.19,684.56,1.00,1,1,1,1439.56,0.02,31585.42,1055.01,0.26,19647.46,892.95,0.19,25342.75,841.31,0.24,17027.21,639.05,0.22,4213.76
1553200,1078.66,697.84,1.00,3,3,3,923.43,0.42,19836.74,719.85,0.45,10592.70,721.87,0.30,5526.22,1292.00,0.22,12891.43,606.89,0.24,965.09
1567200,1081.02,699.76,1.00,1,1,1,217.59,0.68,51096.53,149.83,0.80,41527.25,774.11,0.38,5487.94,1111.66,0.16,13979.07,506.17,0.23,7194.54
1581200,1081.60,700.83,1.00,1,1,1,86.94,1.08,10102.67,854.55,0.30,51896.84,1337.01,0.21,41951.69,1174.25,0.21,6194.76,494.66,0.22,1067.11
1602500,1109.87,708.57,1.00,1,1,1,1376.33,0.27,61881.61,2277.96,0.18,67232.73,1427.41,0.13,6866.70,1051.08,0.24,6034.25,411.04,0.14,4231.21
1617300,1162.45,715.86,1.00,1,1,1,3586.25,0.14,150573.67,2138.95,0.05,22283.38,1721.30,0.16,20203.56,815.66,0.15,16855.22,403.48,0.16,677.96
1631800,1172.47,711.59,1.00,1,1,1,751.53,-0.40,204634.19,1025.71,0.11,77018.60,1467.08,0.14,17706.25,541.14,0.08,19214.97,204.32,-0.10,14671.80
1646100,1191.81,719.04,1.00,1,1,1,1449.72,0.37,73455.06,828.64,0.38,22427.26,314.77,-0.09,81334.76,383.51,0.09,11027.65,56.14,-1.21,13018.67
1661100,1194.99,720.67,1.00,1,1,1,237.65,0.47,80908.93,282.10,-2.63,73926.09,180.53,-2.76,32159.82,177.23,-2.34,35388.83,215.42,-2.79,14880.41
1682500,1182.88,713.98,1.00,1,1,1,646.31,-2.64,41302.27,762.59,-2.76,22635.21,702.61,-2.91,24521.88,613.45,-2.83,21713.48,371.21,-2.90,7409.20
1711900,1159.06,706.17,1.00,1,1,1,852.60,-2.82,8470.35,1063.28,-2.97,12079.59,1341.19,-2.86,21777.49,812.17,-2.85,6769.73,310.18,-2.96,2181.38
1726300,1137.01,705.95,1.00,1,1,1,1531.63,-3.13,53016.68,2383.43,-2.92,91852.25,1360.78,-2.91,4645.15,1150.71,-2.84,23524.61,137.00,3.05,12666.79
1740400,1092.84,691.04,1.00,1,1,1,3305.99,-2.82,135453.61,1733.27,-2.86,46839.32,1608.72,-2.86,18231.98,1475.81,-2.87,23249.86,49.76,2.49,6978.94
1761700,1078.07,688.89,1.00,2,2,2,700.84,-3.00,122986.12,988.75,-2.75,35593.75,1716.52,-2.80,6979.65,1342.97,-2.94,7941.82,262.78,-3.13,10600.47
1775500,1060.76,677.82,1.00,3,3,3,1489.34,-2.57,65094.68,1704.69,-2.72,51947.08,1642.48,-2.88,10891.85,1093.35,-3.00,18852.32,362.28,-3.10,7234.05
1790200,1033.69,669.12,1.00,1,1,1,1933.85,-2.83,42397.96,2447.94,-2.94,58798.27,1326.80,-2.98,23818.40,596.43,-3.13,34507.32,566.29,-2.98,14369.73
1804500,991.22,663.52,1.00,1,1,1,2995.75,-3.01,80179.85,1169.83,3.09,94267.91,769.33,3.08,42132.66,154.42,1.40,44904.61,723.22,-3.01,11062.86
1840200,975.28,672.10,1.00,1,1,1,507.25,2.65,72868.66,296.19,1.68,32453.92,362.49,1.41,24693.67,150.51,1.51,469.31,587.20,-3.06,3921.28
1868900,989.05,682.47,1.00,1,1,1,600.63,0.65,32555.91,1452.51,0.47,47994.45,1051.73,0.47,30859.63,163.78,1.75,1364.99,220.06,3.03,13019.20
1889800,1039.50,704.75,1.00,1,1,1,2638.77,0.42,98486.14,2322.65,0.32,43737.11,1219.01,0.39,9321.96,169.67,2.42,5266.74,104.02,0.35,15154.18
1918000,1097.39,718.09,1.00,1,1,1,2106.55,0.23,24623.75,964.64,0.24,48332.07,826.72,0.35,13974.94,214.65,2.39,1607.09,413.12,0.13,11071.50
1932600,1079.60,714.57,1.00,1,1,1,1241.83,-2.95,229315.22,1182.63,-2.88,147060.44,406.15,-2.65,84247.15,218.54,0.88,20311.10,502.83,0.05,6664.16
1954600,1055.63,706.70,1.00,1,1,1,1146.89,-2.82,7885.82,1959.19,-2.79,35792.17,2058.81,-2.94,76060.07,753.22,0.29,26568.92,439.65,0.15,3563.32
1970000,1010.82,689.31,1.00,2,2,2,3121.12,-2.77,128362.04,3127.98,-2.96,80825.98,1252.48,-2.95,52395.18,883.03,0.09,13379.45,484.70,0.15,2926.05
1984700,962.98,689.95,1.00,2,2,2,3254.86,3.13,83179.81,561.99,2.52,188231.55,651.59,0.18,129528.62,932.41,-0.08,11451.20,670.93,0.15,12668.83
1999400,997.41,698.95,1.00,3,3,3,2420.77,0.26,382680.63,4643.35,0.18,343522.90,2439.57,0.17,121633.05,1156.00,-0.12,15432.53,747.91,0.10,5720.43
2013200,1093.18,713.62,1.00,1,1,1,7021.02,0.15,334788.47,4783.37,0.10,27557.03,3983.62,0.07,114334.66,1114.36,-0.07,5274.92,618.40,0.03,9990.72
2035100,1167.24,716.82,1.00,1,1,1,3384.71,0.04,167799.42,3506.80,-0.05,64692.87,3637.79,-0.01,21121.88,1240.83,0.02,7405.65,546.39,-0.13,5333.60
2049200,1219.29,707.90,1.00,1,1,1,3745.93,-0.17,59449.51,2330.90,-0.32,99777.23,1563.64,-0.16,149314.15,1701.94,0.02,32706.85,143.73,-0.77,31204.68
2063200,1229.48,696.45,1.00,1,1,1,1095.08,-0.84,212148.77,1045.85,-2.78,229403.43,412.26,-0.85,90886.13,1422.77,-0.02,20525.66,300.42,-2.89,28181.53
2077200,1191.94,697.45,1.00,1,1,1,2682.90,3.11,251719.13,823.71,-3.05,23968.07,239.31,-2.42,34067.47,545.40,-0.32,65362.28,578.39,-3.06,20538.10
2113200,1188.48,692.62,1.00,1,1,1,165.09,-2.19,72055.80,269.69,-0.14,30223.66,385.29,-3.09,6843.20,299.03,-0.85,9046.34,719.49,3.11,4400.89
2127100,1205.27,695.62,1.00,1,1,1,1227.19,0.18,97146.61,395.17,0.20,11978.41,269.54,-2.73,11732.70,671.10,-2.96,62134.88,640.07,3.09,5756.43
2141400,1199.40,694.84,1.00,1,1,1,414.20,-3.01,114761.97,985.68,-2.93,96561.65,160.85,-0.85,24714.27,1605.31,-3.13,66477.59,601.06,-3.05,6651.84
2162900,1170.77,688.21,1.00,2,2,2,1366.82,-2.91,44432.49,300.84,-1.96,39599.20,1245.88,-3.08,62811.70,1832.81,-3.13,10581.61,870.37,-3.02,12557.99
2177200,1195.27,684.89,1.00,2,2,2,1729.11,-0.13,213007.07,1600.05,3.09,106789.15,3080.37,-3.14,128516.20,2678.90,3.13,59263.57,1131.79,-3.06,18445.03
2191200,1125.56,690.73,1.00,2,2,2,4997.00,3.06,480316.96,6760.38,3.10,368602.75,3551.29,3.12,34130.16,2962.30,3.13,20246.67,1249.27,-3.09,8892.34
2206100,1000.10,693.81,1.00,3,3,3,8422.51,3.12,231334.20,4639.00,3.13,142925.50,4931.31,3.11,92656.86,2343.28,-3.11,42159.20,1167.63,-3.13,6455.93
2242000,889.91,693.64,1.00,1,1,1,3069.24,-3.14,149161.98,3881.52,3.13,21099.80,4350.86,3.12,16186.40,2181.97,-3.12,4592.84,901.10,3.12,7474.49
2256400,804.87,696.13,1.00,1,1,1,5908.16,3.11,197357.57,3840.50,3.10,9458.83,1867.56,-3.08,173300.83,2328.07,3.13,11075.88,1083.65,3.10,12729.01
2270600,780.19,698.64,1.00,1,1,1,1747.22,3.04,293475.46,339.30,-1.00,284862.56,807.40,-2.95,75420.05,1777.94,-3.14,38794.59,1397.76,3.12,22175.40
2306000,813.91,681.93,1.00,1,1,1,1063.01,-0.46,78187.38,1026.10,-0.34,22265.00,337.98,-0.29,31584.35,785.84,3.14,28026.22,1705.70,3.12,8700.05
2320000,828.04,681.91,1.00,1,1,1,1009.29,-0.00,33829.50,619.56,0.39,49782.75,848.03,-0.14,36913.56,192.39,0.39,69053.83,1871.15,3.13,11833.32
2334100,830.01,688.54,1.00,1,1,1,490.95,1.28,70155.03,673.50,0.41,3929.59,918.92,0.21,22015.21,524.85,0.12,24321.87,2144.21,3.14,19401.58
2348600,845.71,689.57,1.00,1,1,1,1084.87,0.07,70599.74,1165.38,0.13,37928.35,1399.40,0.25,33288.61,182.01,0.23,23757.86,1801.87,3.14,23621.78
2369900,871.38,693.97,1.00,2,2,2,1222.70,0.17,8589.76,1989.88,0.20,39058.91,799.67,0.32,28416.55,907.96,2.95,50547.16,1315.95,3.12,22844.21
2384300,915.28,703.93,1.00,2,2,2,3126.28,0.22,132389.67,466.55,0.96,116788.09,664.59,2.79,95909.56,1532.69,3.08,44616.38,955.81,3.10,25080.95
2398900,879.13,705.07,1.00,3,3,3,2477.65,3.11,380771.63,3799.93,3.14,279665.30,2661.76,3.08,139408.96,1942.39,3.14,29080.23,572.91,3.06,26290.70
2413200,805.47,704.53,1.00,1,1,1,5151.23,-3.13,187213.85,5025.86,-3.14,85783.42,3891.92,-3.12,88131.96,1826.95,3.14,8094.57,380.26,3.03,13525.23
2434700,699.20,704.25,1.00,1,1,1,4942.50,-3.14,9770.97,3947.06,-3.10,50800.24,4188.14,-3.09,14537.17,1922.49,3.12,4749.15,560.51,2.95,8533.01
2462900,609.48,696.12,1.00,1,1,1,3194.78,-3.05,63195.02,3489.00,-3.04,18239.51,2738.01,-3.08,51431.70,2084.34,3.14,5930.89,627.35,2.98,2435.54
2477000,552.45,688.64,1.00,1,1,1,4079.43,-3.01,63571.66,1077.25,-3.01,171091.85,1315.17,-3.11,100956.80,1663.68,3.13,29879.89,601.81,3.04,3298.47
2499000,570.94,690.90,1.00,1,1,1,846.93,0.12,223924.25,1255.37,0.27,105796.86,185.90,0.82,66043.39,907.64,3.09,34418.70,659.98,3.05,2658.65
2513100,596.16,700.60,1.00,1,1,1,1916.20,0.37,78999.11,1734.22,0.29,34044.72,1426.46,0.22,90566.60,247.18,2.97,47029.64,715.84,3.10,4480.65
2527100,617.64,704.82,1.00,1,1,1,1563.84,0.19,33004.70,1648.10,0.18,15073.21,1579.08,0.20,11055.88,403.95,0.26,45494.29,934.64,-3.13,16007.41
2541400,642.08,708.75,1.00,1,1,1,1731.07,0.16,12362.67,1467.06,0.12,13875.93,1073.23,0.14,35809.77,747.26,0.16,24307.66,926.21,-3.09,2438.07
2562900,669.76,711.29,1.00,1,1,1,1292.85,0.09,20921.72,623.56,0.07,39297.25,656.39,0.11,19439.56,587.49,0.19,7496.74,731.11,-3.09,9075.01
2577400,664.47,710.39,1.00,1,1,1,370.26,-2.97,114636.26,352.47,-2.95,67193.87,210.56,-0.20,31721.08,385.49,0.05,14637.03,456.68,-3.04,19044.27
2591700,659.81,709.31,1.00,1,1,1,334.71,-2.92,2839.21,180.60,-2.46,14740.13,219.26,-2.87,29227.06,109.43,-0.28,19871.14,201.24,-3.07,17878.17
2620600,658.43,705.45,1.00,1,1,1,141.93,-1.91,9849.86,143.63,-2.76,2124.61,110.44,-2.44,4407.17,309.24,-2.78,13931.07,50.62,-0.16,8677.68
2641500,653.16,706.67,1.00,1,1,1,258.62,2.91,13409.37,49.41,-2.39,4747.18,291.05,-2.80,9155.43,575.59,-2.94,13109.75,52.92,-2.05,4012.57
2670200,656.64,703.78,1.00,1,1,1,157.37,-0.69,14125.46,459.94,-2.81,14467.86,763.37,-2.92,16579.07,657.16,-2.94,2844.81,83.83,-1.72,1311.00
2685000,634.26,700.10,1.00,1,1,1,1532.04,-2.98,110775.26,1735.00,-2.94,86507.55,926.72,-2.95,11202.06,689.74,-2.98,2890.64,102.77,-0.76,5935.30
2707000,594.12,690.81,1.00,1,1,1,1872.93,-2.91,16270.62,1492.33,-3.00,12081.50,1452.91,-2.99,24020.46,649.42,-2.94,2329.72,130.46,-0.66,1371.22
2721400,580.45,692.67,1.00,1,1,1,957.91,3.01,71868.13,1101.93,-3.11,28628.57,1269.05,-3.04,13630.12,645.85,-2.82,5011.88,115.41,-0.55,1420.00
2735700,562.51,689.73,1.00,1,1,1,1271.20,-2.98,31678.55,992.12,-3.12,7725.64,479.43,-2.98,55334.51,530.88,-2.74,8709.07,91.54,-1.01,3712.38
2750300,551.79,692.03,1.00,1,1,1,751.28,2.93,43411.00,189.77,-0.67,78395.01,343.68,-2.39,18519.58,126.19,-1.28,36497.74,80.95,-1.71,4095.33
2764700,566.82,686.31,1.00,1,1,1,1117.16,-0.36,129390.60,520.42,-0.88,23404.53,497.00,-0.41,49217.14,578.08,-0.08,37821.57,57.18,-1.37,2314.61
2786900,563.94,677.37,1.00,3,3,3,423.43,-1.88,52885.50,745.83,-0.36,17651.34,1333.90,-0.09,39485.80,826.19,0.00,11471.86,155.54,-0.29,6200.05
2801400,592.46,676.71,1.00,1,1,1,1967.07,-0.02,146670.30,2593.02,0.09,134393.25,1336.11,-0.02,6578.67,807.87,-0.02,2028.29,64.03,-0.69,6872.88
2816000,639.08,684.29,1.00,1,1,1,3235.25,0.16,92473.17,1888.68,0.10,48246.23,1735.14,0.12,30622.74,726.98,-0.07,5966.53,100.77,3.05,10814.00
2844400,673.30,684.50,1.00,1,1,1,1204.80,0.01,72298.11,1232.78,0.14,23242.83,1108.89,0.12,22051.23,657.98,0.03,3407.27,416.71,3.12,11135.72
2865600,699.59,693.10,1.00,1,1,1,1304.88,0.32,18863.06,176.52,0.39,50105.94,220.63,0.04,41933.61,929.47,0.12,13239.75,754.70,-3.11,16023.64
2880100,679.13,686.88,1.00,1,1,1,1474.62,-2.85,191679.56,1520.75,-2.96,116830.44,192.71,2.75,27826.18,555.24,0.20,26103.69,864.78,-3.08,7756.39
2894500,656.38,685.04,1.00,1,1,1,1584.93,-3.06,24054.83,603.90,3.00,67176.86,54.08,2.99,9775.10,260.48,2.62,53499.24,652.56,-3.07,14739.20
2909100,661.79,689.30,1.00,1,1,1,471.19,0.67,136606.47,1139.30,0.21,117728.55,166.15,2.58,8117.61,1328.09,3.09,75507.45,603.75,3.12,5056.03
2930200,696.14,693.65,1.00,2,2,2,1640.86,0.13,59743.74,255.70,0.37,42079.70,819.88,2.80,31226.09,2349.71,-3.12,48781.89,456.27,2.96,8008.50
2944200,670.14,692.58,1.00,2,2,2,1858.37,-3.10,249719.87,3150.54,3.04,241418.58,2199.60,3.12,103119.80,2398.29,-3.11,4059.66,510.55,2.97,3888.85
2958700,606.81,702.73,1.00,3,3,3,4423.57,2.98,181249.93,3906.30,3.13,56892.44,4244.40,-3.12,141417.90,1858.09,-3.12,37314.16,730.24,3.10,16122.64
2994300,474.44,693.95,1.00,1,1,1,3726.31,-3.08,32237.61,4890.18,-3.07,29289.79,3954.08,-3.09,8723.09,1710.11,3.14,4337.32,1023.82,-3.11,8416.09
3008500,363.91,685.20,1.00,1,1,1,7808.40,-3.06,287512.50,4026.61,-3.02,62577.09,2563.87,-3.05,98358.76,1692.20,3.11,3479.09,1086.77,-3.09,4792.63
3037400,302.13,673.31,1.00,1,1,1,2177.00,-2.95,195500.99,291.99,-2.67,129908.80,1186.53,-3.10,47772.54,1446.38,3.10,8537.96,1021.36,-3.12,2624.85
3059000,350.80,678.45,1.00,1,1,1,2265.92,0.11,205505.23,2203.33,0.21,115112.47,835.12,0.25,93092.99,1184.15,-3.09,13492.67,851.09,3.13,7971.62
3073700,380.31,690.19,1.00,1,1,1,2160.30,0.38,41670.58,2760.75,0.29,40135.29,2158.92,0.21,90134.38,719.93,-2.96,32589.98,827.11,3.12,1715.40
3088400,428.55,701.74,1.00,1,1,1,3374.81,0.23,86731.05,2103.94,0.20,46919.25,1195.58,0.21,65534.04,84.95,-0.86,52113.12,979.61,3.14,10420.30
3103000,440.68,702.66,1.00,1,1,1,832.83,0.08,175062.71,449.52,-2.38,170955.69,261.97,-2.06,94384.97,488.60,0.11,30579.86,932.19,-3.12,3641.68
3117400,419.15,692.71,1.00,1,1,1,1646.90,-2.71,169762.37,2074.69,-2.76,115712.01,789.60,-2.70,41616.93,305.86,0.20,12925.27,619.20,-3.05,22046.73
3138500,372.33,675.20,1.00,1,1,1,2368.79,-2.78,34926.48,1005.47,-2.78,50688.32,924.71,-2.84,8613.31,188.43,0.14,5616.58,188.92,-2.90,20525.65
3166900,372.65,674.97,1.00,1,1,1,13.69,-0.64,83671.72,138.20,1.65,37061.72,301.86,-2.93,21998.12,199.27,-2.87,13621.29,228.88,-0.01,14595.66
3181000,371.86,681.05,1.00,1,1,1,435.19,1.70,31544.88,682.66,0.52,45084.05,501.63,0.49,56460.77,379.03,-2.83,12777.96,446.49,0.15,15862.01
3202900,393.92,687.28,1.00,1,1,1,1046.50,0.27,49000.54,1037.86,0.35,17575.43,531.90,0.59,2763.82,54.57,-1.88,15987.47,181.57,0.52,13013.20
3217100,407.08,693.84,1.00,2,2,2,1035.61,0.46,13746.32,348.69,0.77,51616.02,279.97,0.28,19702.32,347.79,0.12,26321.20,188.43,0.14,4979.96
3231400,401.08,694.17,1.00,3,3,3,420.14,3.09,99029.90,683.10,-2.73,71157.28,356.41,-0.10,9917.82,424.91,0.15,5455.53,199.27,-2.87,27052.07
3245600,389.26,686.01,1.00,1,1,1,1011.79,-2.54,51171.32,507.92,-0.54,74817.26,300.27,-0.71,14384.83,405.07,0.19,1822.37,379.03,-2.83,12687.97
3267100,416.68,684.92,1.00,1,1,1,1276.44,-0.04,101039.13,913.82,-0.15,22484.59,422.29,-0.30,8824.54,119.43,1.33,17275.18,54.57,-1.88,16284.91
3281500,421.71,681.19,1.00,1,1,1,434.81,-0.64,65930.66,375.97,-0.04,37584.64,508.72,0.15,15707.41,300.27,-0.71,25717.84,347.79,0.12,25955.63
3310800,433.09,684.19,1.00,1,1,1,401.85,0.26,12410.56,304.54,0.99,11646.70,294.88,2.30,24327.77,422.29,-0.30,6475.34,424.91,0.15,2662.59
3324500,428.93,692.12,1.00,1,1,1,653.43,2.05,61342.48,817.09,2.59,64301.69,304.54,0.99,26632.02,508.72,0.15,16509.98,405.07,0.19,1888.88
3360700,398.38,705.59,1.00,1,1,1,922.13,2.73,15958.10,922.13,2.73,4381.28,817.09,2.59,24335.17,294.88,2.30,19690.71,119.43,1.33,10260.12
