@RELATION gaze_labels

%@METADATA width_px 1920
%@METADATA height_px 1080
%@METADATA width_mm 540.00
%@METADATA height_mm 254.00
%@METADATA distance_mm 620.00


@ATTRIBUTE time INTEGER
@ATTRIBUTE x NUMERIC
@ATTRIBUTE y NUMERIC
@ATTRIBUTE confidence NUMERIC
@ATTRIBUTE handlabeller1 INTEGER
@ATTRIBUTE handlabeller2 INTEGER
@ATTRIBUTE handlabeller_final INTEGER
@ATTRIBUTE speed_1 numeric
@ATTRIBUTE direction_1 numeric
@ATTRIBUTE acceleration_1 numeric
@ATTRIBUTE speed_2 numeric
@ATTRIBUTE direction_2 numeric
@ATTRIBUTE acceleration_2 numeric
@ATTRIBUTE speed_4 numeric
@ATTRIBUTE direction_4 numeric
@ATTRIBUTE acceleration_4 numeric
@ATTRIBUTE speed_8 numeric
@ATTRIBUTE direction_8 numeric
@ATTRIBUTE acceleration_8 numeric
@ATTRIBUTE speed_16 numeric
@ATTRIBUTE direction_16 numeric
@ATTRIBUTE acceleration_16 numeric

%The number after speed, direction denotes the step size that was used for the calculation.
%Acceleration was calculated between two adjacent samples of the already low pass filtered velocity

@DATA
0,-89.48,726.56,1.00,1,1,1,0.00,0.00,0.00,2114.81,-0.38,0.00,1542.19,-0.43,0.00,360.18,-0.79,0.00,301.47,-0.88,0.00
21900,-46.40,709.54,1.00,1,1,1,2114.81,-0.38,96566.69,1542.19,-0.43,26499.21,297.48,-2.32,75854.00,433.35,-2.82,30770.27,133.86,-1.76,10916.11
36100,-38.84,703.42,1.00,1,1,1,685.02,-0.68,103898.08,297.48,-2.32,116986.10,360.18,-0.79,32229.10,314.18,-2.76,8532.06,91.03,-2.38,5616.75
50200,-52.16,703.40,1.00,1,1,1,944.96,-3.14,109123.87,583.53,3.10,31812.78,433.35,-2.82,47792.12,189.12,-1.95,16305.41,72.84,-0.57,9170.26
85800,-67.82,704.51,1.00,1,1,1,440.92,3.07,14220.30,537.21,-2.97,3558.76,314.18,-2.76,3403.24,301.47,-0.88,7505.39,323.76,-0.12,7301.94
99800,-78.41,698.80,1.00,1,1,1,859.45,-2.65,38688.73,286.19,-1.39,43650.75,189.12,-1.95,16421.87,133.86,-1.76,17075.92,362.40,-0.01,3957.05
128000,-65.62,692.64,1.00,1,1,1,503.34,-0.45,43424.64,473.48,-0.58,12202.84,240.09,-1.02,6955.67,91.03,-2.38,2828.29,352.80,0.30,3912.50
148900,-58.99,686.02,1.00,1,1,1,448.30,-0.78,8021.98,240.86,-0.49,11234.61,384.37,-0.33,12036.12,72.84,-0.57,6186.64,309.39,0.47,3338.76
162900,-58.19,688.70,1.00,1,1,1,199.63,1.28,40786.74,326.24,0.34,17175.59,229.71,0.03,13481.52,323.76,-0.12,18567.79,232.93,-0.26,14712.21
177300,-50.25,689.09,1.00,1,1,1,552.66,0.05,36241.82,276.82,0.48,4477.42,314.10,0.58,11631.44,362.40,-0.01,3847.14,79.05,-0.27,10686.25
198300,-49.48,693.19,1.00,1,1,1,198.44,1.39,25825.31,318.14,0.78,4670.78,581.31,0.28,14091.00,352.80,0.30,5253.93,51.05,-0.35,1352.16
212900,-42.17,697.03,1.00,1,1,1,565.96,0.48,32173.55,968.31,0.21,49311.28,390.06,0.39,13550.42,309.39,0.47,4779.46,58.53,-0.42,584.08
226800,-22.50,699.00,1.00,1,1,1,1421.64,0.10,66296.55,531.49,0.10,31957.57,518.83,0.45,9470.39,296.27,0.48,973.04,58.74,0.00,1781.04
241400,-27.09,698.54,1.00,1,1,1,315.97,-3.04,119014.36,245.33,1.58,38747.88,308.41,0.38,14541.38,210.51,0.49,5875.92,156.58,0.11,6737.58
255800,-22.59,706.11,1.00,1,1,1,611.97,1.03,58275.40,210.34,0.78,12539.77,119.63,1.37,18228.80,179.60,0.19,4524.30,266.06,0.19,7681.72
291600,-19.60,705.98,1.00,1,1,1,83.58,-0.04,16124.62,58.80,0.82,4234.83,73.28,0.94,1701.87,44.80,-0.15,3860.96,394.10,0.14,3598.18
306000,-20.59,708.28,1.00,1,1,1,173.52,1.97,15476.89,173.66,-2.54,16065.35,94.42,-1.76,11373.18,202.56,2.95,17175.52,529.89,0.06,9772.12
320100,-23.70,703.20,1.00,1,1,1,422.45,-2.12,38417.41,298.89,-1.91,13458.93,293.63,-2.59,17036.70,44.64,2.27,12073.37,588.86,0.03,4346.53
342000,-24.15,698.12,1.00,1,1,1,232.60,-1.66,10860.72,388.29,-2.61,11443.62,475.66,-3.02,11030.18,203.54,0.03,10670.73,514.19,0.02,3417.42
356300,-35.81,696.07,1.00,1,1,1,828.24,-2.97,55943.23,968.73,2.91,51746.71,99.53,3.04,26511.30,492.97,-0.04,20299.05,505.14,-0.02,1804.56
370600,-51.09,704.58,1.00,1,1,1,1222.99,2.63,54601.64,203.19,1.09,72577.22,457.11,0.25,38577.95,769.63,-0.08,19422.23,433.75,-0.05,5048.49
400300,-31.64,703.98,1.00,3,3,3,655.15,-0.03,61611.14,1217.24,0.04,38002.00,1007.45,0.07,18969.67,949.48,-0.05,6092.16,414.81,-0.01,814.61
421800,11.18,707.22,1.00,1,1,1,1997.25,0.08,62680.26,1807.08,-0.01,27671.34,1611.39,-0.04,28857.49,793.30,-0.01,7505.88,387.86,-0.06,1505.08
450200,58.53,703.07,1.00,1,1,1,1673.66,-0.09,15480.36,2079.77,-0.09,11114.45,2004.98,-0.06,13907.64,885.04,-0.02,3246.18,417.33,-0.02,1128.98
465600,101.88,698.85,1.00,1,1,1,2828.77,-0.10,75020.43,2343.66,-0.12,17452.42,1096.16,-0.10,59151.30,957.83,-0.07,5719.40,411.55,-0.05,786.44
480000,127.90,695.05,1.00,1,1,1,1826.15,-0.14,70033.52,238.19,-0.14,146218.92,754.19,-0.16,24092.55,839.49,-0.05,8335.84,424.53,-0.01,1423.94
515800,113.72,697.17,1.00,1,1,1,400.55,2.99,62198.18,198.81,-2.97,12059.46,186.13,-0.43,16119.81,581.17,-0.09,7253.74,558.69,0.00,3751.08
530200,118.07,693.34,1.00,1,1,1,402.46,-0.72,53487.06,165.01,-1.25,19230.22,233.43,3.04,28740.43,335.01,-0.00,17291.30,821.59,0.00,18257.11
544700,115.24,692.65,1.00,1,1,1,200.96,-2.90,37455.68,300.71,2.79,29235.07,162.03,2.95,5057.76,28.01,0.93,22011.71,1111.81,-0.04,20243.59
566600,107.79,697.11,1.00,1,1,1,396.27,2.60,13237.22,373.42,2.64,4022.41,220.77,2.41,5322.40,164.39,2.86,8038.35,1340.05,-0.03,10459.17
581000,103.35,699.15,1.00,1,1,1,339.96,2.71,4805.69,201.64,1.66,21553.62,222.05,2.43,261.13,243.01,0.03,27944.13,1278.20,-0.04,4360.78
595700,107.27,702.96,1.00,1,1,1,371.74,0.77,39979.53,107.10,1.26,7563.93,92.13,2.08,9463.64,744.94,0.03,34145.01,1106.83,-0.01,11860.13
609800,104.29,702.09,1.00,1,1,1,220.07,-2.86,40818.02,85.24,-2.60,12794.10,653.23,-0.02,49958.99,1291.92,-0.02,38953.03,898.77,0.02,14928.18
623800,105.22,701.71,1.00,2,2,2,71.89,-0.38,20005.65,1167.17,-0.09,88326.54,1515.47,-0.05,61631.02,1927.85,-0.02,45424.78,799.07,0.03,7124.10
644900,145.08,698.24,1.00,2,2,2,1895.94,-0.09,86603.75,2417.67,-0.04,59405.59,2422.82,-0.07,43014.10,2059.67,-0.02,6253.65,872.02,-0.03,4175.55
673200,224.55,696.61,1.00,1,1,1,2808.72,-0.02,32701.73,3317.23,-0.06,31823.02,3264.68,-0.03,29909.06,1897.68,-0.01,5763.10,813.63,-0.04,2066.80
694200,308.34,688.78,1.00,1,1,1,4007.64,-0.09,58259.05,4457.00,-0.03,54565.20,3207.45,-0.02,3452.45,1791.64,0.01,5369.32,727.02,-0.06,4199.60
708300,380.93,692.35,1.00,1,1,1,5154.29,0.05,93361.81,3032.32,0.05,103029.95,2359.94,0.02,60682.45,1720.12,-0.00,5309.28,995.18,-0.03,19093.18
723200,396.17,693.18,1.00,1,1,1,1024.29,0.05,277182.29,298.18,2.07,212984.22,921.91,0.30,100349.95,1443.27,-0.04,19087.53,1294.06,0.01,20253.85
737700,376.72,700.04,1.00,1,1,1,1422.17,2.80,165551.56,1327.81,2.84,78104.79,320.95,2.71,81397.06,893.78,-0.10,38156.74,1676.79,0.03,26489.51
752200,359.41,704.64,1.00,1,1,1,1235.58,2.88,14809.08,415.90,3.07,64020.59,720.05,-3.06,32325.44,149.13,-0.42,51974.96,1932.76,0.04,17694.55
773100,362.04,701.04,1.00,1,1,1,213.01,-0.94,67349.29,512.11,-2.11,23591.23,637.01,-2.76,10196.30,81.89,-0.36,3234.34,2032.63,0.04,4793.88
787200,350.26,689.22,1.00,1,1,1,1183.43,-2.35,82944.88,985.91,-2.54,39940.74,467.57,-2.48,16303.41,607.55,0.08,37919.15,1887.23,0.05,10367.90
801700,338.81,685.05,1.00,1,1,1,840.01,-2.79,38071.68,478.82,-2.75,36409.18,411.23,-0.40,52227.60,1481.33,0.07,60267.17,1707.00,0.06,12470.76
837700,327.88,680.05,1.00,2,2,2,333.86,-2.71,14107.10,1052.57,0.06,42044.59,1511.45,0.09,32351.22,2055.26,0.06,15956.45,1428.66,0.09,7857.90
852300,391.98,688.23,1.00,2,2,2,4425.77,0.13,325040.09,3800.14,0.13,188427.89,2901.97,0.12,95347.39,2329.47,0.07,18899.09,1088.38,0.11,23351.02
881200,491.82,701.30,1.00,1,1,1,3484.09,0.13,32586.88,5045.81,0.13,43102.98,4674.90,0.12,61347.69,2292.52,0.10,2679.92,1074.50,0.12,616.78
896000,610.62,716.84,1.00,1,1,1,8095.38,0.13,311573.22,5720.70,0.11,46146.00,4292.64,0.12,25844.81,2375.10,0.11,5610.60,1407.99,0.09,22664.95
917600,698.78,724.29,1.00,1,1,1,4096.07,0.08,185553.57,3372.51,0.09,108799.51,3417.36,0.11,40528.54,2777.95,0.12,18702.31,1904.21,0.07,23017.73
931700,730.54,727.57,1.00,1,1,1,2264.35,0.10,129971.54,516.31,0.13,202595.73,1610.56,0.08,128285.33,2098.22,0.12,48223.25,2372.40,0.06,33248.72
946500,713.58,726.16,1.00,1,1,1,1149.54,-3.06,230658.17,546.29,-2.96,71769.72,178.65,0.05,96755.82,1641.27,0.13,30888.49,2758.21,0.07,26106.39
960900,714.85,724.69,1.00,1,1,1,134.81,-0.86,85659.43,156.96,-2.83,27156.73,567.36,-3.09,51806.20,1328.19,0.11,21888.22,2829.97,0.06,5089.66
975900,709.18,724.77,1.00,1,1,1,377.66,3.13,31849.00,591.06,3.09,29820.67,157.33,2.83,28240.12,1723.76,0.08,26472.29,2959.45,0.07,9025.32
997100,693.48,725.74,1.00,1,1,1,742.28,3.08,17241.29,196.25,2.44,21267.37,1099.96,0.14,58648.83,2419.82,0.04,33078.95,2582.35,0.08,17790.35
1011500,703.84,729.27,1.00,2,2,2,760.13,0.33,102357.25,2496.63,0.11,183077.68,2851.26,0.09,121830.65,3271.29,0.04,59135.51,2361.23,0.05,15769.58
1040700,801.72,737.27,1.00,3,3,3,3363.19,0.08,90156.91,5255.28,0.06,94617.95,4864.88,0.04,69175.26,3332.69,0.02,2556.70,1966.42,0.02,13798.58
1055800,936.17,744.18,1.00,3,3,3,8915.87,0.05,367889.99,7717.80,0.02,164243.20,6035.79,0.03,77661.43,3137.34,0.04,13205.48,1694.92,0.00,18063.52
1077000,1081.83,742.26,1.00,1,1,1,6871.32,-0.01,99337.61,7000.53,-0.00,34409.05,6060.27,-0.00,9173.32,3069.84,0.04,3304.57,1457.85,-0.02,11288.81
1091900,1188.89,744.11,1.00,1,1,1,7186.30,0.02,25559.20,4012.66,-0.05,201213.35,3498.22,-0.01,171975.70,3015.92,0.02,6354.95,1271.77,-0.01,12515.88
1106300,1199.27,736.74,1.00,1,1,1,883.94,-0.62,451072.85,911.57,-3.05,341453.52,866.74,0.05,182884.74,2685.29,-0.03,24906.97,943.23,-0.00,22820.77
1120600,1162.84,741.67,1.00,1,1,1,2570.73,3.01,236273.52,1721.79,3.01,60055.95,765.65,-3.00,114021.52,1677.85,-0.08,70759.64,772.31,-0.07,12612.78
1142100,1138.19,745.01,1.00,1,1,1,1157.14,3.01,65748.47,650.10,-2.94,52519.29,766.85,-2.93,2349.63,518.47,-0.30,54779.82,759.63,-0.07,595.08
1156200,1140.17,737.00,1.00,1,1,1,585.26,-1.33,104738.73,785.55,-0.97,84919.93,271.80,-0.82,66395.24,572.80,-2.91,74660.28,767.01,-0.07,624.75
1170800,1150.90,726.39,1.00,1,1,1,1033.42,-0.78,42109.90,889.14,-0.29,38973.55,366.52,-1.01,7717.52,1227.10,-3.08,45877.71,513.76,-0.11,17466.19
1200100,1177.59,725.88,1.00,1,1,1,910.96,-0.02,24932.30,133.29,-1.15,27603.07,446.20,-2.80,21684.14,1390.56,-2.99,6768.48,104.47,-0.69,14665.45
1222000,1153.69,720.16,1.00,3,3,3,1122.39,-2.91,92107.11,1525.86,-3.10,72158.27,1544.68,-3.13,51643.92,1351.23,-2.97,2063.75,427.07,-3.06,23175.01
1250700,1100.44,722.88,1.00,1,1,1,1857.67,3.09,29361.02,3385.18,3.12,64988.40,2933.62,-3.07,48591.44,1265.07,-3.03,3854.07,781.09,-3.10,12364.86
1266500,1003.10,724.09,1.00,1,1,1,6161.49,3.13,272519.74,5358.97,-3.05,128900.71,2854.72,-3.09,6915.60,1249.72,-3.11,6735.77,775.11,3.12,2736.06
1280100,943.55,708.44,1.00,1,1,1,4527.18,-2.88,159150.99,2229.04,-2.95,231463.33,2449.28,-3.09,29842.10,1487.44,-3.14,17665.38,636.73,-3.12,10384.45
1302300,924.72,709.10,1.00,1,1,1,848.81,3.11,167674.75,213.74,2.38,95134.24,816.32,-3.07,73562.52,1393.72,3.08,6123.40,337.22,-3.06,13543.03
1317200,937.81,713.91,1.00,1,1,1,936.15,0.35,117562.77,953.57,0.42,70721.74,347.02,0.80,73827.80,1056.34,3.05,22753.12,23.84,0.14,24229.86
1331500,950.16,720.41,1.00,1,1,1,975.96,0.48,9233.00,833.17,0.47,8954.83,745.96,0.57,29029.09,298.53,2.74,54331.89,398.49,0.14,26199.27
1346600,959.68,724.94,1.00,1,1,1,698.26,0.44,18515.91,566.64,0.83,24174.82,514.34,0.71,16395.56,261.45,0.85,30082.78,683.58,0.16,18897.34
1360400,961.19,732.51,1.00,1,1,1,559.49,1.37,41831.75,316.36,1.28,22683.92,307.25,0.99,17037.82,845.06,0.24,47018.22,803.65,0.17,8711.79
1381500,962.85,735.52,1.00,1,1,1,162.67,1.07,19310.96,170.35,1.30,6925.06,190.84,0.94,5547.13,1461.91,0.11,29993.00,966.29,0.12,8011.12
1410600,963.44,740.76,1.00,2,2,2,181.41,1.46,2390.66,134.25,0.28,5236.20,962.31,0.06,29354.01,2222.16,0.07,26267.90,1211.64,0.09,8509.95
1425800,968.56,737.17,1.00,2,2,2,411.63,-0.61,34431.06,2511.88,-0.05,156931.80,2306.92,0.01,88571.92,2878.95,0.08,43232.63,1356.29,0.11,9699.19
1440300,1037.95,737.01,1.00,3,3,3,4785.19,-0.00,307159.61,5009.13,0.00,172746.98,4676.05,0.01,163394.38,2687.52,0.06,13468.16,1441.37,0.09,6100.03
1461500,1147.39,737.98,1.00,1,1,1,5162.43,0.01,17988.69,6456.16,0.03,68493.03,6233.21,0.05,74263.56,2603.22,0.05,4504.85,1377.85,0.07,3323.19
1476500,1271.58,743.02,1.00,1,1,1,8286.58,0.04,208735.26,7731.01,0.09,89665.33,4410.60,0.07,121633.21,2537.41,0.04,4825.02,1387.70,0.05,1649.55
1490900,1373.83,757.60,1.00,1,1,1,7172.27,0.14,94393.24,2732.88,0.15,347599.69,2900.49,0.08,104892.74,2422.09,0.04,8043.28,1370.31,0.03,2030.66
1520300,1390.02,760.34,1.00,1,1,1,558.65,0.17,224960.36,126.51,-0.33,89156.81,1057.78,0.12,62746.18,1967.13,0.03,15482.37,1218.24,0.04,5175.45
1541900,1379.93,755.49,1.00,1,1,1,518.65,-2.69,49386.40,380.58,-2.89,22734.25,196.63,-2.89,58008.30,1310.83,0.03,30390.08,1007.64,0.02,9785.79
1571400,1371.19,755.50,1.00,1,1,1,296.24,3.14,9588.74,553.30,-3.03,6265.50,494.76,-2.82,10131.24,693.04,0.00,20955.02,882.82,-0.02,4463.82
1585800,1355.78,752.86,1.00,1,1,1,1085.57,-2.97,55224.18,700.10,-2.75,15980.97,128.69,-1.89,29904.41,159.62,-0.68,40129.74,781.18,-0.04,7114.65
1600300,1352.51,747.73,1.00,1,1,1,419.78,-2.14,59402.08,442.51,-0.41,72828.37,305.74,-0.52,21107.04,212.12,-2.78,22335.90,569.59,-0.04,14592.53
1636100,1376.18,743.96,1.00,2,2,2,669.63,-0.16,25732.84,795.03,-0.11,11044.17,527.15,-0.31,6634.50,614.91,-3.01,11484.73,288.68,-0.06,7850.22
1650400,1392.10,743.42,1.00,2,2,2,1114.13,-0.03,31972.52,684.13,-0.19,8902.25,54.85,0.06,33310.83,985.53,-3.00,25931.22,45.19,-2.81,23148.23
1664800,1395.45,740.19,1.00,3,3,3,322.93,-0.77,62543.19,997.73,3.01,116739.88,1451.20,-3.13,104583.19,1072.71,-2.98,6142.29,400.06,-2.92,24663.37
1685700,1357.18,748.00,1.00,1,1,1,1868.69,2.94,102784.97,3187.45,3.12,105167.65,2506.41,-3.09,50623.76,929.57,-3.02,7090.82,517.65,-2.92,5626.93
1699900,1283.60,742.83,1.00,1,1,1,5194.66,-3.07,241641.85,4381.76,-3.04,90521.00,3003.60,-3.08,35057.50,965.61,-3.06,3743.15,560.25,-2.98,3749.25
1714500,1231.66,734.95,1.00,1,1,1,3597.93,-2.99,111928.41,2811.56,-2.96,109159.00,2234.85,-3.02,53661.74,942.04,-3.10,3288.75,634.09,-2.94,5242.58
1728400,1204.78,728.38,1.00,1,1,1,1990.77,-2.90,116889.24,501.97,-2.90,166226.59,581.37,-2.92,119239.29,990.52,-3.07,4312.24,776.69,-3.04,11274.82
1750100,1214.30,730.74,1.00,1,1,1,451.68,0.24,112555.30,681.38,0.13,54453.95,339.87,0.13,42413.73,872.89,-2.95,7271.89,1115.81,-3.07,15720.89
1778800,1238.84,732.80,1.00,1,1,1,858.18,0.08,14582.45,1040.31,0.17,12574.88,495.31,0.02,5641.08,501.11,-2.93,12967.10,1683.32,-3.10,19802.95
1792800,1258.05,738.42,1.00,1,1,1,1429.65,0.28,43806.62,260.60,-0.39,59404.91,263.02,-0.29,18442.54,289.01,-2.76,15823.55,1910.68,-3.11,16376.05
1814600,1247.47,729.26,1.00,1,1,1,642.03,-2.43,93169.89,757.67,-2.62,43137.22,403.45,-2.94,29698.94,487.74,3.13,11325.21,2033.45,-3.14,5978.78
1829100,1234.19,724.74,1.00,1,1,1,967.46,-2.81,30647.07,1182.89,-3.10,42444.21,1039.98,-2.86,44064.22,1313.53,-3.12,56988.97,1793.10,-3.11,16949.47
1843600,1213.20,727.67,1.00,1,1,1,1461.30,3.00,50953.17,1443.26,-3.02,19315.02,1963.78,-3.14,69501.35,2403.97,-3.11,75204.15,1503.61,-3.13,20166.40
1857700,1193.24,719.58,1.00,2,2,2,1527.89,-2.76,55041.22,2763.01,3.12,95831.81,3244.88,3.14,90864.58,2749.23,-3.12,24499.33,1325.86,3.13,12793.91
1872000,1134.75,729.24,1.00,2,2,2,4145.31,2.98,206366.03,4712.93,3.10,136437.01,4081.81,-3.13,58779.46,3032.71,3.13,21456.02,1306.62,3.13,1435.67
1893100,1026.52,725.99,1.00,3,3,3,5131.64,-3.11,63021.62,4845.95,-3.11,16105.63,3889.27,3.12,11268.91,2576.44,3.13,21632.10,1368.56,-3.13,3245.03
1921100,896.90,722.81,1.00,1,1,1,4630.70,-3.12,17916.41,3435.90,3.14,50581.03,3650.17,3.12,8540.82,2322.86,3.11,9174.39,1473.81,-3.12,3775.54
1957300,805.94,727.20,1.00,1,1,1,2515.66,3.09,58827.10,2498.56,3.03,27274.93,2176.30,3.13,40716.03,2177.82,3.09,4351.85,1565.13,-3.08,2978.27
1971400,772.00,736.78,1.00,1,1,1,2501.08,2.87,40327.58,288.24,2.93,156876.01,979.10,2.97,86360.87,1966.87,3.13,16479.00,1592.44,-3.09,2179.01
2000000,793.91,729.78,1.00,1,1,1,804.06,-0.31,115552.01,558.07,0.09,29287.13,177.44,1.62,33472.49,1414.47,-3.14,19326.36,1284.18,-3.12,10872.16
2021600,799.90,739.34,1.00,1,1,1,522.54,1.01,39047.08,446.47,0.78,16524.90,168.61,-0.35,13336.69,670.54,3.13,34445.82,731.80,3.13,25608.00
2036100,805.31,741.17,1.00,1,1,1,393.90,0.32,22840.16,596.52,-2.71,70840.35,177.91,-2.74,22238.17,228.31,-2.62,33677.32,215.15,2.82,36641.40
2050100,784.46,732.22,1.00,1,1,1,1620.54,-2.74,143815.43,937.93,-2.52,26439.37,318.77,-2.29,12661.57,214.60,-1.63,15047.27,262.20,0.18,33041.97
2065100,783.23,725.28,1.00,1,1,1,469.95,-1.75,94555.29,239.67,-1.33,58401.11,639.82,-2.31,21413.83,443.35,-0.23,30586.41,757.31,0.02,33340.18
2085800,786.47,723.90,1.00,1,1,1,169.80,-0.40,22333.75,440.82,-1.94,13445.93,460.67,-2.07,10709.81,1260.48,-0.05,39962.59,1159.26,-0.00,19440.53
2100200,777.72,710.82,1.00,1,1,1,1092.75,-2.16,78931.72,835.02,-2.31,31519.45,1050.34,-0.12,89697.63,2268.07,0.00,70252.73,1490.27,-0.04,23305.04
2114600,770.30,706.10,1.00,2,2,2,610.81,-2.57,40811.48,2528.95,0.09,221697.52,2468.22,0.03,99972.31,3024.38,0.03,52742.18,1606.15,-0.06,8370.63
2128700,849.53,717.05,1.00,2,2,2,5672.28,0.14,442043.98,4267.31,0.11,123451.89,4500.03,0.09,144707.52,3371.24,0.01,24877.56,1616.96,-0.05,2175.89
2163800,978.89,729.94,1.00,3,3,3,3703.94,0.10,56297.04,5632.61,0.09,39068.92,5698.06,0.08,34133.69,3256.45,-0.00,3540.20,1183.71,-0.07,12383.55
2178300,1127.83,741.49,1.00,1,1,1,10302.47,0.08,455166.76,8081.77,0.06,169414.46,5241.49,0.03,37104.37,3161.23,-0.00,6574.08,600.88,-0.13,40336.98
2193400,1217.69,744.16,1.00,1,1,1,5953.55,0.03,289074.23,4631.26,-0.08,235266.34,4195.23,-0.03,71756.18,3061.62,-0.00,6632.41,6.87,-1.05,39517.95
2208000,1264.95,730.67,1.00,1,1,1,3366.40,-0.28,200568.57,1182.25,-0.53,247080.30,1672.56,-0.30,179749.70,2571.59,-0.02,33801.84,558.72,3.12,38516.04
2229500,1254.42,722.41,1.00,1,1,1,622.49,-2.48,175167.27,1061.93,-2.54,87941.38,679.11,-0.80,52189.60,1115.83,-0.09,67932.36,818.99,-3.13,12161.54
2244300,1233.25,708.74,1.00,1,1,1,1702.75,-2.57,73264.37,389.07,-1.50,62517.39,292.83,-1.82,39494.38,910.32,-2.98,135783.39,779.70,-3.14,2713.97
2273100,1255.57,705.49,1.00,1,1,1,783.05,-0.14,81582.65,591.35,-0.03,23462.61,1045.31,-3.05,34238.66,2726.40,-3.11,63479.57,671.70,3.14,3750.76
2288000,1259.08,707.99,1.00,1,1,1,289.46,0.62,40781.81,1969.18,3.06,171806.04,2666.57,3.11,109717.21,3679.93,-3.14,64318.80,917.78,-3.10,16678.37
2323600,1156.45,713.58,1.00,2,2,2,2887.11,3.09,87605.24,5542.74,3.11,100472.48,5966.09,3.09,92703.14,4217.83,-3.14,15109.90,1372.00,-3.10,12759.89
2337500,984.89,717.65,1.00,3,3,3,12346.39,3.12,680652.10,13075.07,3.10,541929.75,6571.62,3.11,44477.28,4073.69,3.14,10461.76,1798.56,-3.11,30711.92
2352000,785.50,730.43,1.00,3,3,3,13778.76,3.08,105222.67,7582.16,3.11,378940.02,8040.98,3.13,101922.12,4262.30,3.14,13010.72,2030.93,-3.11,16025.67
2387900,602.93,729.71,1.00,1,1,1,5085.48,-3.14,242669.67,5180.70,-3.10,67979.28,5732.29,-3.13,64517.52,4300.82,-3.14,1319.49,2188.45,-3.13,4480.63
2401800,527.69,720.68,1.00,1,1,1,5452.28,-3.02,51064.24,2588.59,-2.88,195656.86,2719.48,-3.04,218150.40,4154.51,3.14,10697.78,2097.80,-3.14,6604.15
2416700,530.95,710.33,1.00,1,1,1,728.53,-1.27,378012.84,808.53,-0.51,215876.57,872.45,-2.67,129545.68,2803.40,3.12,90814.83,2050.91,3.13,3924.46
2437900,553.14,706.39,1.00,1,1,1,1063.11,-0.18,45856.15,640.78,-0.27,11481.27,580.20,-0.17,65161.83,1292.76,-3.13,71337.88,2197.69,3.12,6947.41
2452200,552.89,704.35,1.00,1,1,1,143.91,-1.69,74453.10,487.85,0.61,34758.88,894.56,0.29,32065.78,103.83,-2.62,84110.53,2214.67,3.14,2310.61
2466100,564.43,714.25,1.00,1,1,1,1093.66,0.71,86587.24,1410.25,0.61,66359.52,701.73,0.49,17911.73,453.16,-0.02,39211.20,2058.47,-3.13,11401.25
2480100,585.22,726.78,1.00,1,1,1,1733.82,0.54,48564.15,876.25,0.44,40294.48,673.57,0.45,2781.38,387.31,0.12,6199.24,1520.60,-3.13,38419.69
2501400,592.39,727.50,1.00,1,1,1,337.86,0.10,67406.04,200.43,-0.53,36691.21,362.73,0.18,15872.78,196.01,0.42,9785.24,933.81,-3.11,27583.57
2515800,591.39,723.15,1.00,1,1,1,309.86,-1.80,36548.58,183.58,-1.55,13009.91,125.57,-1.49,27496.46,173.32,0.30,2219.94,564.91,-3.08,25662.90
2545000,592.57,719.49,1.00,1,1,1,131.41,-1.26,7125.21,188.57,-2.27,4512.11,209.59,-2.52,6189.77,37.09,-1.17,5941.01,542.56,-3.08,770.01
2559900,586.03,716.79,1.00,1,1,1,474.84,-2.75,32374.72,384.62,-3.02,18637.71,232.01,-2.47,1657.36,268.51,-2.81,18346.90,701.90,-3.06,10750.49
2581100,578.79,717.79,1.00,1,1,1,344.93,3.00,11732.50,293.38,-2.63,7434.27,429.05,-2.77,10270.13,563.93,-3.07,14724.07,850.99,-3.04,7044.67
2596100,576.75,711.62,1.00,1,1,1,433.08,-1.89,33513.62,512.60,-2.54,14824.49,581.30,-3.07,14169.86,981.43,-3.12,27959.27,783.45,-3.05,4504.34
2610200,566.51,709.32,1.00,2,2,2,744.48,-2.92,45428.04,996.90,3.06,48489.93,1044.02,3.09,33546.06,1629.16,-3.11,45953.48,811.32,-3.04,2017.09
2624400,548.64,714.01,1.00,2,2,2,1301.02,2.88,51106.03,1581.39,2.93,42686.83,1975.35,3.08,65600.42,1778.17,-3.05,12508.32,874.08,-3.00,4925.55
2646100,511.02,721.31,1.00,3,3,3,1766.07,2.95,21908.13,2734.17,3.08,55106.91,2843.84,3.13,40412.26,1876.07,-3.01,5487.33,917.86,-3.01,2044.96
2660900,449.02,719.97,1.00,1,1,1,4189.96,-3.12,168382.05,4407.71,-3.07,117149.33,2738.44,-3.05,21781.49,1645.40,-3.03,15699.98,927.57,-3.03,1123.83
2676100,379.12,711.95,1.00,1,1,1,4629.05,-3.03,39444.02,2791.38,-2.92,111845.99,2570.54,-2.95,19706.31,1557.25,-3.06,6737.37,986.15,-3.04,3917.26
2704800,329.47,693.08,1.00,1,1,1,1850.72,-2.78,100059.52,1518.76,-2.75,46055.86,1460.49,-2.86,39154.91,1405.46,-3.04,5440.32,926.32,-3.05,2151.69
2726100,309.03,682.73,1.00,1,1,1,1075.67,-2.67,37054.30,338.02,-2.43,56408.81,681.83,-2.78,36773.59,1239.40,-2.99,8317.55,909.73,-3.04,982.89
2755300,316.48,682.00,1.00,1,1,1,256.60,-0.10,44503.59,295.52,0.55,21629.11,157.27,-2.87,17992.90,886.30,-2.93,12263.45,927.68,-3.02,792.73
2769100,319.87,689.36,1.00,1,1,1,586.97,1.14,40464.09,211.24,1.57,18717.78,132.46,0.94,19847.44,467.42,-2.84,30671.95,1557.25,-3.06,45736.62
2790500,316.49,689.43,1.00,1,1,1,157.85,3.12,31103.95,135.75,2.75,9477.81,158.95,2.15,7810.45,73.06,3.13,18622.51,1405.46,-3.04,7296.13
2805900,315.25,691.27,1.00,1,1,1,143.84,2.16,9041.46,194.48,2.93,4273.59,175.70,3.11,10034.50,119.82,0.57,12040.64,1239.40,-2.99,11504.14
2820300,310.82,690.64,1.00,1,1,1,310.76,-3.00,19422.89,245.04,-2.93,7273.93,75.54,1.00,15551.92,47.66,-2.83,11556.35,886.30,-2.93,24867.54
2834800,308.33,689.77,1.00,1,1,1,181.96,-2.81,9440.89,290.95,0.30,36927.93,132.98,0.04,7498.23,175.70,3.11,9102.35,467.42,-2.84,29191.23
2849400,318.90,693.17,1.00,1,1,1,760.55,0.31,64552.38,507.81,0.12,15589.58,163.33,-1.59,14852.48,75.54,1.00,15338.88,73.06,3.13,27296.01
2863800,322.95,691.59,1.00,1,1,1,301.71,-0.37,38925.04,435.46,-2.14,59267.10,507.81,0.12,38561.16,132.98,0.04,7550.30,119.82,0.57,12876.79
2885000,310.61,680.08,1.00,1,1,1,795.92,-2.39,45531.35,795.92,-2.39,18417.18,435.46,-2.14,40256.90,163.33,-1.59,10228.59,47.66,-2.83,7849.60
