@RELATION gaze_labels

%@METADATA width_px 1920
%@METADATA height_px 1080
%@METADATA width_mm 540.00
%@METADATA height_mm 254.00
%@METADATA distance_mm 620.00


@ATTRIBUTE time INTEGER
@ATTRIBUTE x NUMERIC
@ATTRIBUTE y NUMERIC
@ATTRIBUTE confidence NUMERIC
@ATTRIBUTE handlabeller1 INTEGER
@ATTRIBUTE handlabeller2 INTEGER
@ATTRIBUTE handlabeller_final INTEGER
@ATTRIBUTE speed_1 numeric
@ATTRIBUTE direction_1 numeric
@ATTRIBUTE acceleration_1 numeric
@ATTRIBUTE speed_2 numeric
@ATTRIBUTE direction_2 numeric
@ATTRIBUTE acceleration_2 numeric
@ATTRIBUTE speed_4 numeric
@ATTRIBUTE direction_4 numeric
@ATTRIBUTE acceleration_4 numeric
@ATTRIBUTE speed_8 numeric
@ATTRIBUTE direction_8 numeric
@ATTRIBUTE acceleration_8 numeric
@ATTRIBUTE speed_16 numeric
@ATTRIBUTE direction_16 numeric
@ATTRIBUTE acceleration_16 numeric

%The number after speed, direction denotes the step size that was used for the calculation.
%Acceleration was calculated between two adjacent samples of the already low pass filtered velocity

@DATA
0,38.59,695.89,1.00,1,1,1,0.00,0.00,0.00,291.43,2.35,0.00,211.69,1.98,0.00,103.93,1.20,0.00,69.07,2.30,0.00
29500,32.56,702.02,1.00,1,1,1,291.43,2.35,9878.95,211.69,1.98,4088.37,180.47,0.29,9980.84,223.56,0.17,6526.20,166.46,2.84,3824.96
43900,34.87,704.41,1.00,1,1,1,231.25,0.80,25533.61,180.47,0.29,20446.87,103.93,1.20,9936.10,146.83,0.10,5396.08,61.32,2.53,7622.31
79400,41.19,704.58,1.00,1,1,1,177.96,0.03,4565.69,145.30,0.08,1378.16,223.56,0.17,5423.18,33.34,-0.04,3209.18,464.42,-0.08,14594.87
93700,42.09,704.98,1.00,1,1,1,68.59,0.41,8200.17,300.16,0.05,10839.40,146.83,0.10,5433.82,69.07,2.30,6671.80,1256.92,-0.09,55425.35
109200,50.12,705.00,1.00,1,1,1,518.50,0.00,29446.67,149.64,0.14,9789.72,33.34,-0.04,7350.05,166.46,2.84,7279.76,2023.49,-0.10,49456.71
122500,46.35,705.57,1.00,1,1,1,286.47,2.99,60363.51,197.44,-3.07,26083.60,167.23,-3.06,15063.50,61.32,2.53,8252.72,2585.90,-0.08,42387.39
143700,43.33,704.49,1.00,1,1,1,151.41,-2.80,7957.46,419.22,-3.04,10467.51,634.74,3.04,22239.15,464.42,-0.08,24439.52,2598.60,-0.05,3507.24
158700,31.26,704.04,1.00,1,1,1,805.44,-3.10,44163.79,1150.39,3.01,49955.97,251.14,2.92,25781.17,1256.92,-0.09,52838.83,1196.79,-0.00,93630.17
173200,9.70,709.09,1.00,2,2,2,1526.56,2.91,53768.67,170.51,2.20,71725.94,810.93,-0.08,73108.70,2023.49,-0.10,52867.52,1195.23,-0.02,1437.53
201700,26.96,709.98,1.00,2,2,2,606.23,0.05,74231.85,1955.94,-0.10,72734.79,2420.69,-0.08,56483.32,2585.90,-0.08,19780.78,1108.62,-0.02,3039.15
223700,108.00,699.34,1.00,3,3,3,3715.17,-0.13,141858.37,5413.70,-0.11,157182.60,4166.14,-0.10,79360.58,2598.60,-0.05,3379.71,1158.61,-0.04,2624.60
238100,222.79,687.99,1.00,0,0,0,8010.39,-0.10,298524.82,8028.26,-0.10,181719.46,6034.39,-0.09,129788.87,2574.08,-0.02,5098.99,1177.77,-0.04,1343.59
252600,338.96,677.22,1.00,1,1,1,8046.08,-0.09,4152.23,6826.10,-0.06,84813.77,4826.74,-0.04,84713.54,2433.59,-0.04,9932.53,1181.34,-0.03,648.28
266800,418.34,676.15,1.00,1,1,1,5590.76,-0.01,176897.93,2239.28,0.11,326217.16,2775.84,0.04,146096.30,2326.96,-0.03,7522.86,1201.97,-0.03,1483.95
287900,417.57,685.52,1.00,1,1,1,445.67,1.65,267809.39,751.40,2.34,131016.72,721.65,0.32,99176.61,1858.47,-0.04,22203.74,1249.98,-0.03,2291.38
302000,400.02,695.23,1.00,1,1,1,1422.23,2.64,87405.82,635.35,2.78,23084.11,557.93,2.66,83607.53,1108.32,0.01,53425.33,1183.68,-0.01,4796.64
330500,392.25,695.10,1.00,1,1,1,272.47,-3.13,41882.04,479.53,3.02,7154.38,554.80,3.04,7368.33,431.48,0.23,24340.91,1031.35,-0.03,5396.03
351900,376.27,698.16,1.00,1,1,1,760.45,2.95,23214.38,521.55,-2.87,9380.51,61.88,-2.10,24874.84,111.09,1.67,20145.10,753.41,-0.03,12989.81
366900,373.97,690.00,1.00,1,1,1,565.29,-1.85,60518.88,512.68,-0.36,65494.59,162.24,-0.17,12838.46,129.80,0.40,9568.08,269.53,0.06,32376.15
395400,397.11,690.23,1.00,1,1,1,812.16,0.01,39027.74,726.05,0.09,12242.31,513.72,-0.10,12357.39,33.96,0.58,3389.16,254.20,3.00,18283.03
409700,404.91,692.88,1.00,1,1,1,575.81,0.33,22412.05,562.80,0.20,12461.67,693.01,0.07,14264.83,353.32,3.09,26656.98,619.86,3.06,25624.58
430600,416.51,694.25,1.00,1,1,1,558.98,0.12,5740.59,665.08,0.04,6827.10,143.39,0.81,28503.05,731.24,3.10,18083.01,839.79,3.10,10585.94
459600,438.07,694.27,1.00,2,2,2,743.35,0.00,6871.30,281.83,2.79,32138.22,862.09,3.07,33076.37,1171.39,3.06,15216.57,861.62,3.14,1482.49
474400,404.90,698.45,1.00,3,3,3,2258.65,3.02,202537.29,3380.51,3.11,210364.23,1947.83,3.08,73374.60,1734.20,3.11,38268.68,818.55,-3.10,3683.16
489800,336.04,697.96,1.00,3,3,3,4471.53,-3.13,146276.65,3951.31,3.11,37070.99,3798.39,3.10,120202.08,1748.50,-3.14,4306.34,873.68,-3.08,3793.94
511100,259.97,703.28,1.00,1,1,1,3580.23,3.07,44274.79,4154.94,3.10,9783.53,3945.97,3.14,10078.40,1772.58,-3.12,2046.48,857.05,-3.09,876.32
525200,189.10,704.46,1.00,1,1,1,5026.81,3.12,103834.88,3945.29,-3.10,28667.35,2860.59,-3.11,77387.69,2154.25,-3.11,27077.20,819.30,2.98,13043.61
539800,146.83,698.62,1.00,1,1,1,2922.41,-3.00,149684.96,1338.58,-2.81,184261.43,1575.47,-2.99,89664.14,1837.64,-3.09,21857.23,564.84,2.40,31826.72
553900,152.78,691.95,1.00,1,1,1,633.35,-0.84,235253.27,448.06,-0.72,114161.41,567.30,-2.62,75716.22,1430.36,-3.05,29258.46,802.82,1.17,57391.96
575900,159.03,687.99,1.00,1,1,1,336.42,-0.56,14699.25,205.17,-0.92,11384.23,180.79,-1.94,20035.83,1004.03,-3.01,19488.29,1663.70,0.80,43799.33
590000,157.27,686.07,1.00,1,1,1,184.95,-2.31,29161.29,417.81,-3.00,38853.37,382.80,-2.73,20213.19,448.79,2.73,46956.92,2332.19,0.68,50112.00
617800,141.70,685.48,1.00,4,4,4,560.39,-3.10,16203.60,712.25,-2.93,10667.59,529.85,-3.07,7644.56,1160.90,0.66,51434.88,2228.93,0.65,4491.71
639500,122.78,678.76,1.00,4,4,4,925.43,-2.80,19592.08,662.44,-3.12,6414.84,662.63,2.12,29133.06,2713.06,0.57,71919.51,1783.28,0.70,21045.56
653800,117.86,685.03,1.00,4,4,4,556.99,2.24,64012.86,1812.99,1.43,141939.42,2749.74,0.70,190737.24,4840.16,0.53,149018.22,1097.68,0.72,47981.01
668300,130.36,730.42,1.00,4,4,4,3247.32,1.30,203484.25,6864.60,0.62,396752.65,6816.16,0.56,283703.05,5823.49,0.49,69379.51,672.87,0.76,29403.55
682500,277.80,800.06,1.00,4,4,4,11483.07,0.44,682028.68,11425.51,0.46,337320.82,11333.31,0.51,319573.87,5594.21,0.49,16306.83,505.42,0.74,11830.34
704000,496.20,910.80,1.00,4,4,4,11389.28,0.47,15532.02,15039.78,0.46,168133.21,11769.47,0.44,43455.77,4689.47,0.53,43435.42,417.00,0.73,4115.15
717600,750.10,1035.87,1.00,4,4,4,20811.43,0.46,692928.83,12068.63,0.42,223302.69,7513.35,0.44,312950.18,2686.24,0.55,147387.96,246.92,1.02,14179.10
745700,956.46,1114.36,1.00,4,4,4,7856.85,0.36,463007.17,3357.67,0.37,310204.81,3190.68,0.49,154176.20,1391.59,0.52,46122.80,112.21,1.71,6279.65
781000,948.84,1112.16,1.00,4,4,4,224.63,-2.86,228916.19,4315.50,-2.83,217284.87,2169.63,-2.72,151749.29,75.70,2.52,40364.57,118.80,2.86,3546.18
795300,752.62,1049.05,1.00,4,4,4,14414.17,-2.83,992282.91,9105.59,-2.75,337049.01,6589.36,-2.74,309103.92,1612.90,-2.65,110526.28,47.61,1.73,7505.69
831500,524.48,935.07,1.00,4,4,4,7044.97,-2.68,207918.23,8818.92,-2.69,15141.68,9346.90,-2.72,76256.92,3588.35,-2.67,54578.86,65.64,0.79,1492.07
846500,345.55,853.67,1.00,4,4,4,13104.94,-2.71,404669.56,9773.37,-2.68,63991.37,7108.68,-2.65,154208.20,5424.76,-2.69,122560.37,72.91,-1.33,8049.95
860900,266.81,807.91,1.00,4,4,4,6324.41,-2.62,475057.51,4120.46,-2.48,402425.68,6365.39,-2.63,52285.40,6533.56,-2.68,77028.91,517.96,-2.60,34796.82
875100,252.43,781.45,1.00,4,4,4,2120.81,-2.07,327119.30,2965.82,-2.46,81450.75,3647.67,-2.54,193792.07,5021.25,-2.63,108689.36,1356.66,-2.66,59164.70
889900,199.88,753.89,1.00,4,4,4,4009.29,-2.66,171492.15,3280.20,-2.60,36628.92,3060.30,-2.53,39789.19,3296.13,-2.60,116809.40,2282.17,-2.67,62555.42
910700,152.11,721.68,1.00,4,4,4,2769.98,-2.55,62147.52,3148.85,-2.58,7112.89,2456.21,-2.55,29164.84,1771.37,-2.53,73730.29,3055.88,-2.69,37303.89
924800,106.68,695.66,1.00,4,4,4,3712.94,-2.62,68912.28,1469.96,-2.40,122196.13,1076.27,-2.46,98370.15,1125.50,-2.52,45824.26,3244.16,-2.69,13356.53
939800,120.48,692.88,1.00,4,4,4,938.64,-0.20,297483.39,576.38,0.16,131793.08,267.37,-2.42,53946.48,1053.89,-2.66,11078.20,2382.23,-2.64,58062.75
970200,132.53,699.73,1.00,1,1,1,455.92,0.52,21901.58,420.34,0.76,10900.67,416.69,0.56,22436.35,720.37,-2.67,10980.59,1669.82,-2.65,23441.44
990700,136.00,707.61,1.00,1,1,1,419.80,1.16,13506.09,400.40,1.39,12540.67,222.87,1.75,19116.61,359.11,-2.75,17728.94,993.03,-2.65,33015.76
1005000,134.97,713.45,1.00,1,1,1,414.96,1.75,16971.36,646.22,2.99,53746.56,413.02,2.86,26037.71,49.87,1.70,26212.26,764.12,-2.71,16386.77
1019900,117.35,710.45,1.00,1,1,1,1199.75,-2.97,85039.74,981.59,-2.92,30128.42,501.22,-2.97,15092.17,77.09,1.78,1856.43,619.51,-2.72,9720.00
1034000,107.22,707.08,1.00,1,1,1,756.57,-2.82,33076.81,444.42,-2.57,41308.91,479.57,-2.79,6178.37,231.14,2.86,14620.13,242.75,-2.26,29522.28
1055600,103.97,701.91,1.00,1,1,1,282.72,-2.13,26267.02,125.75,-1.91,16375.75,71.99,-1.47,21616.68,345.13,3.06,5871.78,325.77,-0.41,21088.69
1069900,105.71,702.83,1.00,1,1,1,137.49,0.48,28500.89,332.30,0.21,28811.48,95.91,2.87,9727.97,489.69,-3.11,10658.05,672.11,-0.07,26629.15
1098400,117.89,704.83,1.00,1,1,1,433.12,0.16,10729.81,182.44,2.35,16069.67,262.98,2.71,5931.09,243.88,-2.95,8836.02,825.97,-0.01,5674.12
1119800,99.30,709.29,1.00,1,1,1,893.72,2.91,60927.49,742.02,2.94,27989.15,523.63,2.98,13032.21,253.66,-0.31,22523.01,822.37,0.01,555.78
1147800,81.97,712.09,1.00,1,1,1,626.99,2.98,9734.93,972.61,3.11,9610.68,466.39,-3.09,4326.96,841.30,-0.15,21145.64,841.89,-0.01,854.42
1162300,57.99,710.78,1.00,2,2,2,1656.18,-3.09,72564.04,279.94,-1.96,63008.01,578.20,-0.30,70927.99,1228.43,-0.11,26878.82,798.40,-0.03,3238.87
1183800,78.12,702.78,1.00,2,2,2,1007.55,-0.38,121175.09,1882.48,-0.19,91108.82,2119.70,-0.19,71924.19,1644.70,-0.05,19697.71,869.30,-0.04,3311.32
1212200,150.30,693.37,1.00,3,3,3,2562.98,-0.13,56538.69,3947.61,-0.13,72892.88,3114.49,-0.12,35662.91,1817.72,-0.03,6264.15,878.36,-0.04,326.64
1226800,246.36,680.19,1.00,1,1,1,6641.05,-0.14,279326.81,4836.48,-0.08,62918.48,3947.77,-0.04,60118.55,2144.23,-0.02,22373.38,862.91,-0.00,2351.16
1248100,323.37,679.43,1.00,1,1,1,3615.64,-0.01,144982.76,3995.52,0.08,50876.24,3625.65,0.03,19837.86,2148.30,-0.02,742.22,874.37,-0.00,537.91
1262000,386.60,690.76,1.00,1,1,1,4621.80,0.18,90909.12,2261.33,0.34,137275.99,2254.11,0.17,102683.27,2139.47,-0.01,1180.35,871.60,-0.02,1088.64
1276900,384.75,701.20,1.00,1,1,1,711.26,1.75,313772.37,493.70,1.42,139276.99,973.77,0.43,89666.12,1759.95,0.02,25685.98,959.69,-0.04,6012.55
1290900,388.72,704.87,1.00,1,1,1,386.71,0.75,42764.66,176.82,2.39,29922.54,145.06,1.87,68973.69,912.15,0.16,61980.21,1067.20,-0.04,7692.58
1312300,380.19,705.49,1.00,1,1,1,399.68,3.07,33713.96,198.15,-2.33,12382.34,146.97,-2.66,10475.54,469.32,0.35,21440.34,983.24,-0.05,3958.41
1326700,383.83,699.73,1.00,1,1,1,473.21,-1.01,54168.76,330.99,-1.98,11089.05,177.57,-2.88,3193.84,62.60,1.73,32080.62,1091.41,-0.02,8009.63
1340700,376.42,696.88,1.00,1,1,1,567.19,-2.77,57606.31,203.00,2.97,24546.63,90.51,-0.49,17941.93,23.63,-0.91,6008.81,1234.21,0.00,10288.00
1369900,375.19,701.19,1.00,1,1,1,153.56,1.85,20564.74,225.44,0.48,13909.78,17.06,-0.09,2570.83,43.67,-1.78,1151.14,1317.24,0.07,4189.97
1391000,386.47,702.13,1.00,1,1,1,536.77,0.08,27790.36,287.05,-0.16,8115.69,133.31,0.16,5538.57,247.44,-2.84,10873.45,1585.37,0.11,12991.42
1405100,385.16,699.61,1.00,1,1,1,201.67,-2.05,47256.65,126.43,-1.48,20104.58,193.83,-0.20,5882.84,47.37,-0.29,20425.94,1417.05,0.11,11944.89
1419600,386.81,698.53,1.00,1,1,1,135.54,-0.58,15956.54,82.88,-0.36,8044.28,629.60,-2.97,56085.41,804.93,-0.03,52365.72,1279.29,0.10,9651.39
1434300,387.43,698.75,1.00,1,1,1,44.42,0.33,7751.82,1121.96,-3.06,81438.72,84.54,-0.34,47920.66,1676.64,0.03,59457.12,1185.77,0.09,6390.67
1455900,346.24,695.02,1.00,1,1,1,1914.84,-3.05,90646.65,85.94,-0.32,55619.29,1484.20,-0.04,64978.51,2616.16,0.07,43710.01,1220.23,0.07,1966.34
1469900,390.33,697.78,1.00,1,1,1,3155.91,0.06,362163.47,3730.58,-0.01,260631.27,2643.55,0.04,83617.18,2554.64,0.09,6033.40,1259.73,0.09,3364.09
1497900,502.91,693.44,1.00,2,2,2,4023.73,-0.04,33563.67,4080.52,0.04,14465.74,4906.17,0.08,80999.46,2292.54,0.10,9387.60,1435.40,0.11,6363.38
1533400,649.21,708.71,1.00,1,1,1,4143.58,0.10,16737.04,5915.71,0.13,53097.76,3964.42,0.10,26624.00,2151.04,0.10,3986.91,1520.63,0.11,2402.09
1547800,795.62,731.65,1.00,1,1,1,10291.26,0.16,427556.40,3837.91,0.18,145109.24,2942.17,0.16,72439.22,2444.79,0.09,20574.21,1491.66,0.10,2358.75
1583800,839.65,742.64,1.00,1,1,1,1260.41,0.24,251015.77,179.57,1.79,106947.10,1555.94,0.25,38835.87,2234.53,0.09,5860.91,1388.39,0.11,2887.91
1598000,793.65,740.44,1.00,1,1,1,3243.03,-3.09,315905.44,2493.31,-3.08,173972.31,401.83,-3.14,137213.92,2047.17,0.16,16650.08,1372.96,0.10,1232.89
1612400,768.45,738.56,1.00,1,1,1,1754.41,-3.07,103472.28,1067.00,-2.85,102442.83,811.40,-3.01,28917.98,1359.56,0.23,48424.58,1746.22,0.08,26038.22
1627300,763.68,731.54,1.00,1,1,1,569.64,-2.17,98581.45,537.50,-0.15,105340.79,660.40,0.18,98758.43,273.27,0.41,73249.78,2520.20,0.07,51962.31
1648500,787.63,735.57,1.00,1,1,1,1145.53,0.17,75175.44,2090.95,0.22,75649.11,1119.88,0.21,21714.91,241.24,3.03,23479.13,2807.01,0.06,13557.36
1662600,835.65,747.90,1.00,1,1,1,3516.59,0.25,168593.40,1917.41,0.34,20102.12,1094.87,0.22,2171.69,228.93,0.11,33154.39,2896.28,0.07,6432.09
1677000,839.23,753.56,1.00,1,1,1,464.71,1.01,221833.56,147.63,-2.94,143320.65,371.85,0.45,51227.60,1245.18,0.03,70633.24,2528.79,0.06,25619.37
1690900,831.56,747.07,1.00,1,1,1,722.86,-2.44,84493.81,891.48,-2.90,53526.76,129.01,-2.74,36022.53,2611.41,0.05,98336.63,1861.73,0.01,48579.75
1712100,808.87,745.96,1.00,2,2,2,1071.33,-3.09,31312.91,121.30,-2.61,36604.08,1373.13,-0.09,70191.33,3522.96,0.04,43037.95,1722.47,-0.01,6811.43
1741400,826.29,743.94,1.00,2,2,2,598.33,-0.11,56808.96,3168.74,-0.02,111693.75,3840.69,0.01,84617.03,3889.26,0.01,12924.66,1817.35,-0.02,3295.43
1755600,946.69,743.59,1.00,3,3,3,8479.22,-0.00,555276.44,10712.34,0.02,531485.56,6064.01,0.02,156587.29,3728.70,-0.01,12419.68,1743.18,-0.04,5534.74
1770400,1136.87,750.86,1.00,3,3,3,12859.14,0.04,297356.94,9546.60,0.03,79129.91,8794.53,0.02,184494.84,3470.76,-0.02,17816.65,1740.48,-0.03,995.50
1791800,1292.09,755.12,1.00,1,1,1,7255.92,0.03,261877.82,7223.51,0.02,108758.27,6598.07,0.02,102648.91,3474.82,-0.02,550.55,1648.84,-0.03,4291.80
1805800,1392.55,755.02,1.00,1,1,1,7175.73,-0.00,15740.91,2863.23,-0.06,312456.62,3016.95,-0.08,257429.80,3588.12,-0.03,8770.14,1538.69,-0.05,8358.03
1820300,1373.54,750.15,1.00,1,1,1,1353.36,-2.89,585731.62,2339.10,-2.86,353474.45,380.84,-0.85,190239.08,2245.33,-0.07,92965.52,1526.23,-0.04,1071.82
1834200,1328.80,736.33,1.00,1,1,1,3368.57,-2.84,145172.84,1880.95,-2.94,35278.58,1668.93,-2.90,134832.43,936.85,-0.25,95826.66,1529.72,-0.03,1315.55
1855800,1308.12,736.76,1.00,1,1,1,957.69,3.12,114729.07,1144.72,-2.97,34142.42,1406.20,-2.86,12410.17,212.96,-1.86,44878.30,1330.07,-0.03,9244.01
1870200,1288.20,729.25,1.00,1,1,1,1478.23,-2.78,47859.73,1025.25,-2.75,18347.74,692.77,-2.81,49702.67,639.72,-2.84,38182.29,959.43,-0.09,26112.75
1898800,1267.36,719.97,1.00,1,1,1,797.82,-2.72,23890.70,399.37,-2.47,22793.57,311.33,-2.65,13581.91,416.74,-2.89,7850.78,166.09,-0.36,27993.08
1919900,1272.73,716.82,1.00,1,1,1,295.31,-0.53,47345.03,311.36,0.20,32744.47,104.93,-0.48,18043.02,169.25,-2.98,11790.32,819.03,-3.01,45906.56
1948800,1282.62,723.06,1.00,1,1,1,404.54,0.56,13004.01,593.29,0.32,9918.22,494.36,0.31,14772.51,632.67,-3.11,16102.23,1371.62,-3.08,19289.63
1962700,1296.83,724.80,1.00,1,1,1,1030.54,0.12,49406.22,758.04,0.38,12188.66,413.82,0.48,8048.65,1211.79,-3.09,41677.46,1580.82,-3.11,15595.36
1984100,1307.48,732.95,1.00,2,2,2,626.46,0.65,27300.44,238.10,1.00,27161.85,1164.06,3.00,70951.46,1838.08,3.12,29686.36,1411.62,3.12,8625.12
1998200,1301.40,731.91,1.00,3,3,3,437.43,-2.97,73319.23,3427.40,3.13,252482.58,3098.46,-3.12,139018.41,2615.25,3.14,55197.34,1219.36,3.10,13799.50
2012900,1208.77,733.77,1.00,3,3,3,6302.31,3.12,399538.87,7142.20,-3.08,253674.89,4895.45,-3.12,122246.24,2973.94,3.12,24508.58,1218.53,3.09,504.13
2026600,1098.89,720.28,1.00,1,1,1,8080.66,-3.02,149447.24,6084.72,-3.11,78066.40,6249.08,-3.11,98937.33,2770.38,3.09,16473.03,1185.86,3.11,2822.89
2048500,992.28,726.60,1.00,1,1,1,4876.95,3.08,155233.76,5545.99,-3.13,25504.93,4801.15,-3.13,66291.21,2571.16,3.07,9494.10,1054.12,3.07,6288.52
2062500,899.80,718.74,1.00,1,1,1,6629.34,-3.06,138142.39,3191.47,3.11,168636.44,2463.80,3.00,171351.53,2424.70,3.08,10669.98,975.75,3.03,6335.84
2076800,902.01,729.62,1.00,1,1,1,776.89,1.37,481695.13,1703.64,0.52,330382.54,784.15,2.57,124477.52,1865.33,3.06,39230.96,1014.21,3.03,2705.79
2091000,941.86,742.99,1.00,1,1,1,2960.14,0.32,187186.76,967.45,0.67,53530.11,816.99,0.57,95046.31,1167.06,3.02,49388.88,1077.94,3.07,5302.97
2127300,940.28,759.99,1.00,1,1,1,470.21,1.66,79584.11,321.05,0.69,17810.33,612.67,0.57,5628.60,255.23,2.72,25510.93,1211.02,3.10,3767.49
2141600,954.36,753.37,1.00,1,1,1,1087.83,-0.44,96985.71,179.28,-1.03,27316.15,127.00,-2.99,51096.28,685.64,0.30,62463.33,1345.69,3.12,9594.62
2155900,942.92,755.59,1.00,1,1,1,814.66,2.95,132045.61,869.62,-2.66,62771.01,401.79,-0.78,34161.66,746.91,0.21,6030.03,879.41,3.13,32610.36
2170900,931.83,741.47,1.00,1,1,1,1197.30,-2.24,73238.53,582.56,-0.72,80511.17,619.18,-0.14,25524.82,423.44,0.03,22613.08,124.91,2.35,53013.38
2192200,958.84,741.67,1.00,1,1,1,1268.22,0.01,104302.18,1747.75,0.10,66496.46,987.29,-0.05,17591.71,160.47,-0.58,14404.63,568.83,0.11,30673.44
2206900,994.42,747.88,1.00,1,1,1,2457.01,0.17,83277.97,1706.04,0.22,14138.97,1100.16,0.05,10239.21,291.53,-2.81,27883.50,1186.32,0.08,42060.98
2221500,1007.62,752.58,1.00,1,1,1,959.76,0.34,104071.37,318.23,-0.32,98824.71,70.64,1.43,74612.69,156.61,-0.94,25364.60,1167.45,0.04,3038.81
2235800,1003.14,744.97,1.00,1,1,1,617.34,-2.10,103978.89,964.38,-3.03,88133.40,1018.15,-3.04,72519.52,850.00,0.04,54110.24,871.89,0.00,20867.09
2271600,959.60,747.22,1.00,2,2,2,1217.80,3.09,30204.22,1777.50,-3.08,22795.22,681.37,-2.85,10356.53,1293.82,0.02,12415.56,967.67,-0.07,3200.77
2285700,914.59,739.82,1.00,2,2,2,3235.01,-2.98,146210.48,363.58,-1.89,118900.61,687.49,0.04,96345.25,1668.29,-0.01,26738.08,963.26,-0.03,2819.42
2300000,956.32,737.43,1.00,2,2,2,2922.86,-0.06,428020.12,3147.43,0.05,230600.16,2600.48,-0.01,133845.14,1566.86,-0.03,7647.98,987.08,-0.03,1704.10
2335700,1071.76,747.75,1.00,1,1,1,3246.59,0.09,15537.08,4159.22,0.04,28354.07,4370.72,0.02,49634.12,1268.09,-0.01,8426.55,975.30,0.02,1386.71
2349600,1162.44,746.10,1.00,1,1,1,6524.25,-0.02,238464.39,6545.26,-0.01,172788.29,3755.81,0.02,44268.29,1809.81,-0.02,39006.37,858.79,-0.00,8474.74
2363900,1256.33,745.80,1.00,1,1,1,6566.05,-0.00,7489.31,3092.80,-0.02,241444.93,2174.86,-0.03,111111.52,2216.13,0.02,29037.77,788.18,-0.06,6007.18
2379600,1255.20,744.34,1.00,1,1,1,117.41,-2.23,422813.49,1261.94,-3.08,277209.11,851.49,-0.09,84431.39,1892.56,0.03,20693.78,668.66,-0.12,8045.08
2399800,1211.10,743.23,1.00,1,1,1,2184.07,-3.12,104552.70,1123.97,-3.06,6969.51,404.36,3.13,62126.70,1137.21,-0.01,37527.02,427.48,-0.08,11984.56
2413800,1216.89,741.26,1.00,1,1,1,436.76,-0.33,185588.50,684.15,0.14,129091.65,475.41,3.07,5487.33,380.52,-0.09,54183.72,175.34,-0.14,18046.64
2428200,1230.33,746.00,1.00,1,1,1,989.96,0.34,48690.98,354.18,0.55,26803.42,111.73,0.45,39919.74,202.16,-2.70,39160.00,133.05,3.12,21378.50
2442300,1225.48,746.56,1.00,1,1,1,346.38,3.03,92918.99,358.18,3.11,48415.27,5.38,-2.93,8294.92,312.99,-2.79,8049.28,336.10,3.11,14401.50
2463900,1217.55,746.35,1.00,1,1,1,367.27,-3.11,2520.32,210.26,-2.60,9861.91,160.75,-1.58,7392.95,541.98,-3.03,11519.13,768.48,-3.05,20227.78
2492200,1216.47,741.17,1.00,2,2,2,186.73,-1.78,13141.24,424.31,-0.79,18227.75,266.01,-2.23,6001.68,1441.51,-3.14,31957.94,1158.97,-3.06,13805.00
2506700,1230.27,733.39,1.00,2,2,2,1092.37,-0.51,72459.24,377.37,-1.95,30319.34,1067.65,-3.00,61805.04,2462.46,-3.13,70425.24,1402.68,-3.10,17130.22
2528400,1211.41,728.49,1.00,3,3,3,897.78,-2.89,85094.72,2659.15,3.13,117441.87,3158.00,-3.14,97002.39,2536.00,-3.12,3397.11,1412.85,-3.12,1699.96
2542900,1134.02,734.68,1.00,1,1,1,5354.79,3.06,311466.54,6886.03,3.08,291814.42,5426.70,3.12,156612.15,2461.74,-3.09,7906.36,1144.55,3.13,18722.97
2557800,1009.31,740.35,1.00,1,1,1,8378.04,3.10,203488.02,8881.47,3.12,135256.26,6060.46,3.11,42827.40,2846.19,-3.08,25817.88,991.98,3.07,11010.83
2571900,876.52,740.48,1.00,1,1,1,9417.98,3.14,78906.13,5217.26,-3.14,260135.86,4162.42,-3.12,136234.10,2607.58,-3.13,18767.72,973.72,3.07,1296.81
2586400,860.10,740.11,1.00,1,1,1,1132.71,-3.12,571423.70,505.85,-2.36,335813.50,2537.72,-3.02,114291.81,2571.03,3.12,6885.55,1078.26,3.11,7590.09
2607900,863.55,727.70,1.00,1,1,1,598.85,-1.30,65364.02,665.36,-2.11,10052.41,328.48,-2.62,104125.36,1694.71,3.09,40846.79,1052.15,3.11,1214.87
2621900,847.94,719.85,1.00,1,1,1,1247.75,-2.68,91095.29,220.66,-3.12,41259.99,216.43,-2.91,9794.29,592.90,2.91,79795.62,915.91,3.11,9741.01
2651000,854.04,727.45,1.00,1,1,1,334.77,0.89,53556.54,340.88,1.92,11738.22,214.17,1.43,12212.73,363.99,0.45,31120.46,525.38,3.10,13427.45
2672100,842.03,735.91,1.00,1,1,1,696.33,2.53,37502.87,469.85,1.02,17691.19,875.51,0.54,35979.94,229.28,0.49,6417.69,68.91,2.63,22029.27
2701000,866.39,747.44,1.00,1,1,1,932.32,0.44,48856.58,1856.45,0.33,52721.76,1002.47,0.47,4910.99,303.92,0.66,3007.18,486.02,0.03,18897.88
2715500,918.31,761.84,1.00,1,1,1,3716.49,0.27,193263.95,1876.05,0.29,5444.94,710.27,0.41,20490.27,699.50,0.26,30061.09,956.63,0.02,32461.73
2736700,930.63,766.37,1.00,2,2,2,618.94,0.35,146228.97,722.76,-2.99,122368.45,565.11,0.27,7972.23,1491.77,0.06,38645.05,1469.68,0.05,24246.87
2750600,893.24,757.96,1.00,2,2,2,2756.80,-2.92,242546.25,1100.79,-2.84,28903.43,601.12,-0.36,26095.84,2482.19,0.01,71619.77,1426.05,0.04,3154.53
2764800,901.14,757.04,1.00,2,2,2,559.48,-0.12,231695.60,2172.53,-0.16,225052.94,2328.97,-0.18,122637.77,2915.26,-0.02,30878.96,1470.56,0.07,3817.96
2778900,953.98,748.42,1.00,3,3,3,3797.55,-0.16,229701.07,4968.29,-0.09,198795.57,4757.96,-0.07,174221.65,2580.46,-0.04,24098.67,1490.37,0.07,1404.98
2800200,1076.23,740.47,1.00,1,1,1,5751.48,-0.06,94160.92,6851.40,-0.04,89526.98,4858.51,-0.05,6442.67,2781.72,-0.01,10118.39,1420.49,0.03,4130.11
2814000,1194.25,738.11,1.00,1,1,1,8553.49,-0.02,204325.10,4776.14,-0.00,151199.86,4069.66,-0.01,58617.96,2829.74,0.00,4653.78,1404.67,-0.01,4040.12
2842800,1279.69,739.46,1.00,1,1,1,2967.27,0.02,194067.14,2150.34,0.08,91608.11,3183.02,0.08,32784.93,2813.67,-0.00,729.37,1593.81,-0.03,6620.85
2864600,1302.75,746.28,1.00,1,1,1,1102.78,0.29,88431.75,1451.05,0.43,42917.23,1327.44,0.20,85851.94,2377.78,0.00,19999.26,1122.69,-0.08,21847.78
2879700,1328.39,761.72,1.00,1,1,1,1982.42,0.54,63340.07,486.81,1.94,99655.97,453.38,0.62,61610.40,1347.95,-0.01,68206.24,879.54,-0.11,16237.35
2893500,1297.61,759.38,1.00,1,1,1,2236.58,-3.07,297492.69,892.10,-2.93,68354.15,156.22,2.82,40578.74,439.76,-0.09,65967.30,679.18,-0.08,14619.12
2907900,1303.77,756.53,1.00,1,1,1,471.41,-0.43,184590.02,378.73,-1.89,53800.93,974.63,-2.78,59695.80,291.29,-0.08,10310.05,345.81,-0.18,23400.90
2922000,1294.24,749.12,1.00,1,1,1,855.97,-2.48,81652.29,1053.46,-2.67,58862.15,554.59,-2.47,33886.96,267.84,-2.88,39049.58,99.21,-0.60,18330.99
2943900,1269.93,739.41,1.00,1,1,1,1195.43,-2.76,20176.54,699.25,-2.63,16245.24,344.60,-0.86,30258.86,877.54,-2.97,27911.60,169.28,-3.03,11536.28
2972200,1263.55,732.08,1.00,1,1,1,343.34,-2.29,31939.38,1208.92,-0.07,64867.72,350.14,-2.73,19765.29,1285.78,-3.06,14812.13,392.68,3.11,8000.97
2986600,1321.43,735.94,1.00,1,1,1,4028.34,0.07,297035.16,68.96,2.05,86551.58,831.94,-3.12,36400.06,1644.07,-3.08,24965.59,748.47,-3.13,24750.90
3022500,1261.94,735.15,1.00,2,2,2,1657.23,-3.13,158325.74,2572.30,3.13,70758.32,2136.15,3.08,36457.20,1759.88,-3.08,3240.13,880.66,3.14,3702.28
3036600,1192.83,737.61,1.00,3,3,3,4904.86,3.11,230540.46,5897.26,3.10,235940.20,3108.16,3.14,69669.81,1439.54,-3.12,23143.04,1194.66,-3.13,22300.91
3050600,1096.37,741.94,1.00,0,0,0,6896.88,3.10,142339.32,3644.20,-3.14,161584.15,3601.94,-3.12,35617.93,1227.27,3.09,16539.13,1466.40,3.13,19493.76
3086600,1010.62,737.11,1.00,1,1,1,2385.74,-3.09,125826.90,2328.03,-3.04,37387.65,2155.22,-3.12,40187.12,1658.64,3.14,12117.23,1920.61,3.13,12618.40
3100700,980.31,730.36,1.00,1,1,1,2202.06,-2.92,29456.89,450.46,-0.22,195722.29,329.48,-3.13,129485.57,1572.17,3.09,8635.92,2118.73,3.14,14098.42
3115300,1023.25,734.32,1.00,1,1,1,2953.08,0.09,352395.72,3103.66,0.12,183790.38,602.71,-0.01,63845.50,1563.88,3.05,3775.19,2220.62,-3.14,7165.96
3129900,1070.25,741.56,1.00,1,1,1,3257.09,0.15,24484.75,738.25,0.10,162035.80,937.60,0.29,27597.09,1676.01,3.05,7685.29,2082.28,-3.11,9935.25
3150700,1049.25,736.89,1.00,2,2,2,1033.88,-2.92,206214.56,930.11,2.95,79372.55,904.51,2.72,82996.63,2320.23,3.05,30972.52,1658.64,3.14,20544.70
3165100,1038.11,747.83,1.00,0,0,0,1084.31,2.37,70268.36,2833.76,2.88,132420.20,3344.28,3.04,173693.77,2574.33,3.08,18419.73,1572.17,3.09,8456.00
3179600,970.13,758.01,1.00,0,0,0,4740.87,2.99,270023.36,6290.30,3.06,243807.18,5241.23,3.06,130959.60,3153.83,3.14,41556.54,1563.88,3.05,3801.23
3194000,856.98,763.25,1.00,0,0,0,7866.04,3.10,221317.61,7267.39,3.12,73744.64,5396.57,3.13,28127.01,2984.06,-3.08,17493.20,1676.01,3.05,7792.03
3214800,714.39,764.00,1.00,1,1,1,6855.49,3.14,50701.42,4898.55,-3.10,115551.51,5052.02,-3.08,23787.24,5241.23,3.06,111729.75,2320.23,3.05,30972.52
3244100,611.81,752.28,1.00,1,1,1,3523.80,-3.03,115447.12,3332.17,-2.94,57541.00,2777.02,-2.94,79827.94,5396.57,3.13,13823.51,2574.33,3.08,9052.70
3258800,570.67,734.98,1.00,1,1,1,3035.62,-2.74,71242.94,1069.36,-1.30,243091.54,3332.17,-2.94,37772.09,5052.02,-3.08,33658.13,3153.83,3.14,40991.14
3280300,622.23,715.00,1.00,1,1,1,2571.95,-0.37,241966.76,2571.95,-0.37,98257.22,1069.36,-1.30,166206.78,2777.02,-2.94,108788.78,2984.06,-3.08,11716.37
