@RELATION gaze_labels

%@METADATA width_px 1920
%@METADATA height_px 1080
%@METADATA width_mm 540.00
%@METADATA height_mm 254.00
%@METADATA distance_mm 620.00


@ATTRIBUTE time INTEGER
@ATTRIBUTE x NUMERIC
@ATTRIBUTE y NUMERIC
@ATTRIBUTE confidence NUMERIC
@ATTRIBUTE handlabeller1 INTEGER
@ATTRIBUTE handlabeller2 INTEGER
@ATTRIBUTE handlabeller_final INTEGER
@ATTRIBUTE speed_1 numeric
@ATTRIBUTE direction_1 numeric
@ATTRIBUTE acceleration_1 numeric
@ATTRIBUTE speed_2 numeric
@ATTRIBUTE direction_2 numeric
@ATTRIBUTE acceleration_2 numeric
@ATTRIBUTE speed_4 numeric
@ATTRIBUTE direction_4 numeric
@ATTRIBUTE acceleration_4 numeric
@ATTRIBUTE speed_8 numeric
@ATTRIBUTE direction_8 numeric
@ATTRIBUTE acceleration_8 numeric
@ATTRIBUTE speed_16 numeric
@ATTRIBUTE direction_16 numeric
@ATTRIBUTE acceleration_16 numeric

%The number after speed, direction denotes the step size that was used for the calculation.
%Acceleration was calculated between two adjacent samples of the already low pass filtered velocity

@DATA
0,-29.97,693.65,1.00,1,1,1,0.00,0.00,0.00,228.22,-2.50,0.00,15.52,-2.81,0.00,156.22,-0.02,0.00,77.79,-0.49,0.00
14800,-32.67,691.62,1.00,1,1,1,228.22,-2.50,15420.07,15.52,-2.81,14425.29,199.66,0.58,14509.45,134.16,0.09,1836.55,87.69,0.18,3714.72
28500,-30.39,693.51,1.00,1,1,1,216.03,0.69,32418.28,199.66,0.58,15674.45,156.22,-0.02,8310.64,118.76,-0.76,7651.31,63.82,0.01,1974.54
57700,-25.52,696.34,1.00,1,1,1,192.89,0.53,1398.58,252.23,-0.01,4838.71,134.16,0.09,930.85,127.90,-1.17,1769.44,51.12,0.23,608.23
79200,-17.60,693.39,1.00,1,1,1,393.10,-0.36,14376.54,142.34,-0.85,8838.89,118.76,-0.76,4875.49,77.79,-0.49,3896.69,15.68,1.56,2316.56
93100,-22.21,692.55,1.00,1,1,1,336.61,-2.96,50623.42,305.44,-2.32,23311.17,127.90,-1.17,3717.10,87.69,0.18,3955.24,94.48,2.67,6370.89
107700,-23.56,687.04,1.00,1,1,1,388.36,-1.81,27141.96,126.86,-1.42,16948.99,72.45,-1.84,5760.70,63.82,0.01,1852.82,103.82,2.03,4306.03
143700,-21.27,686.20,1.00,1,1,1,67.86,-0.35,10742.25,90.25,0.19,4420.07,43.90,0.46,2969.93,51.12,0.23,493.35,171.06,2.34,2195.57
157700,-19.13,687.91,1.00,1,1,1,195.59,0.68,12200.15,288.17,1.30,18625.59,80.38,0.96,3348.06,15.68,1.56,3557.58,66.97,2.79,8193.16
172100,-19.10,694.09,1.00,1,1,1,429.00,1.57,23708.62,114.65,1.54,12421.10,162.06,1.26,6131.64,94.48,2.67,6149.68,37.87,0.80,6213.68
207500,-18.97,693.62,1.00,1,1,1,13.79,-1.30,12493.65,90.50,1.17,1260.71,102.40,1.38,1742.09,103.82,2.03,1775.93,102.24,-0.15,2430.73
221800,-17.35,698.23,1.00,1,1,1,341.91,1.23,24706.58,90.05,1.02,985.07,217.85,2.83,16038.90,171.06,2.34,5527.30,209.13,-0.18,7479.24
236800,-17.58,695.86,1.00,1,1,1,158.86,-1.67,33172.95,619.74,3.08,44465.64,246.09,2.54,4861.03,225.00,2.74,6336.29,383.85,-0.09,11773.06
251100,-35.47,699.39,1.00,1,1,1,1275.55,2.95,90979.56,497.72,2.72,16242.36,330.47,2.88,8981.97,50.85,2.28,12646.83,473.78,-0.08,6296.47
265900,-30.79,701.79,1.00,1,1,1,355.25,0.47,106076.34,146.85,2.15,25856.36,489.08,2.99,11166.52,151.51,-0.24,13183.89,486.32,-0.02,2120.45
287800,-38.41,703.91,1.00,1,1,1,361.07,2.87,30465.93,509.02,-3.07,20824.86,141.05,0.07,28653.44,393.73,-0.24,11060.36,524.28,0.04,2182.77
301700,-48.97,700.54,1.00,1,1,1,797.75,-2.83,38423.31,343.21,-0.26,60519.99,415.11,-0.38,21220.64,805.78,-0.11,30090.79,468.30,0.03,4032.64
330200,-24.34,700.18,1.00,3,3,3,864.25,-0.01,57554.59,1050.93,-0.23,24838.97,1000.99,-0.25,20795.08,1091.21,-0.12,10016.60,442.31,0.02,936.27
351800,2.27,688.44,1.00,1,1,1,1346.81,-0.42,29925.71,1769.36,-0.24,33266.65,1869.31,-0.12,40989.84,1076.28,-0.11,703.61,444.49,0.04,509.49
366500,38.01,684.79,1.00,1,1,1,2444.08,-0.10,84037.54,3306.12,-0.06,108903.83,2257.87,-0.13,26478.36,1170.06,-0.07,7158.64,424.42,0.02,1563.47
380700,97.67,683.07,1.00,1,1,1,4202.67,-0.03,124923.71,2909.90,-0.04,28071.05,2077.51,-0.03,19324.54,1140.06,-0.05,2709.04,452.08,0.05,2153.81
394800,120.29,681.32,1.00,1,1,1,1609.31,-0.08,184139.24,877.60,0.05,144491.54,1407.93,0.08,49436.48,962.67,-0.02,12712.75,456.33,0.05,323.87
410200,123.53,684.29,1.00,1,1,1,285.30,0.74,92852.00,385.38,0.85,43580.21,313.23,0.47,72991.58,745.15,0.10,15726.56,464.73,0.01,1291.55
431800,129.66,692.07,1.00,1,1,1,458.53,0.90,8453.27,299.66,2.31,21347.06,204.83,1.92,16360.39,473.19,0.21,12958.41,648.00,-0.04,8590.99
446700,116.13,692.36,1.00,1,1,1,908.13,3.12,83202.72,364.77,2.84,12368.12,242.44,2.34,6728.09,181.69,0.74,22058.02,912.67,-0.05,17766.39
474700,114.72,696.71,1.00,1,1,1,163.55,1.89,31003.44,200.15,2.37,7422.43,219.57,2.71,3164.73,149.34,1.87,6446.88,1139.71,-0.06,8132.27
495900,109.10,699.25,1.00,1,1,1,290.76,2.72,10255.49,105.35,2.32,4483.32,113.00,1.29,10913.19,110.49,1.78,1927.15,1310.79,-0.03,8282.42
524600,111.14,700.56,1.00,1,1,1,84.69,0.57,11991.75,239.94,0.31,10461.91,105.60,1.81,1961.13,212.86,0.10,8717.76,1225.28,-0.01,3098.88
539300,119.02,702.41,1.00,1,1,1,550.46,0.23,32077.32,129.50,1.40,14576.72,120.86,0.40,9989.70,720.31,-0.04,34722.52,1015.89,0.00,14284.78
575200,112.23,707.03,1.00,2,2,2,228.76,2.55,20199.14,26.72,1.21,2879.97,697.96,-0.09,16551.04,1296.10,-0.09,16086.23,912.77,0.00,2872.55
589300,119.49,703.67,1.00,2,2,2,567.56,-0.43,56322.86,1937.65,-0.21,137153.53,1541.13,-0.13,59862.31,1835.15,-0.08,38242.56,880.13,-0.01,2515.06
603600,166.06,695.62,1.00,3,3,3,3304.99,-0.17,193060.81,4206.33,-0.14,159279.08,3381.66,-0.14,128715.69,1994.50,-0.07,11328.06,863.36,-0.04,1824.43
618100,239.48,687.01,1.00,1,1,1,5098.19,-0.12,124623.66,4532.70,-0.11,23946.62,4338.29,-0.10,66670.31,1872.65,-0.06,8421.67,843.36,-0.01,2017.20
639400,327.33,677.67,1.00,1,1,1,4147.86,-0.11,44678.19,4449.22,-0.07,9504.75,3297.90,-0.06,49337.15,2133.27,-0.08,12422.04,877.91,-0.05,2163.96
653800,397.93,675.94,1.00,1,1,1,4903.99,-0.02,58352.27,2278.04,0.02,152204.24,2185.16,-0.02,77672.17,2022.01,-0.08,7732.82,944.97,-0.07,4879.71
682200,424.81,680.05,1.00,1,1,1,957.31,0.15,139615.30,574.72,0.28,60826.02,1121.26,0.04,37616.90,1649.75,-0.06,13192.85,1241.02,-0.07,10424.67
703100,425.19,683.68,1.00,1,1,1,174.39,1.47,44424.55,282.09,2.99,40176.54,121.94,0.46,48359.77,985.34,0.01,32089.17,1542.93,-0.03,14617.17
717600,414.93,681.54,1.00,1,1,1,722.45,-2.94,54706.03,666.55,-2.95,28349.83,374.43,3.07,33345.59,400.30,0.11,40550.56,2078.85,0.00,37212.46
731700,406.46,680.13,1.00,1,1,1,609.33,-2.98,8235.94,490.39,3.12,15092.81,606.02,3.01,16550.48,42.37,2.60,30846.92,2079.72,0.03,4492.47
746200,400.91,681.85,1.00,1,1,1,400.63,2.84,21342.14,609.10,2.72,16912.75,482.83,3.07,8826.81,417.59,-0.08,31453.40,1836.83,0.05,17046.68
767400,386.58,688.94,1.00,1,1,1,754.19,2.68,17172.35,477.62,3.03,9915.37,211.62,-3.06,12991.35,1171.00,0.01,35684.83,1370.66,0.09,22150.30
781800,384.01,683.75,1.00,1,1,1,401.92,-2.03,59350.67,396.30,-1.02,54660.23,1049.61,-0.08,87427.50,2040.36,0.09,60893.18,1169.61,0.12,14229.31
796800,392.72,679.04,1.00,2,2,2,660.18,-0.50,50682.82,2268.51,-0.09,137043.45,2593.12,-0.01,103167.60,2152.81,0.13,9221.22,1213.40,0.14,3197.90
826400,484.81,674.97,1.00,3,3,3,3113.95,-0.04,85686.58,3977.50,0.03,59029.33,4058.29,0.07,50404.41,2013.45,0.13,4741.92,1481.61,0.09,9295.06
847500,594.26,685.94,1.00,1,1,1,5213.62,0.10,103241.73,6359.04,0.14,115833.82,3800.67,0.12,15543.55,1705.78,0.13,14590.29,1819.06,0.05,16323.05
861900,708.23,707.26,1.00,1,1,1,8051.55,0.18,200747.71,3634.54,0.24,191971.39,2950.12,0.21,62031.56,1800.70,0.12,6611.62,2173.21,0.04,24608.84
890200,744.98,722.97,1.00,1,1,1,1412.18,0.40,236049.25,598.84,0.69,109796.57,1018.21,0.44,69789.63,2240.88,0.13,15556.88,2207.74,0.05,1230.73
911700,731.15,726.33,1.00,1,1,1,661.84,2.90,92186.72,1275.82,3.08,81914.52,220.20,2.32,51374.69,2415.74,0.12,8198.97,2093.93,0.04,5299.85
941000,680.28,726.75,1.00,2,2,2,1736.42,3.13,37629.66,850.02,-3.03,15682.66,422.46,0.17,19576.77,2407.52,0.07,4318.79,2205.93,0.05,3849.11
955400,694.22,722.34,1.00,3,3,3,1015.61,-0.31,189142.86,3347.54,0.02,291312.10,1878.71,-0.03,101848.88,2296.98,0.01,12136.52,2067.33,0.06,9751.08
970300,778.34,728.61,1.00,1,1,1,5661.34,0.07,317680.77,5147.16,-0.00,120911.09,4514.88,-0.05,176987.97,2283.29,-0.04,7035.98,2054.36,0.07,1136.24
991800,881.58,722.11,1.00,1,1,1,4811.18,-0.06,51697.75,5462.15,-0.09,25819.63,5792.48,-0.03,59625.50,2205.36,-0.05,3932.55,1972.86,0.08,4033.60
1006800,976.95,711.20,1.00,1,1,1,6399.54,-0.11,107560.77,6605.62,-0.06,76936.44,4602.79,-0.06,79915.33,2889.62,-0.01,46077.52,1895.18,0.07,5453.47
1020900,1073.44,710.30,1.00,1,1,1,6843.52,-0.01,58303.81,3494.52,-0.00,221488.33,2611.62,-0.07,141251.15,2398.16,0.00,34965.85,1822.97,0.02,7623.75
1034900,1075.14,710.73,1.00,1,1,1,125.57,0.25,480147.44,664.78,-3.12,297081.87,1225.57,0.14,102563.46,1850.87,-0.02,39266.57,2060.29,0.00,17250.94
1056400,1049.84,709.85,1.00,1,1,1,1177.49,-3.11,60491.12,669.17,2.65,15563.59,474.65,2.79,77217.49,1466.96,0.01,17998.28,2190.54,-0.02,6526.93
1070400,1054.16,721.87,1.00,1,1,1,911.94,1.23,124008.04,405.39,2.28,23363.36,262.81,2.60,15886.81,1322.04,0.07,12015.34,2345.22,-0.03,11076.61
1099000,1038.60,722.96,1.00,1,1,1,545.60,3.07,41366.35,35.81,0.23,14790.83,558.38,0.32,26465.99,1294.24,0.05,1155.74,2037.28,-0.03,10767.13
1120300,1055.90,722.28,1.00,2,2,2,813.05,-0.04,63779.04,1473.61,0.01,67544.72,1403.95,0.02,41566.63,1838.19,0.05,25541.30,1798.51,-0.04,11241.38
1134900,1091.50,723.50,1.00,2,2,2,2439.46,0.03,111624.37,3767.66,0.02,157129.21,3407.44,-0.01,137306.00,2177.27,0.00,23979.34,1695.94,-0.01,7719.59
1149200,1164.77,723.98,1.00,3,3,3,5124.37,0.01,187881.87,5861.24,-0.02,146855.62,4897.73,0.00,104314.75,1898.61,-0.05,20896.12,1270.93,0.04,30232.14
1163200,1257.34,720.29,1.00,1,1,1,6617.04,-0.04,108353.11,6040.09,-0.00,14388.38,4188.74,-0.05,53087.42,1713.97,-0.07,13450.50,597.93,0.04,48072.95
1177800,1337.52,723.33,1.00,1,1,1,5495.74,0.04,83239.55,2881.68,-0.09,217637.04,2399.01,-0.09,122935.72,1749.44,-0.06,2949.72,187.36,0.01,28126.36
1199300,1360.97,711.23,1.00,1,1,1,1227.39,-0.48,207810.15,442.14,-0.81,119341.13,586.92,-0.29,85046.03,1903.46,-0.03,7595.57,51.64,-2.68,10927.52
1227900,1352.84,707.33,1.00,1,1,1,315.38,-2.69,50339.45,864.52,-3.00,41211.53,167.57,-1.84,21222.50,1229.60,0.02,23677.76,229.70,-2.69,6225.78
1258100,1310.64,704.12,1.00,1,1,1,1401.46,-3.07,36870.60,390.18,-3.13,15888.19,340.06,0.15,14441.02,51.77,-0.35,39122.17,107.23,-1.85,5858.19
1278900,1332.94,707.02,1.00,1,1,1,1081.37,0.13,119325.05,2363.75,0.14,132271.08,341.70,0.69,8827.87,1125.69,-3.08,56410.63,117.49,-2.33,2593.74
1293100,1392.53,715.89,1.00,2,2,2,4242.38,0.15,222624.39,1135.79,0.44,92863.78,544.51,2.86,55543.52,1892.08,-3.12,54075.01,278.08,-2.78,12652.95
1322400,1377.70,727.93,1.00,0,0,0,651.82,2.46,160644.45,2518.76,3.13,122081.07,2511.55,3.12,67932.60,2303.80,-3.09,14130.99,500.46,-2.98,8015.65
1343300,1266.09,717.08,1.00,1,1,1,5365.51,-3.04,235555.24,6914.09,-3.07,210872.92,4560.02,-3.10,98482.04,1877.66,-3.10,20389.81,777.51,-3.06,13497.14
1357500,1135.58,711.39,1.00,1,1,1,9199.40,-3.10,271281.88,8201.25,-3.08,90694.41,6140.35,-3.04,113512.38,2102.84,-3.11,15934.83,922.27,-3.06,10198.61
1371500,1035.27,702.61,1.00,1,1,1,7192.73,-3.05,145566.77,5196.81,-3.00,217974.76,3679.06,-3.03,175854.98,2646.64,-3.08,39052.68,1024.76,-3.09,7646.52
1386000,989.02,690.06,1.00,1,1,1,3305.05,-2.88,274677.66,353.05,-2.04,345017.35,1621.47,-3.00,142014.49,2826.97,-3.06,12968.43,1049.28,-3.09,1691.14
1408000,1029.48,691.10,1.00,1,1,1,1839.66,0.03,232314.61,1185.63,0.15,64495.54,367.41,-2.75,57667.13,1931.63,-3.08,40732.92,893.77,-3.11,7145.21
1422300,1031.58,696.44,1.00,1,1,1,401.34,1.20,120496.23,575.40,3.00,121997.53,438.54,0.34,56338.58,668.78,-3.01,88489.44,916.04,3.14,2512.63
1436700,1013.13,693.46,1.00,1,1,1,1297.82,-2.98,107068.03,562.28,2.95,2018.77,242.88,2.40,41245.66,56.33,-1.35,46952.13,1193.81,-3.13,19333.58
1450800,1015.84,699.45,1.00,1,1,1,466.28,1.15,113697.07,267.35,1.03,49683.93,116.31,0.24,22858.61,329.14,0.03,22900.73,1126.39,-3.11,4983.20
1472000,1017.98,701.56,1.00,1,1,1,141.56,0.78,15941.77,490.73,-0.03,20284.79,302.88,0.05,8964.48,136.81,0.31,9495.40,790.66,-3.10,15839.12
1501000,1040.46,698.66,1.00,1,1,1,781.84,-0.13,24262.38,463.08,-0.35,5221.70,279.31,-0.38,4359.69,280.71,0.29,4962.97,323.83,-3.02,16166.19
1515800,1037.06,694.68,1.00,1,1,1,353.52,-2.28,68882.06,292.28,-2.08,39582.83,383.38,-0.15,8682.34,284.87,0.45,2966.73,53.63,0.07,25499.47
1529900,1036.37,691.27,1.00,1,1,1,247.05,-1.77,12963.50,317.22,0.21,39327.94,480.60,0.31,15415.29,408.43,0.33,9218.98,204.28,0.01,10691.67
1551800,1048.23,697.04,1.00,1,1,1,602.51,0.45,35511.86,1051.18,0.46,34178.95,325.47,0.91,12800.88,231.28,0.23,8217.58,62.55,-2.90,12126.32
1565800,1070.13,708.12,1.00,1,1,1,1753.11,0.47,82193.72,503.34,1.45,62926.03,686.23,0.66,27076.13,22.24,0.45,14973.58,7.34,-1.99,4167.78
1580100,1049.94,711.18,1.00,1,1,1,1428.57,2.99,212040.47,363.86,1.45,9754.31,189.97,1.39,39061.00,113.74,0.58,6416.69,122.86,0.02,8818.86
1594500,1071.36,718.49,1.00,1,1,1,1571.72,0.33,202412.67,60.41,-1.32,29226.36,355.59,-2.85,32906.26,95.41,-0.02,4514.91,291.58,-0.03,11733.73
1616200,1050.47,709.07,1.00,1,1,1,1055.96,-2.72,120959.52,670.93,-2.56,30117.04,95.81,-1.48,16110.52,244.90,-2.87,15540.63,567.41,0.05,12802.70
1644500,1043.34,700.04,1.00,1,1,1,406.53,-2.24,25439.26,126.49,-1.54,21714.78,335.63,-2.18,9534.63,265.78,-2.81,908.39,742.20,0.02,6208.97
1659000,1050.65,703.66,1.00,1,1,1,562.67,0.46,65252.37,251.81,-0.81,12317.83,488.09,-2.62,16122.01,104.44,-1.52,17752.22,742.05,0.04,1138.56
1694800,1052.09,690.88,1.00,1,1,1,359.11,-1.46,21330.27,861.38,-2.73,27310.29,176.53,-2.72,8743.10,247.34,-0.57,5710.44,805.82,0.08,1933.19
1708900,1011.21,686.58,1.00,2,2,2,2915.72,-3.04,208540.64,772.05,2.98,33273.13,112.58,-1.55,11991.57,882.26,0.01,48834.41,703.08,0.09,7334.87
1722900,1030.69,694.42,1.00,3,3,3,1500.16,0.38,312693.43,1150.37,0.19,135287.98,846.91,0.11,61684.43,1470.76,0.02,42041.69,491.63,-0.02,15820.53
1744000,1050.88,694.09,1.00,3,3,3,957.05,-0.02,34201.79,2123.25,0.03,47564.20,2818.98,0.13,93480.43,1362.97,0.00,5178.69,572.64,-0.04,3872.90
1758100,1105.40,696.61,1.00,1,1,1,3870.46,0.05,206801.96,4898.67,0.12,197830.67,3478.78,0.04,51025.04,1728.94,0.09,27498.24,547.87,-0.12,3588.30
1772200,1188.10,710.05,1.00,1,1,1,5942.36,0.16,152051.01,5147.37,0.05,30502.90,3176.44,0.05,21574.58,1751.10,0.12,4732.21,600.31,-0.06,4320.85
1786700,1252.46,703.36,1.00,1,1,1,4462.36,-0.10,138565.78,1841.74,-0.09,229721.50,2605.66,0.08,39803.16,1274.64,0.06,33524.75,410.19,-0.01,13240.94
1807900,1253.60,704.31,1.00,1,1,1,70.07,0.69,208194.41,555.91,0.34,63957.05,888.14,0.10,81027.20,1227.84,0.06,2210.61,178.53,0.08,10983.67
1821800,1270.85,709.88,1.00,1,1,1,1304.03,0.31,89156.25,309.39,1.29,32444.20,370.71,3.07,90299.98,931.55,0.02,21556.90,153.73,2.97,23716.91
1850500,1257.30,716.96,1.00,1,1,1,532.58,2.66,59925.48,994.80,-3.05,39859.66,365.21,3.13,767.01,302.10,-0.29,22634.10,189.88,3.10,1473.81
1872300,1220.80,705.52,1.00,1,1,1,1754.49,-2.84,65512.18,970.25,-2.78,12577.72,445.89,-2.83,7052.32,597.80,-3.09,40769.08,207.62,-3.06,1371.70
1886100,1225.04,704.60,1.00,1,1,1,314.57,-0.21,147383.31,649.47,-0.37,109907.88,522.53,-2.54,11395.12,1057.04,3.12,33529.58,119.17,3.04,6713.11
1900100,1237.65,699.05,1.00,1,1,1,984.34,-0.41,48501.67,278.37,-0.98,32299.19,906.25,-3.03,36293.62,1663.14,-3.10,43750.74,350.30,-3.11,16618.42
1915000,1229.50,697.90,1.00,2,2,2,552.97,-3.00,99552.40,2054.64,-3.14,149051.65,1893.27,3.12,67336.91,1856.71,-3.05,14142.68,487.85,-3.07,9286.20
1936400,1163.07,699.03,1.00,3,3,3,3104.41,3.12,119611.80,3555.60,3.06,70820.84,2883.57,-3.14,46381.46,1621.66,-3.08,11217.42,738.01,-3.10,11719.06
1950800,1102.59,707.74,1.00,1,1,1,4243.69,3.00,85257.16,3583.35,-3.14,20332.30,2764.96,-3.11,9993.30,1336.78,-3.11,20014.53,763.71,-3.10,1807.83
1979400,1008.99,698.37,1.00,1,1,1,3289.04,-3.04,46002.08,2345.86,-3.02,44939.66,2118.39,-3.09,22652.52,1368.30,-3.12,1173.73,877.26,-3.07,4025.47
2015000,953.14,689.10,1.00,1,1,1,1590.22,-2.98,47899.93,860.09,-2.93,41876.93,951.85,-3.03,32878.43,1108.30,3.14,7384.75,853.83,-3.05,806.69
2028900,967.35,689.48,1.00,1,1,1,1022.83,0.03,187562.92,2244.64,0.14,223234.67,168.99,-2.81,56655.69,860.78,-3.11,18038.97,769.31,-3.06,6081.46
2043000,1015.42,697.56,1.00,1,1,1,3456.78,0.17,173627.69,519.14,0.13,122375.67,1011.29,0.13,83498.84,524.06,-2.98,24616.38,621.49,-3.12,10944.88
2078900,993.08,692.92,1.00,1,1,1,635.49,-2.94,113980.05,326.25,0.10,5386.16,621.90,0.09,10875.25,126.44,-2.76,11190.33,773.42,3.12,4303.00
2093400,1031.78,699.21,1.00,1,1,1,2703.84,0.16,230264.87,803.82,0.05,32992.52,54.37,-1.88,44488.01,301.54,0.11,29294.37,914.98,3.05,10663.27
2107400,1015.97,693.97,1.00,1,1,1,1189.97,-2.82,277382.98,653.85,-2.83,103195.09,62.26,-2.53,2719.17,164.24,-0.16,10757.33,1178.39,3.08,18998.42
2121800,1014.12,693.48,1.00,1,1,1,132.86,-2.88,73430.74,742.58,-3.02,10942.87,562.64,-3.00,35264.17,160.28,0.13,3277.53,1235.67,3.13,5760.10
2142900,989.81,690.64,1.00,1,1,1,1159.53,-3.03,48728.96,505.69,3.11,12105.25,409.09,-2.82,8291.28,80.50,1.96,9358.67,1050.50,3.14,8778.79
2157800,995.92,694.02,1.00,1,1,1,468.13,0.51,107555.15,171.70,-1.41,37860.13,387.38,0.28,53445.22,689.03,2.88,43151.06,775.89,3.07,18930.63
2172600,990.64,685.61,1.00,1,1,1,670.94,-2.13,74604.69,1482.22,0.15,100695.65,163.89,1.66,26402.18,1564.71,3.03,60069.03,699.64,3.03,5436.70
2186700,1038.27,700.46,1.00,1,1,1,3538.54,0.30,288783.87,365.05,1.68,107222.35,850.34,2.66,54908.88,2058.13,3.09,35851.43,757.64,3.04,4130.22
2222100,988.66,703.57,1.00,3,3,3,1404.21,3.08,137744.04,2102.76,2.91,56735.37,2566.58,2.97,50149.43,2112.40,3.11,2200.10,743.64,3.03,443.95
2236400,936.67,724.94,1.00,3,3,3,3930.73,2.75,184621.06,6874.72,3.06,336157.74,3909.97,3.11,99089.60,1844.34,3.10,18863.49,902.06,3.12,12097.18
2250600,793.41,719.98,1.00,1,1,1,10094.42,-3.11,472634.28,6545.38,-3.08,72937.22,4682.88,-3.13,56052.00,1485.63,3.03,26582.48,791.02,3.12,7827.82
2271700,706.07,710.47,1.00,1,1,1,4163.94,-3.03,281976.52,3025.68,-2.95,168987.57,3177.38,-3.05,72836.68,1550.88,3.06,3905.64,642.14,3.12,7056.11
2286700,686.17,699.24,1.00,1,1,1,1523.15,-2.63,188581.67,884.45,-0.19,257379.83,458.16,-2.93,181509.50,1442.71,3.08,7444.55,430.78,3.04,14338.44
2301200,731.69,705.54,1.00,1,1,1,3169.09,0.14,318599.60,1658.16,0.18,61688.31,955.26,0.14,97431.45,1120.81,-3.04,26600.30,300.17,3.01,9059.56
2330500,757.59,712.43,1.00,1,1,1,914.78,0.26,77267.84,1037.45,0.30,21857.21,1195.24,0.18,8328.84,182.64,-2.37,33567.48,203.09,2.60,4738.65
2352300,782.29,721.35,1.00,1,1,1,1204.62,0.35,13932.37,636.67,0.19,18898.56,296.10,0.03,41454.99,584.75,-0.12,32730.32,379.04,2.99,9450.92
2366800,780.31,716.69,1.00,1,1,1,349.29,-1.97,101033.49,633.30,-2.56,85869.06,227.31,-0.76,14640.63,974.42,0.03,28010.11,267.81,3.04,7754.99
2395300,759.54,706.38,1.00,2,2,2,813.45,-2.68,20812.97,398.99,-2.02,12446.27,364.72,-0.77,4821.43,939.83,0.01,1351.63,89.10,-2.44,7555.33
2416300,771.67,698.93,1.00,3,3,3,677.85,-0.55,62197.61,962.65,-0.18,54161.97,811.73,-0.17,26150.87,1080.04,0.04,6820.66,367.10,-0.19,20414.43
2445000,806.62,697.87,1.00,1,1,1,1218.45,-0.03,24915.65,1927.14,0.06,35444.34,1652.57,0.01,30161.84,865.41,-0.02,7715.73,587.01,-0.10,7817.45
2459200,854.20,703.81,1.00,1,1,1,3376.48,0.12,153564.13,2658.47,0.10,51890.12,2099.52,0.12,35118.45,818.40,-0.04,3547.37,640.34,-0.00,5579.22
2480300,900.01,707.13,1.00,1,1,1,2176.76,0.07,57248.20,2318.96,0.19,19324.64,1773.63,0.19,16496.30,1097.88,0.01,13416.82,447.75,-0.06,9230.41
2494500,934.59,719.26,1.00,1,1,1,2580.57,0.34,52469.45,746.55,0.59,116707.92,852.59,0.14,64973.50,931.78,-0.01,11736.40,145.19,-0.38,22060.29
2508700,917.62,718.93,1.00,1,1,1,1194.98,-3.12,262981.84,944.60,-2.86,117706.77,279.44,0.03,40540.03,590.33,-0.06,24247.01,332.93,-2.88,32244.63
2523400,908.37,711.65,1.00,1,1,1,801.05,-2.47,50138.51,389.28,-1.71,58745.70,571.54,-2.53,55793.77,239.47,-0.15,23957.17,805.12,-3.02,32494.08
2537900,916.09,707.67,1.00,1,1,1,599.17,-0.48,81576.51,394.81,-1.86,4067.12,479.61,-2.37,8754.04,185.11,-2.77,28311.91,1197.29,-3.04,27079.63
2558800,904.45,698.23,1.00,1,1,1,717.26,-2.46,52838.13,597.33,-2.60,19520.79,306.35,-2.58,9180.46,957.00,-2.97,37161.72,1403.16,-3.06,9909.66
2587600,890.63,692.42,1.00,1,1,1,520.65,-2.74,9070.14,381.65,3.10,12048.34,493.44,-2.90,7756.13,1622.55,-3.04,23302.97,1626.30,-3.06,7748.06
2601900,888.01,698.85,1.00,2,2,2,485.93,1.96,50107.93,454.16,2.82,9684.48,1328.25,-3.12,59745.98,2569.29,-3.08,66388.90,1626.26,-3.07,1805.64
2622800,875.46,697.48,1.00,2,2,2,603.98,-3.03,31756.95,2456.21,-3.11,97428.16,3166.16,3.13,88009.90,3370.28,-3.07,38337.89,1616.14,-3.09,1150.75
2638100,799.14,696.04,1.00,2,2,2,4989.29,-3.12,286805.24,6429.54,-3.13,259754.76,5349.53,-3.11,143297.09,3712.60,-3.08,22514.01,1685.37,-3.07,5031.85
2652300,685.80,695.57,1.00,3,3,3,7981.70,-3.14,210833.45,8986.26,-3.11,180489.20,7109.56,-3.08,124400.74,4048.02,-3.08,23626.98,1605.77,-3.05,5934.38
2666900,540.48,687.36,1.00,1,1,1,9969.26,-3.09,139825.87,7676.81,-3.05,95280.92,6641.24,-3.07,32820.38,3663.99,-3.09,26375.37,1540.38,-3.06,4659.19
2688300,410.55,670.70,1.00,1,1,1,6120.94,-3.01,181689.86,4768.40,-3.01,136399.18,4933.73,-3.03,80367.24,3025.48,-3.11,29955.50,1666.68,-3.07,5918.85
2702700,371.23,665.05,1.00,1,1,1,2758.61,-3.00,233535.16,1596.86,-2.93,220830.00,1990.06,-3.04,204422.19,2411.12,-3.10,42665.53,1563.72,-3.10,7961.53
2717800,364.53,660.65,1.00,1,1,1,530.87,-2.56,151579.43,1387.36,0.21,197629.70,333.42,0.42,152924.08,1590.89,-3.06,54648.13,1530.82,-3.14,4518.06
2732200,411.26,673.60,1.00,1,1,1,3367.20,0.27,269176.69,1449.23,0.29,8965.39,988.93,0.22,46212.99,622.08,-3.01,67359.08,1422.08,3.14,7563.69
2768500,434.93,681.69,1.00,1,1,1,689.18,0.33,73816.54,759.51,0.24,19061.83,712.83,0.20,7626.49,6.15,-2.47,16992.34,1415.03,3.13,446.20
2783400,449.05,682.75,1.00,1,1,1,950.51,0.07,22315.11,191.52,-2.04,60154.77,316.76,0.02,27183.85,364.40,0.22,24827.76,1157.29,3.12,17345.73
2813000,431.05,674.11,1.00,1,1,1,674.83,-2.69,53986.97,259.10,-2.30,2983.95,373.77,-2.71,22840.88,544.65,0.35,6397.01,827.37,-3.13,11212.55
2827500,441.44,674.23,1.00,1,1,1,716.88,0.01,93714.72,732.36,-2.96,37936.54,264.83,-2.91,8655.15,429.64,0.38,7981.80,392.47,-3.08,30052.11
2842500,409.81,670.11,1.00,1,1,1,2126.20,-3.01,189291.03,375.32,2.87,28574.57,347.08,0.82,39085.04,317.00,0.47,7874.58,132.77,0.49,34415.78
2863500,428.42,677.83,1.00,2,2,2,959.28,0.39,145832.46,1186.94,0.51,70359.49,645.95,0.63,14853.64,181.77,0.98,8602.33,346.09,0.25,10451.30
2877800,446.39,690.55,1.00,3,3,3,1539.41,0.62,44734.97,1786.87,0.42,42868.84,1114.24,0.46,34331.73,183.32,0.90,933.62,361.10,0.26,1080.94
2892200,475.18,698.89,1.00,1,1,1,2081.63,0.28,55900.52,1029.95,0.38,52698.41,686.64,0.65,31851.03,147.35,2.85,19050.39,199.81,0.24,11203.25
2906600,473.90,701.64,1.00,1,1,1,210.55,2.01,147506.67,356.08,2.68,89904.26,35.89,1.87,46881.35,281.73,0.49,27791.99,110.17,-0.32,8434.84
2928000,463.75,704.54,1.00,1,1,1,493.21,2.86,18193.44,823.07,-2.84,28838.61,719.85,-2.81,33741.42,325.97,0.28,3668.66,68.01,-2.27,6991.87
2942500,445.71,692.77,1.00,1,1,1,1485.21,-2.56,84155.00,1123.64,-2.62,25043.79,389.34,-2.73,22988.13,170.47,-0.08,12213.18,21.23,2.53,4780.91
2971700,421.07,680.26,1.00,1,1,1,946.52,-2.67,18964.79,81.99,-1.63,37035.98,213.60,-0.95,16478.77,81.70,-2.00,7283.95,113.08,2.96,3223.83
2986200,445.51,689.20,1.00,1,1,1,1795.12,0.35,188774.07,1485.39,0.20,103985.82,320.43,-0.17,15578.75,215.84,-1.88,9322.38,66.59,2.41,4568.15
3007800,473.67,690.68,1.00,1,1,1,1305.17,0.05,30923.39,702.87,-0.03,37744.04,771.03,0.16,22184.36,318.03,-2.21,6198.99,38.79,1.91,1725.97
3022400,470.95,688.46,1.00,1,1,1,240.33,-2.46,103142.11,148.32,-2.52,56548.00,396.83,-0.74,41666.38,156.45,-2.49,11831.89,56.39,-2.77,4759.09
3036300,470.24,688.21,1.00,1,1,1,54.26,-2.80,13674.78,625.00,-1.95,36452.56,679.80,-2.59,63134.78,84.88,3.12,7560.63,142.03,-2.84,6178.66
3050700,464.47,672.00,1.00,1,1,1,1194.54,-1.91,80626.24,1102.07,-2.60,49620.35,585.11,-2.90,15200.79,311.02,-3.04,15770.82,175.61,-2.81,2356.60
3072200,436.38,667.74,1.00,2,2,2,1321.77,-2.99,60325.28,766.49,3.00,32795.36,634.30,-3.02,4035.33,313.45,-3.10,978.67,223.56,-2.80,2231.81
3101400,426.02,677.60,1.00,1,1,1,489.67,2.38,37411.38,496.91,2.73,10833.16,707.64,2.97,7045.36,234.08,-3.03,2800.92,182.21,-2.93,1697.70
3136600,407.07,680.61,1.00,1,1,1,544.94,2.98,8860.41,647.83,2.95,5528.99,261.51,2.08,16469.28,217.57,-3.06,513.88,102.38,-3.09,2348.58
3150900,394.57,683.86,1.00,1,1,1,903.68,2.89,25540.38,683.18,0.44,88380.81,71.87,1.07,16197.15,254.36,2.90,5870.89,164.78,-2.96,4534.82
3164800,424.49,688.84,1.00,1,1,1,2182.21,0.16,217978.62,698.86,0.00,21799.70,312.00,0.19,19581.16,240.28,2.82,1706.08,111.38,-2.89,3888.21
3200800,429.44,683.87,1.00,1,1,1,194.88,-0.79,57646.14,152.21,-0.49,15810.36,326.00,-0.03,1973.72,234.41,3.05,1529.60,70.58,0.11,5043.65
3215700,431.32,685.19,1.00,1,1,1,154.20,0.61,15224.84,317.33,-3.05,30358.46,359.38,-2.85,45414.60,123.07,-3.03,7812.39,232.95,0.18,10911.61
3229800,420.28,683.04,1.00,1,1,1,798.13,-2.95,66742.61,1222.14,-3.01,64192.97,700.04,-3.07,25327.11,29.47,-1.82,8220.75,302.01,0.36,5974.73
3243800,397.26,680.79,1.00,1,1,1,1651.61,-3.04,61456.01,1092.27,-3.07,10518.72,662.84,-2.99,4764.77,105.56,-0.42,7491.05,387.58,0.33,6168.53
3258100,389.44,680.93,1.00,1,1,1,547.36,3.12,77598.14,223.14,-2.87,61168.18,346.79,-3.01,22110.80,450.40,0.11,25397.87,404.94,0.24,2577.05
3279400,389.60,678.69,1.00,1,1,1,105.74,-1.50,26615.78,85.34,-0.37,13896.97,540.12,0.03,41584.70,798.01,0.14,16346.05,509.24,0.16,5210.15
3308000,393.40,679.38,1.00,3,3,3,135.12,0.18,6304.39,1167.64,0.07,38147.53,1218.49,0.10,23793.18,958.99,0.17,5687.54,542.72,0.14,1247.22
3322400,439.70,682.09,1.00,1,1,1,3220.20,0.06,214316.09,2806.82,0.12,113991.46,1974.43,0.15,52773.76,1090.40,0.17,9128.15,471.35,0.15,4963.24
3343900,493.49,691.03,1.00,1,1,1,2536.52,0.16,34787.62,2941.82,0.18,11092.06,2532.16,0.16,26007.86,1087.32,0.17,143.35,405.43,0.16,3082.76
3358500,544.10,701.55,1.00,1,1,1,3540.15,0.21,69239.48,2202.92,0.24,51612.13,1758.05,0.22,53576.45,1132.67,0.16,3237.34,365.38,0.20,2958.35
3372900,555.51,706.36,1.00,1,1,1,860.12,0.40,187583.84,334.53,0.59,131390.65,908.93,0.31,59483.48,1147.49,0.16,1210.10,547.13,0.23,12643.26
3388000,552.29,707.06,1.00,1,1,1,218.20,2.93,69299.06,376.87,3.07,44550.72,121.17,0.33,52172.16,891.36,0.21,17298.69,972.31,0.19,28203.10
3402600,544.35,707.17,1.00,1,1,1,544.06,3.13,22796.11,82.70,-1.79,25582.66,11.60,-0.03,7559.68,362.06,0.22,36255.27,1445.77,0.17,32486.52
3424200,551.63,704.14,1.00,1,1,1,365.18,-0.40,41364.76,245.14,-0.07,12522.12,167.20,0.18,7216.03,47.54,2.25,17837.36,1878.00,0.14,20156.27
3452000,556.43,706.34,1.00,1,1,1,190.01,0.43,9872.09,344.44,0.37,5810.36,53.84,-1.56,6621.75,185.12,0.49,7176.04,2137.48,0.09,9939.48
3466500,565.20,709.45,1.00,1,1,1,641.46,0.34,31208.54,348.88,-2.84,47786.38,136.05,2.88,10996.55,878.23,0.22,48387.14,1922.85,0.08,14938.43
3488100,544.41,702.57,1.00,1,1,1,1013.51,-2.82,76614.88,507.10,-3.06,8547.70,357.59,0.51,21528.96,1734.81,0.17,39753.29,1735.03,0.06,8833.93
3517600,539.36,707.45,1.00,2,2,2,238.08,2.37,31429.58,930.54,0.44,47985.57,1428.78,0.22,36951.23,2506.77,0.13,26316.16,1575.80,0.06,5397.65
3532300,581.55,720.26,1.00,2,2,2,2999.06,0.29,212368.58,3390.84,0.20,169930.50,3325.83,0.19,129169.13,3041.80,0.07,38434.65,1430.28,0.07,9981.29
3567900,706.50,741.42,1.00,1,1,1,3560.00,0.17,19591.13,5496.53,0.15,59509.32,5647.10,0.12,65683.69,2830.94,0.04,6330.84,1342.15,0.07,2475.65
3581800,850.71,760.00,1.00,1,1,1,10460.11,0.13,496716.87,9732.21,0.07,307376.10,5842.40,0.04,36507.06,2992.26,0.04,11609.13,1353.51,0.06,1478.75
3595900,978.34,760.49,1.00,1,1,1,9051.83,0.00,131604.52,6579.49,-0.12,247743.76,5107.59,-0.04,60926.71,3358.71,0.05,26025.74,1397.97,0.10,4739.15
3610300,1036.91,737.88,1.00,1,1,1,4360.33,-0.37,363611.32,1776.56,-0.54,348241.11,2652.81,-0.23,176919.35,2707.74,0.04,45209.52,1528.39,0.10,9073.17
3631900,1033.09,727.43,1.00,1,1,1,514.91,-1.92,202857.91,718.43,-2.45,98251.42,795.14,-0.65,90406.18,1939.09,-0.01,36047.66,1608.28,0.09,3804.70
3646200,1017.12,721.34,1.00,1,1,1,1195.30,-2.78,65846.04,477.60,2.99,37585.13,368.55,3.12,78017.93,926.39,-0.20,73034.11,1561.45,0.11,3841.72
3660700,1019.49,729.48,1.00,1,1,1,584.44,1.29,111487.25,451.68,2.07,28448.38,598.20,2.91,17148.66,138.54,-0.78,56132.14,1332.11,0.11,15839.29
3689800,1007.62,738.60,1.00,1,1,1,514.20,2.49,21395.96,666.81,2.88,16571.81,459.14,2.82,5080.73,160.10,2.43,10255.88,864.80,0.09,16077.87
3712200,986.29,738.29,1.00,1,1,1,952.16,-3.13,28348.76,708.94,-2.93,14480.36,394.36,2.58,5337.26,228.01,0.92,12087.95,106.89,0.01,33853.65
3726600,982.12,733.09,1.00,1,1,1,463.10,-2.25,51925.89,354.39,0.90,69976.74,278.62,0.90,35255.39,230.39,1.88,14711.15,505.94,-3.00,42502.72
3741100,992.63,746.34,1.00,1,1,1,1166.22,0.90,112366.27,1417.47,0.50,75953.18,1156.85,0.21,66022.45,672.00,2.91,40553.42,902.40,-3.03,27382.96
3756300,1019.16,753.09,1.00,1,1,1,1801.30,0.25,73910.85,2037.46,0.10,59532.33,528.12,0.65,46888.44,1338.40,3.11,45559.36,1092.36,-3.10,13450.33
3770500,1052.20,752.60,1.00,2,2,2,2326.97,-0.01,53029.10,400.22,-3.05,171663.71,1044.92,3.06,104380.66,1806.25,3.13,32987.46,996.93,-3.14,7136.54
3786200,1007.24,752.05,1.00,2,2,2,2863.95,-3.13,330602.20,3466.50,-3.14,195397.91,2873.58,-3.09,117331.15,1765.80,3.13,2587.63,842.77,3.12,9945.95
3807700,923.25,751.79,1.00,3,3,3,3906.55,-3.14,48513.17,4945.36,-3.09,69237.11,3951.12,-3.11,50177.27,1795.54,-3.08,6333.91,837.68,-3.14,1140.74
3821900,830.89,743.69,1.00,1,1,1,6529.20,-3.05,187106.80,4375.32,-3.09,40196.09,3051.85,-3.10,63398.31,1975.41,-3.06,13187.52,851.92,-3.11,1813.51
3850400,736.70,741.77,1.00,1,1,1,3305.83,-3.12,113626.55,2026.08,-3.10,82434.17,2332.48,-3.04,25764.28,1895.52,-3.06,2844.59,1110.46,-3.12,9073.84
3887800,697.51,737.66,1.00,1,1,1,1053.49,-3.04,60368.93,681.30,-2.78,37259.81,1364.83,-3.00,25933.34,1443.65,-3.05,12098.28,1471.08,-3.13,9649.40
3902400,703.51,729.37,1.00,1,1,1,700.45,-0.94,104695.19,418.78,-1.28,53128.34,242.77,-2.41,80202.86,1001.53,-3.00,30492.49,1892.19,-3.09,29135.73
3917900,701.13,725.58,1.00,1,1,1,288.85,-2.13,41941.58,362.72,-0.20,26123.41,619.06,-0.20,50850.50,489.18,-2.99,33064.36,2248.05,-3.07,23088.67
3946700,719.26,726.20,1.00,1,1,1,629.93,0.03,28718.05,899.84,0.05,19267.32,592.25,-0.03,3794.33,514.56,-3.00,906.53,2429.12,-3.07,6305.95
3967900,746.07,727.63,1.00,2,2,2,1266.59,0.05,30042.26,891.97,0.06,671.69,582.06,0.11,3839.71,1143.38,-3.08,29789.18,2188.21,-3.05,11543.53
3981800,750.51,728.03,1.00,2,2,2,320.80,0.09,68065.02,104.23,1.41,62967.34,1006.74,3.08,113919.33,2000.66,-3.10,61732.53,1876.38,-3.03,22584.90
3996400,746.55,730.56,1.00,2,2,2,322.07,2.57,41667.71,3323.62,3.12,228742.13,3334.44,-3.14,159637.39,2558.33,-3.09,38237.08,1578.58,-3.03,20397.16
4010500,655.15,730.09,1.00,3,3,3,6482.32,-3.14,440709.42,6040.88,-3.12,193115.92,5191.01,-3.11,131927.76,3163.12,-3.07,43042.22,1300.59,-3.03,19715.85
4031700,533.34,726.80,1.00,1,1,1,5747.87,-3.11,35212.32,6693.35,-3.09,32544.67,6421.29,-3.08,58510.65,3241.85,-3.05,5030.98,1143.38,-3.08,7829.16
4046300,415.86,717.42,1.00,1,1,1,8071.92,-3.06,161066.59,6905.89,-3.04,27935.75,5312.95,-3.05,77276.17,2942.81,-3.04,20540.93,2000.66,-3.10,58772.75
4060200,337.58,706.35,1.00,1,1,1,5687.44,-3.00,174091.35,3604.12,-2.95,239724.52,3177.09,-2.96,155959.47,2915.18,-3.04,2010.53,2558.33,-3.09,40162.68
4074800,315.07,697.61,1.00,1,1,1,1654.15,-2.77,280428.53,509.94,-1.90,231363.99,1141.55,-2.78,141262.39,2141.04,-3.04,53023.45,3163.12,-3.07,41568.17
4096300,331.62,688.94,1.00,1,1,1,868.91,-0.48,107897.86,414.26,-0.60,26222.69,233.63,-1.77,48166.97,3177.09,-2.96,49259.76,3241.85,-3.05,4960.78
4124700,332.10,685.89,1.00,1,1,1,108.60,-1.41,28477.88,54.48,-0.24,12813.36,245.52,0.00,13098.13,1141.55,-2.78,72620.81,2942.81,-3.04,10559.77
4138700,333.86,688.39,1.00,1,1,1,218.69,0.96,21864.76,348.68,1.25,24869.13,54.48,-0.24,13787.69,233.63,-1.77,73970.71,2915.18,-3.04,1996.16
4160300,336.06,697.65,1.00,1,1,1,440.64,1.34,11623.05,440.64,1.34,4570.86,348.68,1.25,16118.88,245.52,0.00,17221.62,2141.04,-3.04,35839.93
