@RELATION gaze_labels

%@METADATA width_px 1920
%@METADATA height_px 1080
%@METADATA width_mm 540.00
%@METADATA height_mm 254.00
%@METADATA distance_mm 620.00


@ATTRIBUTE time INTEGER
@ATTRIBUTE x NUMERIC
@ATTRIBUTE y NUMERIC
@ATTRIBUTE confidence NUMERIC
@ATTRIBUTE handlabeller1 INTEGER
@ATTRIBUTE handlabeller2 INTEGER
@ATTRIBUTE handlabeller_final INTEGER
@ATTRIBUTE speed_1 numeric
@ATTRIBUTE direction_1 numeric
@ATTRIBUTE acceleration_1 numeric
@ATTRIBUTE speed_2 numeric
@ATTRIBUTE direction_2 numeric
@ATTRIBUTE acceleration_2 numeric
@ATTRIBUTE speed_4 numeric
@ATTRIBUTE direction_4 numeric
@ATTRIBUTE acceleration_4 numeric
@ATTRIBUTE speed_8 numeric
@ATTRIBUTE direction_8 numeric
@ATTRIBUTE acceleration_8 numeric
@ATTRIBUTE speed_16 numeric
@ATTRIBUTE direction_16 numeric
@ATTRIBUTE acceleration_16 numeric

%The number after speed, direction denotes the step size that was used for the calculation.
%Acceleration was calculated between two adjacent samples of the already low pass filtered velocity

@DATA
0,788.66,952.76,1.00,1,1,1,0.00,0.00,0.00,622.64,0.57,0.00,506.83,0.54,0.00,326.22,0.39,0.00,556.50,-3.12,0.00
28900,803.77,962.53,1.00,1,1,1,622.64,0.57,21544.50,506.83,0.54,4056.88,244.01,0.33,9461.19,192.83,0.27,4733.77,1147.49,-2.64,24194.47
50200,810.46,965.88,1.00,1,1,1,351.22,0.46,12972.82,244.01,0.33,12837.01,326.22,0.39,3939.91,376.77,-2.93,26734.58,1216.89,-2.21,24282.98
64300,811.95,965.31,1.00,1,1,1,113.09,-0.37,20372.08,152.86,-0.25,10172.87,192.83,0.27,9702.54,655.21,-2.94,19758.93,961.48,-1.20,75940.73
93200,816.82,964.22,1.00,1,1,1,172.72,-0.22,2182.02,152.40,0.19,2309.87,376.77,-2.93,19704.03,556.50,-3.12,4961.19,1569.35,-0.37,40509.03
108200,818.53,966.54,1.00,1,1,1,192.07,0.94,13347.19,1001.65,-3.01,76924.47,655.21,-2.94,18573.39,1147.49,-2.64,46614.68,1775.29,-0.25,18821.93
128700,781.58,959.53,1.00,4,4,4,1834.69,-2.95,96559.77,1676.93,-2.95,33183.51,1817.00,-3.02,56831.92,1216.89,-2.21,25230.61,1235.31,-0.45,29908.30
142900,761.45,955.22,1.00,4,4,4,1449.43,-2.93,27258.81,2829.26,-3.03,82196.93,2805.00,-2.66,89885.36,961.48,-1.20,75405.94,1209.78,-1.60,94081.67
157300,701.15,950.60,1.00,4,4,4,4199.52,-3.07,192354.79,4259.91,-2.53,154665.62,2366.25,-2.08,107406.38,1569.35,-0.37,81299.37,989.05,-2.19,46455.62
172100,659.30,884.24,1.00,4,4,4,5301.10,-2.13,295897.92,3454.06,-1.53,256251.72,2381.75,-0.87,182228.01,1775.29,-0.25,19076.29,1038.17,-2.17,3451.13
193500,706.75,825.69,1.00,4,4,4,3521.66,-0.89,249500.79,5756.32,-0.23,273004.50,4781.76,-0.19,153923.38,1235.31,-0.45,28650.48,611.93,-1.89,22493.58
208200,861.46,836.11,1.00,4,4,4,10547.79,0.07,611740.43,10673.22,0.22,410824.07,5906.23,0.07,120612.42,1209.78,-1.60,90881.62,411.25,-1.52,18615.82
222200,1005.86,891.77,1.00,4,4,4,11054.46,0.37,233824.46,6784.93,0.39,297724.67,3547.44,0.29,183243.26,1870.16,-1.89,56504.63,315.46,-1.21,10510.12
236600,1039.37,910.10,1.00,4,4,4,2652.69,0.50,585581.14,2260.11,-3.13,619668.00,1742.37,-2.80,367241.49,1204.33,-1.67,51656.89,237.15,-1.15,5557.43
257800,925.41,890.64,1.00,4,4,4,5453.50,-2.97,377759.14,8561.27,-2.77,306379.61,6518.73,-2.72,225653.26,420.68,-0.33,55747.79,190.60,-1.24,2390.72
272100,756.49,799.00,1.00,4,4,4,13439.34,-2.64,591668.22,12137.89,-2.63,268507.35,6800.45,-2.72,19979.56,367.73,2.76,55116.92,183.22,-1.58,4479.69
286200,624.79,721.95,1.00,4,4,4,10821.12,-2.61,187728.47,4647.52,-2.59,531564.21,2913.64,-2.68,275833.96,1251.55,-3.12,65534.47,334.36,-0.47,21450.27
300500,643.73,730.39,1.00,1,1,1,1449.93,0.42,857571.77,4440.99,0.57,635496.92,1274.70,0.73,290622.12,1530.59,3.14,19676.69,408.40,0.21,18088.53
321900,757.85,808.16,1.00,1,1,1,6453.19,0.60,235192.49,5936.49,0.62,70580.17,4313.37,0.65,142279.76,1012.19,2.97,26124.42,382.64,0.95,13340.67
336400,817.66,853.55,1.00,1,1,1,5178.25,0.65,90240.62,4185.81,0.74,128097.17,4201.92,0.74,27363.07,746.29,1.53,81034.58,404.56,2.47,37474.02
350300,845.57,888.38,1.00,1,1,1,3211.39,0.90,158761.73,2236.15,1.15,166269.40,1743.57,1.21,199174.68,1716.82,0.87,87423.27,708.32,3.09,32028.75
364600,843.46,911.09,1.00,1,1,1,1594.69,1.66,163872.46,1507.92,2.67,184018.74,982.04,2.40,115733.94,1356.45,0.93,26052.51,673.05,-3.05,7221.52
386200,797.39,913.07,1.00,1,1,1,2134.74,3.10,115086.45,1651.52,-3.07,39676.51,852.16,2.82,18548.55,680.79,1.45,38721.28,83.20,-3.13,27322.51
414800,760.75,905.41,1.00,1,1,1,1308.92,-2.94,32314.47,368.22,-2.91,45078.18,672.41,-3.12,10995.33,455.05,2.28,17578.06,718.26,0.48,27731.00
428800,782.11,909.53,1.00,1,1,1,1553.91,0.19,204481.54,318.69,0.27,49053.62,289.98,3.08,27438.23,279.88,2.83,18536.81,1236.71,0.52,37098.24
464800,776.10,909.68,1.00,2,2,2,166.98,3.12,47705.41,252.82,2.72,14957.80,129.34,0.23,11540.82,113.51,-1.59,9208.67,1136.52,0.53,2817.66
479500,770.39,914.72,1.00,2,2,2,518.04,2.42,27518.94,195.65,-2.80,11850.02,285.96,-0.34,12941.61,680.07,-0.21,45380.53,677.86,0.50,31269.57
494000,770.72,907.77,1.00,3,3,3,479.71,-1.52,63373.87,1236.83,-0.37,95961.10,1073.82,-0.25,54430.51,1243.57,-0.06,40038.10,402.81,0.40,19290.32
508200,803.54,902.03,1.00,3,3,3,2346.63,-0.17,161278.93,2098.19,-0.21,63193.48,2099.18,-0.18,72581.02,1049.14,-0.05,13707.55,217.38,0.15,14054.63
529300,843.17,892.40,1.00,1,1,1,1932.87,-0.24,20695.67,2831.28,-0.12,36319.10,2640.64,-0.08,28139.96,1206.13,-0.07,7493.12,211.32,-0.18,3291.11
543100,901.67,890.45,1.00,1,1,1,4241.65,-0.03,172626.91,3359.04,0.02,49346.94,1919.89,-0.01,53549.69,1233.94,-0.09,2641.26,391.45,-0.11,13115.25
557500,937.87,894.50,1.00,1,1,1,2529.46,0.11,123352.25,1093.85,0.27,160844.19,1371.74,0.07,39125.38,1192.65,-0.06,3714.81,670.93,-0.05,19534.29
579000,939.47,901.12,1.00,1,1,1,316.58,1.33,113477.99,237.44,2.60,59023.20,440.09,0.36,44548.79,803.75,-0.04,18109.62,792.63,-0.10,5847.93
593200,930.59,898.83,1.00,1,1,1,645.61,-2.89,59285.86,379.46,-3.09,15820.85,221.96,2.87,44582.64,478.40,0.13,24069.60,1029.86,-0.11,16744.66
608100,928.44,900.55,1.00,1,1,1,184.43,2.47,37213.60,226.51,-3.07,10273.16,554.12,-3.03,23975.56,94.47,0.92,28048.03,1168.94,-0.10,9382.25
622700,923.92,898.35,1.00,1,1,1,343.86,-2.69,21395.69,728.48,-3.01,34428.29,393.70,3.09,12144.49,44.45,0.25,4505.23,1216.25,-0.05,4922.81
637400,907.29,897.64,1.00,1,1,1,1132.31,-3.10,56341.88,531.55,3.04,16658.84,296.37,-3.13,6808.51,483.45,-0.21,30205.18,1015.05,-0.03,13828.69
659000,904.72,900.24,1.00,2,2,2,169.30,2.35,47505.43,88.55,0.97,26816.44,303.90,-0.12,27725.44,848.70,-0.18,16932.48,901.41,0.01,5552.22
673400,909.09,900.28,1.00,2,2,2,303.31,0.01,30453.66,1367.88,-0.11,92271.84,1405.57,-0.10,76514.60,1104.54,-0.11,18288.84,758.95,0.03,9973.58
687500,943.47,895.94,1.00,3,3,3,2457.57,-0.13,153003.06,3122.67,-0.13,124476.16,2275.21,-0.15,62090.16,1239.84,-0.05,10951.54,603.87,0.01,11063.22
702000,997.68,888.97,1.00,1,1,1,3769.43,-0.13,90474.83,3177.89,-0.17,10054.09,2527.36,-0.10,19647.53,1205.41,-0.02,3343.96,738.89,0.02,9338.45
716200,1033.36,880.53,1.00,1,1,1,2582.26,-0.23,86688.66,2051.65,-0.06,81738.01,2185.50,-0.04,25988.82,1289.74,-0.03,5970.32,739.08,0.04,718.61
737600,1070.59,884.61,1.00,1,1,1,1749.87,0.11,51488.38,1445.83,0.20,35103.44,1048.41,0.06,53606.80,1399.31,-0.01,5182.64,581.02,0.03,7386.50
751700,1083.68,890.67,1.00,1,1,1,1023.20,0.43,59977.10,313.58,0.78,84843.49,669.71,0.26,29295.03,1069.70,0.00,23411.19,359.70,0.05,15709.38
780900,1080.23,894.16,1.00,1,1,1,167.92,2.35,37378.52,135.91,0.74,6091.48,512.79,0.32,5524.65,943.61,0.11,5771.30,201.84,0.13,5455.68
801700,1088.70,895.25,1.00,1,1,1,410.27,0.13,25438.24,815.32,0.11,34117.57,300.26,0.19,10509.38,685.01,0.24,13328.24,26.05,0.69,8662.39
816100,1108.75,897.42,1.00,1,1,1,1400.48,0.11,68772.60,524.57,0.03,20514.73,848.95,0.17,38113.82,207.35,0.73,35553.66,61.09,2.69,5266.20
844000,1110.87,896.00,1.00,1,1,1,91.60,-0.59,47722.38,874.06,0.20,13183.84,701.98,0.21,5403.95,369.75,2.91,18544.89,231.64,3.00,6249.34
866000,1151.47,906.22,1.00,2,2,2,1902.67,0.25,83746.85,922.18,0.33,5513.95,209.97,2.57,39260.25,809.56,3.04,20262.59,422.99,2.98,8702.18
880700,1142.92,906.88,1.00,1,1,1,583.02,3.06,167509.51,1972.34,3.14,194595.27,1289.78,3.05,75332.47,1233.23,3.09,28962.40,552.07,2.96,8809.73
894700,1094.86,906.33,1.00,1,1,1,3433.16,-3.13,203778.11,4043.94,-3.12,148073.59,3203.83,-3.14,137469.00,1490.81,3.09,18407.57,678.64,3.01,9380.48
909400,1026.90,903.94,1.00,1,1,1,4626.16,-3.11,81411.73,4397.94,-3.13,24624.50,3537.50,-3.13,22713.09,1783.64,3.10,19939.12,750.40,3.06,5337.58
924300,964.68,905.36,1.00,1,1,1,4176.46,3.12,34705.63,3145.59,3.13,84149.90,3049.66,3.13,32932.48,2219.72,3.13,29565.19,912.98,3.08,10988.25
946400,910.52,904.98,1.00,1,1,1,2451.15,-3.13,78188.92,1957.44,3.11,53847.24,2279.61,3.13,34845.44,2075.60,3.13,6533.50,1038.68,3.08,5687.87
960800,893.28,907.93,1.00,1,1,1,1214.02,2.97,88469.84,1155.40,3.12,55730.95,1337.95,3.10,65488.85,1672.51,3.13,27993.01,1128.32,3.06,6389.41
974900,877.59,905.56,1.00,1,1,1,1125.59,-2.99,27115.17,544.68,3.08,43375.74,581.16,2.99,54115.85,1219.71,3.11,32152.53,1154.49,3.01,4552.89
989300,877.79,908.84,1.00,1,1,1,228.60,1.51,82935.36,177.81,2.23,31159.98,251.28,3.04,22939.17,1029.11,3.11,13236.78,1255.56,3.03,7168.95
1010400,873.74,910.56,1.00,2,2,2,208.28,2.74,11964.02,26.17,2.13,7193.14,146.42,2.79,5457.73,818.96,3.07,10105.92,1139.09,3.02,5568.82
1024800,877.29,909.63,1.00,2,2,2,254.88,-0.26,32080.03,183.30,-2.80,12449.30,715.16,3.13,40242.85,722.05,2.99,7988.83,859.73,2.99,19470.02
1039100,868.78,908.82,1.00,2,2,2,598.17,-3.05,58887.87,1591.65,-3.13,99260.29,1059.38,3.12,24088.10,545.11,2.71,17511.38,601.63,2.93,18324.40
1053200,832.09,909.28,1.00,3,3,3,2602.04,3.13,142433.60,1780.01,3.09,15242.61,1190.92,2.98,14197.49,408.37,2.46,12713.09,354.64,2.80,18023.01
1074500,805.86,912.21,1.00,1,1,1,1239.35,3.03,64514.18,915.40,2.75,45241.43,944.32,2.70,18327.12,293.25,2.01,9015.05,176.03,2.32,10086.44
1089100,801.68,921.73,1.00,1,1,1,712.37,1.98,73751.25,838.52,1.22,83224.17,507.28,1.43,63710.25,246.29,2.02,3220.06,146.37,2.00,4039.30
1103300,814.06,934.92,1.00,1,1,1,1273.78,0.82,83823.53,1392.83,0.52,65359.07,1048.70,0.53,58657.31,208.64,1.66,6306.67,140.96,1.75,2481.20
1118200,836.83,941.91,1.00,1,1,1,1598.79,0.30,53803.52,1541.94,0.18,35029.82,792.86,0.32,21446.88,278.36,0.74,15129.42,133.66,1.72,584.10
1132500,858.37,942.90,1.00,1,1,1,1507.78,0.05,28013.63,491.90,-0.01,74358.89,653.57,0.07,15713.91,480.84,0.40,16589.70,102.63,1.78,2222.80
1168900,861.77,941.54,1.00,1,1,1,100.47,-0.38,38924.22,172.42,-0.50,9584.52,290.86,-0.05,10070.11,490.40,0.32,1131.78,87.46,2.15,1055.80
1183000,866.01,938.72,1.00,1,1,1,361.49,-0.59,18726.60,90.11,-0.24,6284.01,176.92,-0.04,8081.44,358.61,0.18,10164.03,27.90,2.07,4234.11
1219200,866.17,940.48,1.00,1,1,1,48.95,1.48,10694.28,213.07,0.32,3995.94,186.79,0.32,1851.43,224.49,0.14,3722.69,127.27,-0.07,3985.58
1233500,876.22,942.10,1.00,1,1,1,711.72,0.16,49023.72,385.86,0.54,12841.04,99.21,1.01,8897.73,59.65,-0.36,12186.94,228.85,-0.16,7183.94
1248400,875.85,946.25,1.00,1,1,1,279.27,1.66,50050.31,237.64,2.64,36666.23,150.70,0.82,3795.88,76.43,-1.42,4736.85,276.76,-0.18,3237.92
1262500,870.18,945.41,1.00,2,2,2,406.94,-3.00,35929.39,135.23,2.99,8494.39,138.82,-2.84,19835.06,157.85,-1.62,5978.12,265.61,-0.35,3252.49
1276700,872.07,946.83,1.00,2,2,2,166.62,0.64,39374.23,181.29,-1.97,13908.51,309.09,-2.24,14757.65,275.93,-1.49,8513.54,189.62,-0.59,6616.81
1298200,867.64,939.46,1.00,3,3,3,400.06,-2.11,25949.71,506.51,-2.06,15177.70,459.31,-1.75,11094.80,331.38,-1.73,4246.55,131.87,-0.91,3529.83
1312900,863.42,930.66,1.00,1,1,1,663.59,-2.02,18229.71,801.72,-1.69,25807.10,616.72,-1.65,11236.64,304.03,-1.46,6201.64,127.56,-1.07,1485.05
1327800,864.91,915.88,1.00,1,1,1,996.82,-1.47,37032.48,843.82,-1.35,18583.87,645.23,-1.52,5963.72,308.49,-1.16,6157.71,119.81,-0.87,1764.29
1342000,868.76,906.69,1.00,1,1,1,701.63,-1.17,27089.09,513.81,-1.25,23713.76,445.68,-0.95,25452.71,271.42,-1.25,3216.16,157.59,-0.76,2858.75
1356500,869.56,901.89,1.00,1,1,1,335.87,-1.41,26375.05,321.55,0.04,36318.21,349.10,-0.32,18113.91,228.49,-1.07,4357.36,263.13,-0.50,8118.62
1377600,880.19,907.21,1.00,1,1,1,563.36,0.46,34867.04,508.68,0.40,11133.79,202.76,0.20,9512.87,185.54,-0.93,2427.70,486.45,-0.32,11048.15
1391800,886.11,908.85,1.00,1,1,1,432.76,0.27,11388.85,114.59,0.58,27920.97,194.52,0.57,5146.06,165.76,-0.15,9547.47,742.52,-0.20,18655.19
1420100,884.27,909.87,1.00,1,1,1,74.49,2.64,17268.88,65.98,2.50,5323.87,30.26,1.96,6768.49,197.98,0.18,2363.62,873.88,-0.15,4855.61
1441500,883.49,910.81,1.00,1,1,1,57.16,2.27,1377.38,139.91,-3.05,4727.08,53.73,1.05,1997.42,466.19,0.08,12612.31,1057.94,-0.08,9287.22
1455900,879.28,909.39,1.00,1,1,1,307.75,-2.82,20263.81,176.70,0.34,21823.85,192.27,0.15,11394.06,816.94,-0.03,24836.60,1086.36,-0.03,4149.38
1469900,888.22,912.48,1.00,1,1,1,674.96,0.33,70192.47,615.26,0.14,31693.03,862.66,-0.06,48275.22,1224.68,-0.03,29123.88,1076.32,0.03,4264.79
1484000,896.42,911.72,1.00,2,2,2,583.93,-0.09,19819.36,1414.26,-0.10,58709.27,1648.74,-0.05,55757.06,1541.73,-0.02,22546.03,1072.05,0.05,1841.67
1506000,939.03,907.51,1.00,2,2,2,1946.43,-0.10,61932.52,2236.33,-0.08,37401.02,2409.29,-0.05,34571.68,1915.49,0.02,17173.01,1047.81,0.06,1192.89
1534000,1007.89,903.05,1.00,1,1,1,2464.65,-0.06,18695.40,3246.29,-0.04,36289.99,2398.99,-0.02,2418.84,1976.32,0.04,2794.89,1023.55,0.04,1164.91
1549000,1078.53,902.46,1.00,1,1,1,4709.05,-0.01,150174.64,2564.81,0.02,46730.36,2649.33,0.03,19285.81,1865.20,0.04,7407.81,1005.21,0.03,1337.43
1584800,1138.16,905.74,1.00,1,1,1,1668.20,0.05,85084.39,2149.24,0.12,13399.38,2312.37,0.10,10653.57,1825.81,0.04,1102.52,1072.29,0.03,1880.41
1598800,1184.75,915.56,1.00,1,1,1,3401.45,0.21,126501.63,1911.47,0.31,32125.48,1387.07,0.19,67050.93,1602.46,0.06,16073.76,1182.20,0.04,7884.86
1612800,1189.11,922.14,1.00,1,1,1,563.02,0.99,216167.57,390.77,0.77,112132.45,965.30,0.30,31307.36,1253.60,0.09,25189.21,1214.79,0.03,2348.52
1634400,1194.78,925.21,1.00,1,1,1,298.67,0.50,15306.91,234.67,0.20,10641.74,124.48,0.87,39968.96,781.08,0.14,21989.03,1042.49,0.04,7986.29
1649000,1197.43,923.84,1.00,1,1,1,204.54,-0.48,17117.18,212.76,-2.51,29946.04,57.55,-2.40,12447.02,476.06,0.21,21080.60,745.93,0.07,20368.48
1662800,1189.90,921.65,1.00,1,1,1,568.41,-2.86,52922.11,421.91,-2.78,16215.28,101.23,-1.73,4803.83,283.49,0.21,13954.10,235.16,0.22,37324.42
1677000,1186.39,919.63,1.00,1,1,1,284.91,-2.62,21081.97,135.19,-0.63,35820.77,86.99,-1.54,1600.16,280.72,-0.04,4919.91,385.57,3.01,43052.23
1698000,1193.75,918.85,1.00,1,1,1,352.36,-0.11,28882.83,318.43,-0.12,10055.03,476.03,0.04,23105.49,16.88,-2.88,14137.63,724.61,3.05,16190.64
1712400,1197.59,918.32,1.00,1,1,1,269.04,-0.14,5827.32,938.98,0.15,44295.76,606.52,0.03,9085.44,645.84,3.12,43725.72,1013.43,3.11,20292.34
1726500,1220.19,922.97,1.00,2,2,2,1636.72,0.20,98299.33,973.83,0.08,5374.83,91.88,1.75,44484.61,1441.91,3.14,56477.67,1070.20,3.14,4593.89
1740600,1224.95,920.63,1.00,2,2,2,376.27,-0.46,96397.59,771.72,3.08,123476.21,1285.10,3.05,89614.69,2200.61,-3.13,53833.69,984.59,-3.12,6413.45
1762200,1192.69,924.66,1.00,2,2,2,1505.09,3.02,86330.68,3016.92,3.09,103948.32,3323.94,-3.14,94818.11,2456.95,3.14,11938.35,1088.94,-3.12,4831.47
1777200,1114.66,925.93,1.00,1,1,1,5202.87,3.13,247340.26,6446.48,-3.13,229316.00,4964.21,-3.13,109375.04,2478.86,-3.13,2758.86,1205.30,3.14,8048.50
1791400,1004.47,922.42,1.00,1,1,1,7763.89,-3.11,181638.09,7520.04,-3.10,77007.94,4898.00,-3.13,4900.63,2269.86,-3.12,14768.07,1143.94,3.10,5522.10
1805200,904.28,917.14,1.00,1,1,1,7269.95,-3.09,37537.10,3606.19,-3.12,283730.04,3698.67,-3.09,87460.67,1961.85,-3.13,22322.52,1116.85,3.06,3488.09
1826400,878.28,919.87,1.00,1,1,1,1233.39,3.04,285608.02,718.96,-3.05,136293.78,1400.52,-3.09,108403.44,1954.28,-3.12,699.86,1158.85,3.05,2010.17
1841100,878.58,914.81,1.00,1,1,1,344.73,-1.51,90727.87,378.26,-0.17,74052.67,41.29,-2.71,92675.06,1659.12,-3.14,20223.35,1128.07,3.05,2094.11
1870000,894.52,917.02,1.00,1,1,1,556.92,0.14,23442.95,337.99,0.03,2840.33,57.50,-0.42,3117.92,923.90,3.05,25772.23,1153.13,3.06,869.89
1906000,900.50,915.39,1.00,2,2,2,172.25,-0.27,11225.24,223.78,3.09,15592.15,299.23,2.77,9907.41,378.10,2.68,16299.29,1166.69,3.05,419.39
1920600,883.21,917.64,1.00,2,2,2,1194.26,3.01,93502.13,1676.79,2.94,99705.01,562.38,2.75,18031.17,252.15,2.40,10422.17,1048.96,3.04,8079.49
1935300,852.35,925.15,1.00,3,3,3,2160.57,2.90,66805.28,975.75,2.66,53603.84,827.39,2.63,18811.44,222.10,2.10,5322.23,836.20,3.00,14711.66
1964000,845.70,937.29,1.00,1,1,1,482.18,2.07,65137.11,480.35,1.96,23796.00,620.25,2.44,8681.81,279.92,2.24,2341.03,593.51,-3.08,9741.31
1985200,843.30,947.35,1.00,1,1,1,487.85,1.81,6106.60,337.58,1.54,10324.18,304.47,1.27,27033.74,357.02,2.30,3776.06,405.85,-2.37,18475.53
1999200,846.02,949.16,1.00,1,1,1,234.14,0.59,33018.16,568.87,0.03,45964.64,366.90,0.67,14954.31,267.38,1.71,14473.24,364.84,-1.43,24894.10
2013400,859.33,947.89,1.00,1,1,1,941.34,-0.10,54514.02,577.36,0.20,6878.49,371.06,0.26,10517.44,266.26,1.22,9080.07,551.05,-0.27,37235.31
2034700,866.09,953.31,1.00,1,1,1,407.15,0.68,33275.79,247.81,0.67,17529.67,507.00,0.20,6507.12,248.62,-2.23,23894.08,935.41,0.17,23153.20
2049300,866.29,953.43,1.00,1,1,1,15.51,0.53,26836.14,420.63,0.18,15956.56,221.60,1.13,28407.54,944.97,-1.81,49657.58,1142.26,0.36,19454.77
2063600,878.05,955.53,1.00,4,4,4,835.21,0.18,57390.56,258.86,1.68,33368.70,997.79,-2.34,84607.98,1138.83,-1.24,42731.26,893.72,0.23,19622.27
2078100,865.48,960.84,1.00,4,4,4,940.80,2.74,117445.48,2365.01,-2.44,173665.89,2095.69,-1.96,84302.78,1520.34,-0.40,78357.44,580.22,-0.66,47846.60
2092200,826.24,912.04,1.00,4,4,4,4440.95,-2.25,303541.62,4002.65,-1.94,159149.58,2279.65,-1.47,77547.80,2403.72,0.03,85573.51,838.66,-1.35,38158.90
2113200,814.88,829.78,1.00,4,4,4,3954.56,-1.71,108934.71,3450.13,-0.99,164584.62,3073.75,-0.48,125444.73,2583.22,0.21,23442.54,942.43,-1.34,4976.18
2127300,893.15,811.10,1.00,4,4,4,5707.29,-0.23,469619.71,8057.06,0.18,526446.44,5228.75,0.15,232529.25,1882.81,0.07,54500.25,962.52,-1.02,21228.69
2141400,1038.25,871.35,1.00,4,4,4,11142.35,0.39,520131.27,10458.22,0.52,274475.74,6515.57,0.48,162730.78,1345.90,-0.87,109308.65,962.72,-0.61,27614.84
2156500,1158.74,961.83,1.00,4,4,4,9979.02,0.64,190737.15,5870.50,0.78,333457.24,4279.76,0.62,156283.59,1527.49,-1.23,35520.08,1096.18,-0.36,19622.44
2178300,1191.97,1023.97,1.00,4,4,4,3232.57,1.08,329323.19,1128.16,2.88,298529.53,1154.74,-2.54,249285.64,1125.63,-0.95,24799.56,903.71,-0.27,9768.40
2192300,1119.77,972.44,1.00,4,4,4,6335.98,-2.52,667396.57,10349.33,-2.41,699168.39,5510.03,-2.42,311809.55,851.35,-0.73,24854.66,748.99,-0.44,14933.29
2206400,976.54,828.62,1.00,4,4,4,14395.62,-2.35,582738.24,11690.78,-2.32,117129.22,6706.32,-2.32,94130.69,572.47,-1.13,27886.68,814.23,-0.52,6515.84
2220900,892.69,727.02,1.00,4,4,4,9084.53,-2.26,373596.34,3921.60,-2.15,541150.22,4268.75,-2.12,183829.10,779.79,-1.75,31615.37,996.20,-0.21,23105.77
2242100,899.36,711.81,1.00,4,4,4,783.26,-1.16,413171.17,2314.74,0.13,269213.84,1286.35,-0.32,223272.47,998.83,-2.07,16748.76,1327.98,0.25,28936.66
2256900,975.36,737.51,1.00,4,4,4,5421.10,0.33,365523.94,4432.73,0.45,159489.42,3485.90,0.47,184835.91,743.22,-1.98,18000.00,1263.81,0.46,18923.76
2285800,1073.53,796.59,1.00,1,1,1,3964.51,0.54,61093.60,4622.89,0.61,25527.41,2954.89,0.67,29241.32,587.61,0.18,40697.29,484.29,0.59,27201.15
2300000,1138.60,851.76,1.00,1,1,1,6007.67,0.70,154191.11,1959.04,1.12,215910.94,1713.69,0.92,95475.55,1531.50,0.52,70177.45,351.30,-1.96,56294.10
2336200,1116.50,885.49,1.00,4,4,4,1113.90,2.15,165027.92,1332.06,2.95,72724.11,618.21,1.68,36960.92,2236.23,0.64,20402.73,877.62,-1.95,14539.35
2350400,1072.74,864.76,1.00,4,4,4,3410.17,-2.70,242182.58,2212.78,-2.45,121225.53,293.09,3.12,45702.14,2135.84,0.76,21028.54,750.80,-1.64,20073.31
2364700,1068.10,845.07,1.00,4,4,4,1415.03,-1.80,192912.14,1174.88,-0.30,210997.66,1213.60,0.50,103182.12,1199.29,1.08,74466.38,584.55,-0.17,63220.91
2386500,1113.26,852.22,1.00,4,4,4,2097.33,0.16,134912.37,3855.90,0.59,148781.32,2795.18,0.63,73390.09,155.54,2.49,54295.27,1033.54,0.40,28742.92
2401400,1185.99,923.34,1.00,4,4,4,6827.38,0.77,352945.00,5516.91,0.84,136892.78,2083.49,0.88,62207.31,752.06,-1.76,55948.57,920.17,0.56,12834.97
2415600,1219.99,972.14,1.00,4,4,4,4188.52,0.96,198829.78,1448.55,2.47,406815.28,239.19,1.12,130422.00,871.35,-1.27,28719.36,637.70,0.83,24384.56
2429400,1154.32,948.69,1.00,4,4,4,5053.12,-2.80,638132.43,4154.19,-2.33,310708.46,2489.87,-2.15,197631.54,668.66,-0.54,42355.59,318.11,1.69,35760.82
2450700,1120.00,866.02,1.00,4,4,4,4202.43,-1.96,179784.31,4662.33,-1.91,88737.83,3812.82,-2.06,63541.49,435.05,-0.16,14531.25,343.55,2.87,17303.46
2465500,1098.36,789.95,1.00,4,4,4,5343.40,-1.85,85605.62,3818.76,-1.70,82440.48,2315.31,-1.65,129508.88,741.24,-2.30,70467.65,304.67,-3.02,9045.06
2479400,1105.83,757.34,1.00,4,4,4,2407.20,-1.35,247132.66,1614.67,0.25,335433.41,882.38,-0.45,155310.18,1228.32,-2.45,36450.14,139.48,2.81,13644.18
2493400,1142.02,801.02,1.00,1,1,1,4052.07,0.88,416960.20,3674.27,0.97,191418.38,1058.20,1.20,102326.51,875.45,-2.51,25648.39,158.11,2.03,8111.20
2508000,1165.45,843.87,1.00,1,1,1,3345.01,1.07,68380.70,1542.42,1.93,209671.86,1790.12,1.63,64137.18,594.22,2.99,42459.59,435.05,-0.16,37169.84
2529200,1122.79,852.78,1.00,1,1,1,2055.76,2.94,207796.22,2026.67,2.74,70031.53,1759.35,2.34,58190.41,817.85,2.18,27929.68,741.24,-2.30,49194.40
2543400,1099.33,871.72,1.00,1,1,1,2123.27,2.46,69192.04,2325.26,2.68,23362.68,1887.64,2.86,67358.87,1064.04,2.08,18407.52,1228.32,-2.45,35680.07
2557700,1063.56,882.51,1.00,1,1,1,2612.67,2.85,71915.93,1761.16,3.03,63862.24,1357.92,2.87,37059.64,951.03,2.42,25133.18,875.45,-2.51,25110.31
2572400,1048.56,877.25,1.00,2,2,2,1081.57,-2.80,125979.51,719.81,-2.88,76204.46,941.45,3.06,31850.57,1887.64,2.86,75089.47,594.22,2.99,42170.75
2593400,1038.73,875.90,1.00,2,2,2,472.40,-3.00,29795.33,275.75,-3.07,21503.66,213.33,-3.06,34832.95,1357.92,2.87,25235.85,817.85,2.18,28195.68
2607900,1038.80,876.51,1.00,2,2,2,42.44,1.46,33412.30,435.61,0.46,48197.29,275.75,-3.07,4304.65,941.45,3.06,32289.89,1064.04,2.08,18026.67
2622000,1049.89,881.44,1.00,3,3,3,860.81,0.42,59592.30,860.81,0.42,30212.88,435.61,0.46,49564.59,213.33,-3.06,51878.87,951.03,2.42,25489.68
