@RELATION gaze_labels

%@METADATA width_px 1920
%@METADATA height_px 1080
%@METADATA width_mm 540.00
%@METADATA height_mm 254.00
%@METADATA distance_mm 620.00


@ATTRIBUTE time INTEGER
@ATTRIBUTE x NUMERIC
@ATTRIBUTE y NUMERIC
@ATTRIBUTE confidence NUMERIC
@ATTRIBUTE handlabeller1 INTEGER
@ATTRIBUTE handlabeller2 INTEGER
@ATTRIBUTE handlabeller_final INTEGER
@ATTRIBUTE speed_1 numeric
@ATTRIBUTE direction_1 numeric
@ATTRIBUTE acceleration_1 numeric
@ATTRIBUTE speed_2 numeric
@ATTRIBUTE direction_2 numeric
@ATTRIBUTE acceleration_2 numeric
@ATTRIBUTE speed_4 numeric
@ATTRIBUTE direction_4 numeric
@ATTRIBUTE acceleration_4 numeric
@ATTRIBUTE speed_8 numeric
@ATTRIBUTE direction_8 numeric
@ATTRIBUTE acceleration_8 numeric
@ATTRIBUTE speed_16 numeric
@ATTRIBUTE direction_16 numeric
@ATTRIBUTE acceleration_16 numeric

%The number after speed, direction denotes the step size that was used for the calculation.
%Acceleration was calculated between two adjacent samples of the already low pass filtered velocity

@DATA
0,863.34,972.44,1.00,1,1,1,0.00,0.00,0.00,602.54,2.81,0.00,342.84,2.80,0.00,124.77,0.11,0.00,61.73,-2.02,0.00
22000,850.83,976.81,1.00,1,1,1,602.54,2.81,27388.20,342.84,2.80,11805.13,225.25,-0.30,25816.10,233.98,-0.17,5407.15,211.11,-1.20,7957.11
36000,851.71,976.57,1.00,1,1,1,65.40,-0.28,47702.36,225.25,-0.30,40568.16,124.77,0.11,8635.54,133.44,-0.12,7211.47,332.34,-1.01,9359.01
64500,859.99,974.02,1.00,1,1,1,303.79,-0.30,8365.10,499.97,-0.14,9809.35,233.98,-0.17,4173.94,31.43,1.04,4353.71,561.42,-0.66,9674.41
79400,873.19,973.51,1.00,1,1,1,887.01,-0.04,40165.93,243.80,-0.07,17268.05,133.44,-0.12,6775.88,61.73,-2.02,6248.18,548.72,-0.65,899.42
116100,872.53,973.11,1.00,1,1,1,21.00,-2.60,24649.09,179.26,2.97,11512.75,31.43,1.04,3380.95,211.11,-1.20,4769.93,719.64,-0.55,4940.27
130300,864.21,975.09,1.00,2,2,2,602.74,2.91,41406.22,412.72,2.88,16534.14,204.40,-2.52,16444.42,332.34,-1.01,9227.19,756.74,-0.60,3568.01
144400,861.26,976.18,1.00,2,2,2,222.52,2.79,27147.25,368.00,-1.99,36030.88,455.29,-1.91,22030.24,561.42,-0.66,19554.66,675.09,-0.77,10226.78
165600,858.86,963.25,1.00,3,3,3,620.33,-1.75,32724.65,859.20,-1.52,26328.62,718.41,-1.23,21857.01,548.72,-0.65,632.14,236.55,-1.03,21277.08
179900,862.85,945.72,1.00,1,1,1,1257.20,-1.35,51059.97,1321.78,-0.99,50737.45,1272.16,-0.69,52781.34,719.64,-0.55,12678.87,247.37,-1.12,1692.17
193900,879.45,932.02,1.00,1,1,1,1537.41,-0.69,67135.05,2292.58,-0.33,106119.12,1390.33,-0.46,23192.95,756.74,-0.60,3618.99,217.40,-1.52,6866.44
208000,923.79,924.84,1.00,1,1,1,3185.89,-0.16,142881.12,1670.21,-0.14,51367.79,1410.32,-0.23,22429.49,675.09,-0.77,10226.78,245.46,-1.66,3015.67
229900,938.98,923.59,1.00,1,1,1,695.98,-0.08,113821.61,751.77,-0.00,42522.50,1019.55,-0.18,18099.16,517.15,-0.89,8001.66,272.57,-1.46,2618.82
244100,950.93,924.75,1.00,1,1,1,845.30,0.10,14237.54,219.64,-0.55,40504.22,135.42,-1.57,70738.20,293.61,-1.05,16298.22,377.65,-0.97,13151.75
258600,944.37,920.32,1.00,1,1,1,546.28,-2.55,93152.59,989.77,-2.83,79008.65,726.63,-2.91,48845.12,233.90,-2.51,24525.35,538.06,-0.64,15199.05
272900,923.79,916.05,1.00,1,1,1,1469.85,-2.94,68992.16,1614.31,-3.01,46379.44,1096.12,-2.97,26123.43,554.79,-2.89,24384.98,624.50,-0.51,8024.29
287400,898.29,914.13,1.00,1,1,1,1763.45,-3.07,24823.24,1196.75,-3.07,29426.20,1396.27,-3.07,22385.70,510.44,-2.75,6211.15,642.99,-0.41,4347.37
308200,881.65,913.08,1.00,1,1,1,801.73,-3.08,46241.46,1224.42,3.14,4558.60,1090.24,-3.02,15104.62,308.51,-2.21,14014.07,600.47,-0.33,3068.42
322700,855.07,914.33,1.00,2,2,2,1835.02,3.09,71852.43,965.54,-2.93,23852.89,343.78,-2.43,56941.23,343.26,-0.71,30701.25,476.08,-0.31,8644.65
337100,854.34,907.35,1.00,2,2,2,487.20,-1.68,129955.08,1029.70,-0.51,129826.28,765.98,-0.42,66985.67,617.64,-0.28,23356.93,325.13,-0.35,10562.68
352000,881.44,899.67,1.00,2,2,2,1890.46,-0.28,125490.61,2056.15,-0.20,75214.95,1636.94,-0.20,60659.20,800.54,-0.19,13123.54,280.17,-0.40,3185.30
373200,927.13,892.82,1.00,3,3,3,2179.30,-0.15,18290.64,2031.83,-0.11,8174.64,1681.64,-0.12,6961.68,923.04,-0.16,5850.95,255.43,-0.46,1358.94
401600,981.57,888.30,1.00,1,1,1,1923.66,-0.08,10176.70,1475.89,-0.06,19883.56,1470.81,-0.07,7931.22,929.71,-0.16,275.76,246.30,-0.44,350.32
436900,1021.00,887.57,1.00,1,1,1,1116.99,-0.02,23008.02,918.70,0.03,16049.66,1060.20,-0.03,11690.12,919.12,-0.10,1469.42,278.19,-0.33,1211.84
451400,1027.30,889.77,1.00,1,1,1,460.60,0.34,48516.23,146.27,0.46,54353.02,375.50,-0.01,47233.90,759.42,-0.07,11220.67,334.79,-0.26,4203.54
465300,1024.71,889.42,1.00,1,1,1,187.80,-3.01,46452.82,170.07,-2.93,22585.10,53.68,2.47,30145.73,541.60,-0.02,15811.55,403.27,-0.17,5464.23
501300,1019.01,887.96,1.00,1,1,1,163.56,-2.89,877.46,139.99,3.03,1627.52,140.23,3.07,2797.30,189.67,-0.01,9776.33,617.16,-0.16,5943.59
515800,1017.69,890.22,1.00,1,1,1,180.03,2.10,14283.57,130.85,2.37,6040.31,67.22,2.87,5202.63,114.80,3.11,20997.56,687.87,-0.30,8017.33
530000,1016.31,890.57,1.00,1,1,1,100.49,2.89,9182.35,71.55,0.31,12431.82,99.39,-3.14,2759.80,207.70,-3.07,6626.15,759.00,-0.37,5985.53
544000,1019.61,890.82,1.00,1,1,1,236.80,0.08,23821.21,127.83,-2.52,14075.39,206.85,-2.98,7847.09,165.47,3.01,4008.34,631.48,-0.51,11550.19
565400,1012.64,887.92,1.00,1,1,1,352.98,-2.75,27225.92,423.25,-2.96,14600.88,292.64,-2.99,4011.99,162.60,-0.16,15328.99,381.71,-1.15,18531.49
580200,1004.55,888.02,1.00,1,1,1,546.52,3.13,17724.57,515.10,-3.13,8193.25,285.61,3.05,4762.82,465.10,-0.86,24108.48,544.20,-2.25,33980.09
594500,997.65,887.70,1.00,1,1,1,483.00,-3.10,4888.82,196.10,2.22,30010.21,447.60,-0.12,51269.59,859.60,-0.73,28192.53,995.19,-2.57,35554.83
608900,1001.15,892.50,1.00,4,4,4,412.55,0.94,56105.14,1391.27,-0.07,106064.09,1040.05,-0.69,49128.23,895.20,-0.89,10154.22,1392.49,-2.60,27718.54
624100,1038.73,884.87,1.00,4,4,4,2523.01,-0.20,156629.44,1992.57,-0.71,79426.22,1894.92,-0.61,56736.09,814.03,-1.43,30556.83,1644.76,-2.60,16599.81
646000,1057.28,844.39,1.00,4,4,4,2032.78,-1.14,96353.50,2534.06,-0.84,28267.49,1986.81,-0.79,16173.69,1099.96,-2.15,33060.29,1617.39,-2.67,5757.03
660500,1100.15,816.04,1.00,4,4,4,3544.45,-0.58,145664.36,1997.42,-0.89,37679.55,1499.60,-1.70,109723.83,1890.45,-2.51,65042.02,1303.75,-2.77,23807.17
674600,1093.33,800.08,1.00,4,4,4,1230.71,-1.97,250830.59,2755.82,-2.78,275289.92,2511.50,-2.64,144020.14,2787.89,-2.56,64170.29,990.50,-2.91,25027.29
689000,1026.67,788.29,1.00,4,4,4,4701.14,-2.97,288741.07,5655.74,-2.98,208949.12,4811.53,-2.90,171785.71,3318.51,-2.63,39525.02,871.43,-3.09,14190.64
703800,930.23,774.17,1.00,4,4,4,6585.73,-3.00,127825.50,6459.55,-2.94,57286.17,6348.36,-2.88,104215.88,3492.82,-2.81,43821.42,598.84,3.07,19380.08
725000,798.86,741.60,1.00,4,4,4,6384.21,-2.90,31338.67,6967.14,-2.80,49341.48,5861.82,-2.83,26170.90,3113.69,-3.02,37463.80,480.87,3.06,5571.20
739100,698.26,692.48,1.00,4,4,4,7940.39,-2.69,153323.21,5237.18,-2.67,135804.60,4424.11,-2.90,104641.60,2363.67,3.06,66373.98,384.48,3.02,6932.88
754000,663.77,672.19,1.00,4,4,4,2685.05,-2.61,353524.14,1589.26,2.86,283244.12,1569.50,2.88,211025.24,1822.50,2.80,50915.16,372.19,2.85,4252.00
768200,653.79,705.20,1.00,4,4,4,2428.37,1.86,283291.22,2871.87,1.20,239822.60,1871.56,1.18,182764.55,973.51,2.23,79791.50,463.29,2.55,11031.01
789700,700.76,767.81,1.00,1,1,1,3640.52,0.93,137046.67,3197.75,0.89,46643.27,2982.57,1.05,53448.83,1069.62,1.20,46650.07,649.29,2.56,8656.61
818300,754.94,829.44,1.00,1,1,1,2869.12,0.85,28364.99,3119.87,0.94,6564.27,2653.56,0.83,24783.93,1820.52,0.84,31763.85,776.72,2.61,4607.38
832800,779.90,876.53,1.00,1,1,1,3675.38,1.08,76325.37,2119.31,0.74,77391.15,2207.30,0.69,38374.50,2303.34,0.73,36571.39,743.82,2.54,4116.07
868100,832.62,900.89,1.00,1,1,1,1645.37,0.43,72738.18,1644.82,0.28,27705.63,1980.94,0.51,12442.13,2287.50,0.62,6929.29,586.01,2.27,6695.02
883100,859.38,899.51,1.00,1,1,1,1785.75,-0.05,55578.88,2019.02,0.09,34174.14,2018.65,0.24,35848.10,1804.49,0.56,33441.02,555.00,1.57,26244.98
897200,891.15,906.10,1.00,1,1,1,2301.23,0.20,51807.38,2664.58,0.20,49509.63,1992.35,0.14,14659.39,1162.86,0.53,45585.20,810.04,1.12,27981.04
912400,935.84,915.29,1.00,1,1,1,3001.64,0.20,46080.94,1971.91,0.19,45596.96,1329.94,0.23,44539.30,530.72,0.45,41791.66,954.72,1.00,11532.31
927300,949.40,917.50,1.00,1,1,1,922.03,0.16,139645.74,252.58,0.43,115940.78,192.56,0.74,78277.99,95.57,2.92,40851.27,947.62,0.87,8888.48
948500,944.12,919.11,1.00,1,1,1,260.20,2.85,54775.76,1355.78,-3.08,75163.90,1316.37,-3.08,69373.13,460.47,3.10,17297.02,770.03,0.78,9063.30
963400,900.53,914.73,1.00,1,1,1,2940.00,-3.04,181321.98,3204.36,-3.05,124179.72,1977.92,-3.03,44717.37,685.16,-3.11,15340.63,543.35,0.65,16171.74
978200,849.37,910.11,1.00,1,1,1,3470.58,-3.05,35914.21,2750.77,-3.00,32022.70,2220.12,-3.03,16396.59,941.22,-3.07,17477.53,380.72,0.32,15048.59
992600,821.00,903.45,1.00,1,1,1,2023.71,-2.91,103749.51,1412.12,-2.99,92985.63,1532.80,-3.03,47730.71,898.40,-3.11,4338.78,95.57,2.92,32329.90
1014300,799.02,902.16,1.00,1,1,1,1014.86,-3.08,47861.28,551.66,-3.14,40121.25,566.67,-3.03,44522.16,717.50,3.12,8496.63,460.47,3.10,16898.48
1028700,801.09,903.32,1.00,1,1,1,164.88,0.51,80926.97,464.97,0.27,69995.28,235.46,0.78,53157.21,208.33,2.93,35740.56,685.16,-3.11,15873.29
1044000,812.33,905.83,1.00,1,1,1,752.87,0.22,39010.27,1113.73,0.34,42546.04,1027.34,0.32,53853.53,232.37,-0.03,28684.03,941.22,-3.07,16906.37
1058100,831.93,914.33,1.00,1,1,1,1514.91,0.41,55927.84,1622.46,0.33,36097.72,1145.88,0.23,10685.15,235.46,0.78,13118.82,898.40,-3.11,4431.09
1072100,855.45,920.65,1.00,1,1,1,1739.57,0.26,23406.09,1182.32,0.14,36442.72,1044.83,0.05,15825.17,1027.34,0.32,58854.21,717.50,3.12,13169.78
1094000,873.93,920.45,1.00,1,1,1,843.99,-0.01,43586.25,734.95,-0.44,31957.61,1182.32,0.14,7887.11,1145.88,0.23,6879.48,208.33,2.93,23500.64
1108500,879.64,909.23,1.00,1,1,1,868.18,-1.10,61187.70,868.18,-1.10,36813.48,734.95,-0.44,48267.02,1044.83,0.05,15279.47,232.37,-0.03,30266.60
