@RELATION gaze_labels

%@METADATA width_px 1920
%@METADATA height_px 1080
%@METADATA width_mm 540.00
%@METADATA height_mm 254.00
%@METADATA distance_mm 620.00


@ATTRIBUTE time INTEGER
@ATTRIBUTE x NUMERIC
@ATTRIBUTE y NUMERIC
@ATTRIBUTE confidence NUMERIC
@ATTRIBUTE handlabeller1 INTEGER
@ATTRIBUTE handlabeller2 INTEGER
@ATTRIBUTE handlabeller_final INTEGER
@ATTRIBUTE speed_1 numeric
@ATTRIBUTE direction_1 numeric
@ATTRIBUTE acceleration_1 numeric
@ATTRIBUTE speed_2 numeric
@ATTRIBUTE direction_2 numeric
@ATTRIBUTE acceleration_2 numeric
@ATTRIBUTE speed_4 numeric
@ATTRIBUTE direction_4 numeric
@ATTRIBUTE acceleration_4 numeric
@ATTRIBUTE speed_8 numeric
@ATTRIBUTE direction_8 numeric
@ATTRIBUTE acceleration_8 numeric
@ATTRIBUTE speed_16 numeric
@ATTRIBUTE direction_16 numeric
@ATTRIBUTE acceleration_16 numeric

%The number after speed, direction denotes the step size that was used for the calculation.
%Acceleration was calculated between two adjacent samples of the already low pass filtered velocity

@DATA
0,692.85,912.16,1.00,1,1,1,0.00,0.00,0.00,2860.85,-0.04,0.00,1878.44,-0.04,0.00,452.98,0.01,0.00,234.22,-0.12,0.00
14700,734.87,910.45,1.00,1,1,1,2860.85,-0.04,194615.47,1878.44,-0.04,66832.47,253.78,0.03,110565.96,373.75,3.08,56204.45,124.60,-2.67,23430.99
29600,748.42,910.10,1.00,1,1,1,909.30,-0.03,130985.75,253.78,0.03,109081.85,452.98,0.01,13377.98,579.49,3.10,13826.12,346.19,-3.02,15634.07
44400,742.41,910.68,1.00,1,1,1,407.97,3.05,88957.55,689.23,3.05,63625.70,373.75,3.08,55824.69,497.92,-3.07,6757.34,323.07,-2.96,2022.41
66600,723.02,912.41,1.00,1,1,1,876.75,3.05,21116.93,886.49,3.10,9056.48,579.49,3.10,9279.69,234.22,-0.12,32846.48,138.64,-1.68,14109.01
80700,710.25,912.00,1.00,1,1,1,905.85,-3.11,7928.69,440.01,-3.08,32000.53,497.92,-3.07,7092.81,124.60,-2.67,24428.06,458.05,-0.47,30445.93
95000,710.55,911.62,1.00,1,1,1,33.62,-0.91,64754.96,123.85,-1.54,31699.80,63.83,-1.56,34852.64,346.19,-3.02,16290.05,862.54,-0.30,29199.56
108900,710.36,908.51,1.00,1,1,1,224.19,-1.63,14397.30,369.49,-0.25,25540.37,214.56,-0.71,12863.68,323.07,-2.96,2153.35,1164.69,-0.24,22243.39
130000,723.06,908.36,1.00,1,1,1,601.93,-0.01,30913.96,327.80,-0.49,4314.56,151.38,-2.32,12641.15,138.64,-1.68,14844.55,815.55,-0.15,16991.65
144000,720.53,903.12,1.00,2,2,2,416.12,-2.02,61788.43,671.73,-2.94,67733.36,161.34,-2.60,3209.86,458.05,-0.47,30663.41,706.50,-0.10,8357.76
159000,703.97,904.51,1.00,2,2,2,1107.87,3.06,68964.54,652.30,3.14,8942.70,212.16,-1.71,11113.13,862.54,-0.30,27836.92,596.06,-0.09,7368.36
173200,701.48,903.15,1.00,2,2,2,199.61,-2.64,66740.97,548.83,-0.52,81794.83,702.19,-0.39,47939.13,1164.69,-0.24,21773.46,603.30,-0.13,1764.12
195000,721.13,894.71,1.00,3,3,3,980.77,-0.41,51149.42,1769.18,-0.28,57006.98,1786.76,-0.23,50498.32,1432.59,-0.16,13145.61,650.00,-0.16,2341.41
209300,762.86,885.50,1.00,1,1,1,2988.82,-0.22,142222.64,3380.39,-0.17,114325.11,2433.00,-0.19,45489.97,1514.42,-0.05,12211.82,617.80,-0.18,2364.53
223600,816.46,878.67,1.00,1,1,1,3778.78,-0.13,59192.00,3277.15,-0.13,11270.61,3057.54,-0.08,48547.85,1435.99,-0.04,5560.26,627.42,-0.18,695.89
238200,856.78,873.27,1.00,1,1,1,2785.86,-0.13,68023.79,2766.52,0.03,47617.66,2385.68,0.05,51564.39,1419.02,-0.07,2599.03,597.60,-0.12,2936.36
252500,896.39,880.85,1.00,1,1,1,2820.24,0.19,62976.31,1770.65,0.31,82295.43,1204.21,0.18,84020.63,1228.45,-0.06,13335.48,572.16,-0.11,1897.83
274100,917.28,892.76,1.00,1,1,1,1113.30,0.52,83453.32,405.07,0.79,65895.94,650.26,0.32,26285.34,769.62,-0.04,21261.65,694.87,-0.08,5761.43
303200,910.84,895.45,1.00,1,1,1,239.92,2.75,43786.32,276.60,-2.85,22721.94,36.60,1.11,21480.21,451.30,0.02,11014.34,975.54,-0.06,9660.79
317500,905.78,889.33,1.00,1,1,1,555.30,-2.26,37546.64,488.97,-2.41,18674.95,368.18,-2.78,27687.81,175.72,0.52,21593.23,1097.86,-0.05,8561.94
339100,897.80,883.69,1.00,1,1,1,452.15,-2.53,7765.15,447.79,-2.73,7303.95,345.43,-2.55,3842.19,77.51,2.31,9574.76,1176.24,-0.03,3875.72
368100,884.97,880.36,1.00,1,1,1,457.16,-2.89,5634.84,237.72,-2.80,7277.45,316.18,-3.05,5751.28,39.38,-0.89,4029.36,1011.78,0.01,5817.42
382400,888.11,880.21,1.00,2,2,2,220.21,-0.05,46896.99,277.81,2.11,22959.11,151.41,2.56,15337.21,516.47,-0.09,34246.35,817.27,0.02,13634.32
396500,880.90,887.12,1.00,2,2,2,708.51,2.38,62872.84,275.98,1.61,9693.34,564.90,0.20,48227.01,778.57,-0.02,18848.73,652.19,0.06,11846.27
419400,887.67,890.41,1.00,3,3,3,328.87,0.45,38367.85,1085.05,0.02,49175.60,1491.81,0.09,40749.06,1123.30,0.02,15136.34,527.78,0.06,5433.51
433700,921.25,887.88,1.00,1,1,1,2355.15,-0.08,145287.99,3445.43,-0.02,165136.66,2089.06,-0.00,43171.65,1309.92,0.05,13276.24,397.51,-0.04,9607.55
447700,985.16,888.67,1.00,1,1,1,4565.10,0.01,159176.48,3390.85,-0.01,4335.27,2887.09,-0.02,57147.85,1265.36,0.03,3714.65,471.58,-0.03,5305.99
462400,1018.57,886.90,1.00,1,1,1,2275.69,-0.05,156397.35,2334.82,-0.04,71997.12,2079.23,0.00,55140.05,1256.64,-0.02,3651.74,472.12,-0.01,570.43
476300,1051.90,886.33,1.00,1,1,1,2398.12,-0.02,10674.41,1022.58,0.03,94723.84,1042.85,-0.06,74895.07,1321.24,-0.01,4752.36,575.17,0.01,7457.04
498000,1054.95,888.16,1.00,1,1,1,164.12,0.54,104173.64,56.66,-1.43,46919.57,407.71,-0.10,29285.57,856.77,0.00,21409.15,770.92,0.06,9151.12
512100,1052.18,884.32,1.00,1,1,1,335.90,-2.20,34823.22,377.21,-2.78,26179.93,71.17,2.41,33118.69,424.55,0.06,30754.33,817.26,0.08,3375.71
526900,1044.74,884.34,1.00,1,1,1,502.73,3.14,27764.90,217.27,2.20,25758.40,352.53,3.14,20476.84,130.33,0.08,19881.64,930.05,0.07,7644.67
541100,1048.46,889.41,1.00,1,1,1,442.81,0.94,59399.97,368.31,2.84,16445.35,215.88,2.56,14593.56,5.30,-1.94,9345.88,920.25,0.06,775.32
563000,1032.03,888.26,1.00,1,1,1,751.97,-3.07,49858.72,234.05,2.83,6133.69,154.93,2.75,3167.68,203.29,0.18,9411.67,751.88,0.07,7691.78
577800,1040.29,892.05,1.00,2,2,2,613.96,0.43,90807.91,116.27,-0.01,23427.22,74.79,-0.86,15150.80,378.56,0.25,11913.11,518.11,0.10,15853.75
592100,1035.42,888.23,1.00,3,3,3,433.16,-2.48,72737.70,452.09,-0.51,24800.76,822.68,0.09,54678.45,616.13,0.24,16617.69,377.19,0.13,9912.25
606600,1051.65,885.68,1.00,1,1,1,1132.91,-0.16,100887.96,1534.61,0.10,82270.59,926.49,0.07,7237.96,588.95,0.19,2764.59,126.81,0.27,17384.23
621000,1079.55,892.66,1.00,1,1,1,1997.11,0.24,72999.80,1383.46,0.22,16083.24,1363.67,0.17,31265.58,660.65,0.14,5381.97,81.96,2.66,13543.88
642400,1099.98,896.52,1.00,1,1,1,971.49,0.19,48075.86,1232.54,0.24,7158.96,1050.25,0.24,15163.53,595.96,0.12,3078.86,278.10,2.95,9391.84
657000,1122.64,903.23,1.00,1,1,1,1619.08,0.29,45202.54,772.12,0.27,31599.71,551.87,0.19,34229.11,580.92,0.14,1360.62,475.98,3.02,13648.49
685200,1131.82,905.35,1.00,1,1,1,334.07,0.23,45595.53,70.93,-0.47,25582.67,367.37,0.21,6545.76,230.03,0.28,12570.96,556.31,3.05,2906.01
706300,1125.75,901.65,1.00,1,1,1,336.84,-2.59,31385.99,48.11,-0.92,1629.40,40.30,-0.53,16047.08,279.77,3.00,23631.43,503.96,3.07,2550.39
735000,1133.28,903.46,1.00,2,2,2,269.63,0.24,20876.70,7.23,-1.26,1441.63,524.70,-2.94,19345.41,802.47,3.12,18314.48,475.77,3.11,1206.25
749400,1125.85,901.35,1.00,2,2,2,536.19,-2.87,55950.12,1287.24,-2.98,89469.47,1163.83,-3.11,45410.96,1357.10,-3.13,38583.44,414.82,3.04,4805.26
770700,1087.90,896.20,1.00,2,2,2,1797.99,-3.01,59595.45,2571.36,-3.12,61353.93,2458.36,-3.12,60776.28,1685.52,-3.14,15421.87,473.19,3.03,2742.12
785100,1034.08,899.04,1.00,1,1,1,3742.68,3.09,139205.80,3904.66,3.11,93314.09,3332.51,-3.14,60916.76,1652.48,-3.13,2553.55,753.43,3.12,19808.98
800000,973.54,899.35,1.00,1,1,1,4063.37,3.14,24874.59,4258.45,3.12,23882.15,3395.16,3.10,10095.95,1772.92,-3.11,8367.61,1003.06,-3.13,16863.42
814500,908.90,901.32,1.00,1,1,1,4459.60,3.11,28318.75,2888.16,3.08,94990.64,2241.47,-3.14,80038.49,1611.34,-3.14,11615.06,1201.37,-3.12,13694.31
829400,888.77,904.27,1.00,1,1,1,1365.79,3.00,208510.06,600.75,-3.00,154518.36,1081.30,-3.09,78002.07,1393.32,3.12,14903.00,1287.41,3.13,6604.54
850500,887.49,898.28,1.00,1,1,1,290.28,-1.78,65301.11,496.32,-0.50,49346.43,126.78,-0.12,57177.68,1383.73,-3.13,2541.47,1652.48,-3.13,17411.24
864400,903.99,895.89,1.00,2,2,2,1199.14,-0.14,90100.75,1038.69,0.07,48724.04,437.01,-0.15,22323.07,1246.34,-3.10,10271.04,1772.92,-3.11,8969.60
879000,917.02,900.34,1.00,2,2,2,943.24,0.33,38322.71,453.66,0.33,41867.81,427.24,-3.07,58847.77,1014.21,-3.09,15903.44,1611.34,-3.14,11535.50
893700,916.57,900.18,1.00,2,2,2,32.60,-2.81,66384.13,1815.24,-3.07,153525.13,1406.92,-3.10,66664.28,846.50,3.09,13162.44,1393.32,3.12,15105.76
909100,862.52,896.51,1.00,1,1,1,3517.94,-3.07,226395.69,2871.26,-3.07,68577.94,2124.24,-3.10,46579.72,427.24,-3.07,27663.96,1383.73,-3.13,3482.14
930600,810.93,892.14,1.00,1,1,1,2408.22,-3.06,51663.75,2383.06,-3.12,23712.58,2103.17,3.07,11135.96,1406.92,-3.10,45579.76,1246.34,-3.10,6640.34
945200,776.51,894.80,1.00,1,1,1,2364.57,3.06,26584.09,1280.86,2.62,98647.44,2383.06,-3.12,23921.10,2124.24,-3.10,49132.03,1014.21,-3.09,15903.44
959300,778.97,910.31,1.00,1,1,1,1114.01,1.41,191038.89,1114.01,1.41,97183.55,1280.86,2.62,102145.58,2103.17,3.07,16980.36,846.50,3.09,13722.54
