@RELATION gaze_labels

%@METADATA width_px 1920
%@METADATA height_px 1080
%@METADATA width_mm 540.00
%@METADATA height_mm 254.00
%@METADATA distance_mm 620.00


@ATTRIBUTE time INTEGER
@ATTRIBUTE x NUMERIC
@ATTRIBUTE y NUMERIC
@ATTRIBUTE confidence NUMERIC
@ATTRIBUTE handlabeller1 INTEGER
@ATTRIBUTE handlabeller2 INTEGER
@ATTRIBUTE handlabeller_final INTEGER
@ATTRIBUTE speed_1 numeric
@ATTRIBUTE direction_1 numeric
@ATTRIBUTE acceleration_1 numeric
@ATTRIBUTE speed_2 numeric
@ATTRIBUTE direction_2 numeric
@ATTRIBUTE acceleration_2 numeric
@ATTRIBUTE speed_4 numeric
@ATTRIBUTE direction_4 numeric
@ATTRIBUTE acceleration_4 numeric
@ATTRIBUTE speed_8 numeric
@ATTRIBUTE direction_8 numeric
@ATTRIBUTE acceleration_8 numeric
@ATTRIBUTE speed_16 numeric
@ATTRIBUTE direction_16 numeric
@ATTRIBUTE acceleration_16 numeric

%The number after speed, direction denotes the step size that was used for the calculation.
%Acceleration was calculated between two adjacent samples of the already low pass filtered velocity

@DATA
0,845.88,957.75,1.00,1,1,1,0.00,0.00,0.00,1087.71,2.05,0.00,817.27,2.49,0.00,578.81,3.06,0.00,144.37,2.46,0.00
14200,838.71,971.43,1.00,1,1,1,1087.71,2.05,76599.56,817.27,2.49,34664.72,605.13,-2.93,43831.59,600.32,-2.92,12510.40,110.60,-0.45,17841.38
29100,826.92,972.12,1.00,1,1,1,792.43,3.08,64520.31,605.13,-2.93,41772.39,578.81,3.06,11587.31,459.06,-2.91,9486.45,340.87,-0.46,15454.52
57500,813.08,965.98,1.00,1,1,1,533.10,-2.72,14120.69,575.25,-2.76,3745.98,600.32,-2.92,6255.20,124.72,2.57,13490.33,590.88,-0.37,8906.81
79000,800.30,961.40,1.00,1,1,1,631.80,-2.80,4991.61,594.58,-2.91,4141.51,459.06,-2.91,6574.33,144.37,2.46,1126.35,683.61,-0.43,4638.67
93100,792.49,961.08,1.00,1,1,1,553.97,-3.10,13831.57,345.30,3.07,20267.99,124.72,2.57,27172.02,110.60,-0.45,17967.92,749.13,-0.39,5105.88
121100,785.80,962.50,1.00,1,1,1,244.28,2.93,11535.54,320.17,0.74,21822.34,384.26,0.36,16756.95,340.87,-0.46,8224.01,939.43,-0.29,7393.25
142500,804.18,971.74,1.00,2,2,2,961.12,0.47,54294.93,1218.58,0.22,44584.59,785.62,0.04,20432.29,590.88,-0.37,11820.25,921.45,-0.35,2681.30
156800,828.26,971.96,1.00,2,2,2,1684.30,0.01,64634.85,1724.06,-0.16,51797.21,1383.44,-0.16,44273.65,683.61,-0.43,6974.23,292.05,-0.28,44087.99
172000,854.42,963.82,1.00,1,1,1,1802.30,-0.30,36401.91,1768.75,-0.47,35515.21,1519.41,-0.39,24230.56,749.13,-0.39,4736.37,331.61,-0.35,2984.54
186400,875.04,948.46,1.00,1,1,1,1785.84,-0.64,41933.59,1429.51,-0.63,29560.38,1221.83,-0.70,35528.19,939.43,-0.29,14375.77,324.48,-0.38,806.92
207800,895.84,933.77,1.00,1,1,1,1189.92,-0.61,27899.69,875.25,-1.10,35632.53,889.34,-0.86,17344.95,921.45,-0.35,2681.30,302.63,-0.48,1820.87
221900,889.13,920.76,1.00,1,1,1,1037.77,-2.05,104038.35,484.33,-1.87,44276.70,533.53,-0.65,27164.59,810.70,-0.36,7902.56,407.96,-0.43,7576.50
236300,891.82,920.56,1.00,1,1,1,187.29,-0.07,78074.30,519.70,0.49,64441.23,322.90,-0.14,20717.01,603.45,-0.33,14497.26,504.43,-0.46,6757.42
250400,902.19,927.75,1.00,1,1,1,894.90,0.61,53800.32,745.44,0.40,16516.49,618.07,0.36,26131.30,307.50,-0.27,21061.55,631.50,-0.44,9053.51
272100,916.41,930.93,1.00,1,1,1,671.42,0.22,17133.29,702.35,0.29,4278.27,629.16,0.47,3116.82,94.44,-2.61,17482.40,647.25,-0.51,2338.86
286000,926.18,934.79,1.00,1,1,1,755.93,0.38,10017.21,490.23,0.60,20248.19,231.55,0.75,29628.76,102.12,-0.44,12524.15,578.70,-0.53,5005.50
300700,927.97,938.87,1.00,1,1,1,303.07,1.16,39591.06,467.40,2.91,59525.74,536.73,-3.04,49941.12,241.50,-0.70,9900.88,516.80,-0.55,4278.79
314800,913.09,937.92,1.00,2,2,2,1056.94,-3.08,86919.76,1528.06,-2.89,80625.07,492.43,-2.48,20571.03,382.74,-0.77,10105.44,603.89,-0.34,10262.43
329100,885.96,927.97,1.00,2,2,2,2021.01,-2.79,73514.74,716.20,-2.06,81853.02,628.20,-1.88,24716.69,431.08,-0.83,3884.98,658.95,-0.25,5762.61
350700,901.05,915.20,1.00,3,3,3,915.22,-0.70,120291.77,1125.02,-0.75,53997.62,711.77,-1.04,25788.22,412.60,-0.81,1006.17,786.02,-0.16,6569.32
365000,915.51,900.44,1.00,1,1,1,1445.01,-0.80,37802.85,1121.26,-0.56,14963.95,975.46,-0.53,34248.30,471.19,-0.79,4131.46,772.21,-0.16,971.39
393400,941.64,889.81,1.00,1,1,1,993.23,-0.39,23378.98,902.86,-0.34,10888.37,813.71,-0.37,7686.66,818.24,-0.36,15299.54,687.53,-0.22,3371.14
414600,957.72,885.46,1.00,1,1,1,785.51,-0.26,11049.67,594.13,-0.06,17501.91,714.99,-0.21,7339.65,1153.89,-0.21,17378.46,582.99,-0.29,5365.44
442900,971.00,888.07,1.00,2,2,2,478.27,0.19,14642.91,522.34,0.05,3324.42,1081.74,-0.04,14063.38,1303.02,-0.14,5970.29,555.74,-0.33,1239.35
457100,979.89,886.58,1.00,3,3,3,634.82,-0.17,17748.10,1563.72,-0.03,73502.95,1395.87,-0.00,22339.33,1184.36,-0.08,9984.05,556.14,-0.34,317.32
493000,1049.31,885.91,1.00,1,1,1,1933.87,-0.01,36507.71,2134.61,-0.01,15925.72,1908.76,-0.03,14358.39,1017.53,-0.05,4761.05,616.49,-0.29,1827.10
507400,1087.25,885.43,1.00,1,1,1,2635.08,-0.01,48696.85,2502.85,-0.04,25900.16,1695.96,-0.02,14828.01,802.41,-0.04,14956.28,746.88,-0.20,10155.95
522100,1122.10,883.27,1.00,1,1,1,2374.83,-0.06,19600.92,1080.37,-0.05,96786.33,918.03,-0.07,53059.35,790.78,-0.06,1672.26,693.50,-0.16,4039.17
543200,1125.87,883.36,1.00,1,1,1,179.16,0.02,104095.14,403.81,-3.05,70190.63,85.29,-2.20,45783.11,734.34,-0.03,2959.39,609.18,-0.10,4403.09
557100,1108.02,881.95,1.00,1,1,1,1288.24,-3.06,105551.99,1450.80,-3.08,75348.81,593.96,-3.08,39124.50,350.69,-0.06,27624.46,489.19,-0.06,8771.31
572100,1084.02,880.96,1.00,1,1,1,1601.91,-3.10,21217.76,823.07,-3.10,41864.13,688.37,3.13,6921.40,186.95,-0.08,10923.34,409.67,-0.03,5370.80
586200,1084.09,880.96,1.00,1,1,1,5.53,-0.08,114000.07,109.91,0.98,63301.27,208.06,3.05,34147.73,113.08,-3.06,21214.20,388.32,-0.08,1980.33
601400,1085.81,883.63,1.00,1,1,1,209.39,1.00,13606.53,297.08,0.22,15167.88,424.76,0.09,41474.26,223.93,-3.10,7304.78,386.82,-0.08,100.60
622200,1094.54,883.24,1.00,1,1,1,420.06,-0.04,17467.32,723.26,-0.01,21081.49,354.72,0.05,3451.00,208.84,-3.12,752.60,92.80,-0.32,14302.44
636700,1111.34,883.44,1.00,1,1,1,1158.84,0.01,51023.80,433.03,-0.09,20246.11,192.66,-0.11,11524.77,64.87,3.03,9980.25,74.49,3.05,11465.57
652100,1107.44,882.12,1.00,1,1,1,267.46,-2.82,91926.54,439.87,-3.05,56469.31,212.84,-3.00,26128.47,55.36,-3.01,1099.84,301.30,2.96,14756.54
666500,1098.28,882.31,1.00,1,1,1,635.96,3.12,27415.92,873.00,-3.12,30191.46,543.67,-3.10,23091.61,39.66,-1.55,4481.88,360.43,2.91,4223.71
681100,1082.13,881.46,1.00,1,1,1,1107.84,-3.09,32585.47,630.12,-3.12,16639.57,474.73,-3.07,4796.16,189.06,-2.94,12747.46,359.34,2.90,329.60
702500,1075.60,881.87,1.00,1,1,1,305.60,3.08,37615.54,152.09,-2.87,22621.84,197.79,-2.84,13364.28,332.74,3.06,7497.62,347.61,2.92,659.58
716500,1076.94,880.04,1.00,1,1,1,161.50,-0.94,30517.88,368.11,-0.32,35849.25,168.12,-2.88,2172.85,494.18,2.90,12421.25,384.78,3.00,3388.93
732000,1085.91,878.46,1.00,2,2,2,588.03,-0.17,31263.31,187.43,-2.88,34498.17,143.31,2.53,8620.95,486.79,2.81,2821.67,445.66,3.04,4033.81
745900,1071.62,878.61,1.00,2,2,2,1028.66,3.13,115947.57,561.20,2.69,31463.43,554.97,2.63,29686.38,490.76,2.81,287.35,517.92,2.99,5397.49
767600,1067.95,887.20,1.00,3,3,3,430.34,1.97,43399.51,901.73,2.52,16679.40,766.44,2.68,9842.73,603.87,2.91,5802.84,661.67,3.01,6631.80
782200,1045.08,897.78,1.00,1,1,1,1725.76,2.71,98320.95,936.78,2.67,10283.23,758.54,2.71,1915.82,656.97,2.98,4821.11,771.29,3.01,7517.83
810500,1032.06,905.28,1.00,1,1,1,531.07,2.62,42322.65,679.73,2.91,11175.09,992.66,2.95,11048.94,820.43,3.00,5785.54,842.20,3.03,2530.00
832100,1012.10,905.68,1.00,1,1,1,924.27,3.12,24312.37,1144.04,-3.06,25108.47,764.74,-3.12,13429.44,775.17,2.93,3173.85,812.77,3.02,1402.91
846600,990.90,901.81,1.00,1,1,1,1485.82,-2.96,41983.14,910.17,-2.90,19423.31,942.77,-3.03,13387.92,935.65,2.99,11604.60,696.96,2.99,8136.43
875200,973.97,896.44,1.00,3,3,3,621.06,-2.83,30535.01,773.35,-3.00,5540.56,832.76,-3.13,4976.40,1003.73,3.06,3357.83,656.97,2.98,1400.66
889300,958.22,897.12,1.00,1,1,1,1118.62,3.10,40875.06,808.21,2.83,25364.28,879.68,3.03,7791.43,1214.76,3.11,15503.30,820.43,3.00,11612.11
910400,946.89,905.16,1.00,1,1,1,658.04,2.52,31724.12,1060.88,2.82,11991.61,1356.50,2.98,22761.30,1184.15,3.11,1452.71,775.17,2.93,3249.06
925000,922.34,909.25,1.00,1,1,1,1705.12,2.98,78746.44,2024.59,3.05,70138.02,1564.60,3.01,14571.83,793.06,3.05,27143.80,935.65,2.99,11525.12
940000,887.21,910.50,1.00,1,1,1,2343.71,3.11,45944.40,2221.90,3.13,16729.51,1652.61,3.09,9935.15,1356.50,2.98,37827.09,1003.73,3.06,6402.27
954100,857.69,910.29,1.00,1,1,1,2093.33,-3.13,18966.15,1279.85,3.14,66834.85,690.19,3.06,68277.99,1564.60,3.01,15088.56,1214.76,3.11,15503.30
969300,849.71,910.56,1.00,1,1,1,525.56,3.11,103179.50,528.93,0.13,118789.80,1279.85,3.14,39080.05,1652.61,3.09,9804.42,1184.15,3.11,2016.59
990900,876.99,912.79,1.00,1,1,1,1267.56,0.08,82901.95,1267.56,0.08,34242.11,528.93,0.13,83592.82,690.19,3.06,44570.36,793.06,3.05,18347.20
