%@metadata width_px 1920.0
%@metadata height_px 1080.0
%@metadata width_mm 540.0
%@metadata height_mm 254.0
%@metadata distance_mm 620.0
% The number after speed, direction denotes the step size that was used for the calculation.
% Acceleration was calculated between two adjacent samples of the already low pass filtered velocity
@RELATION gaze_labels

@ATTRIBUTE time INTEGER
@ATTRIBUTE x NUMERIC
@ATTRIBUTE y NUMERIC
@ATTRIBUTE confidence NUMERIC
@ATTRIBUTE handlabeller_final INTEGER
@ATTRIBUTE EYE_MOVEMENT_TYPE {UNKNOWN, FIX, SACCADE, SP, NOISE, BLINK, NOISE_CLUSTER, PSO}

@DATA
0,756.33,966.63,1.0,1,FIX
32000,723.98,955.12,1.0,1,FIX
48000,706.01,962.75,1.0,1,FIX
63900,743.47,964.41,1.0,1,FIX
79900,737.79,964.54,1.0,2,SACCADE
96000,721.32,961.48,1.0,2,SACCADE
112600,704.27,953.8,1.0,3,SP
128300,489.08,963.03,1.0,1,FIX
144400,390.42,966.13,1.0,1,FIX
175900,335.78,969.82,1.0,1,FIX
192000,317.96,965.25,1.0,1,FIX
223800,372.51,968.82,1.0,2,NOISE
240000,340.32,965.59,1.0,2,NOISE
256000,324.13,965.93,1.0,3,NOISE
272000,-49.62,942.21,1.0,1,NOISE
288000,-307.11,924.82,1.0,1,NOISE
303900,-390.05,924.54,1.0,1,NOISE
319900,-446.05,933.77,1.0,1,NOISE
336000,-430.15,944.75,1.0,1,SACCADE
351800,-458.18,934.78,1.0,1,FIX
368100,-481.91,934.25,1.0,1,FIX
383800,-469.5,951.91,1.0,1,FIX
399900,-508.24,933.81,1.0,1,FIX
416300,-488.73,937.97,1.0,1,FIX
432100,-492.58,935.85,1.0,1,FIX
463900,-484.68,956.74,1.0,1,FIX
479900,-496.91,936.55,1.0,1,FIX
495900,-495.99,940.14,1.0,1,FIX
512900,-492.84,956.63,1.0,1,FIX
544000,-475.86,956.56,1.0,1,FIX
560000,-492.52,941.87,1.0,1,FIX
591900,-495.83,953.87,1.0,1,FIX
607900,-460.6,939.08,1.0,1,FIX
624000,-480.07,951.48,1.0,2,NOISE
639900,-495.94,939.7,1.0,2,NOISE
655900,-480.3,945.97,1.0,2,NOISE
671900,-413.74,947.21,1.0,2,NOISE
689100,-213.89,958.17,1.0,0,NOISE
704000,15.21,942.48,1.0,0,NOISE
719900,287.56,936.26,1.0,0,NOISE
735900,286.05,928.87,1.0,0,FIX
751900,295.91,928.29,1.0,0,FIX
768000,246.72,938.97,1.0,2,FIX
783800,218.78,955.42,1.0,2,FIX
800200,203.7,943.2,1.0,3,FIX
815900,202.62,959.98,1.0,1,SACCADE
831800,148.8,952.0,1.0,1,SACCADE
847900,108.43,958.67,1.0,1,SACCADE
863900,129.7,959.97,1.0,1,SP
879900,110.85,956.51,1.0,1,FIX
911900,88.91,955.28,1.0,2,FIX
927900,59.33,955.17,1.0,2,FIX
943900,143.55,954.93,1.0,2,FIX
975800,380.78,958.99,1.0,1,FIX
992000,737.05,970.54,1.0,1,FIX
1008000,757.79,969.23,1.0,1,FIX
1040200,767.37,966.43,1.0,1,SACCADE
1055900,794.07,969.94,1.0,1,SACCADE
1071900,773.1,964.5,1.0,1,SP
1087800,725.14,974.41,1.0,1,FIX
1103800,751.6,960.3,1.0,1,FIX
1121000,752.61,970.79,1.0,2,UNKNOWN
1136100,745.9,956.5,1.0,2,UNKNOWN
1151800,779.61,968.13,1.0,3,UNKNOWN
1168000,1034.73,979.62,1.0,1,UNKNOWN
1183800,1178.11,976.78,1.0,1,UNKNOWN
1199900,1166.57,978.67,1.0,1,UNKNOWN
1216100,1137.21,968.66,1.0,1,UNKNOWN
1232100,1171.47,983.38,1.0,1,UNKNOWN
1248000,1190.96,981.9,1.0,1,UNKNOWN
1264000,1145.23,976.1,1.0,1,UNKNOWN
1295900,1193.54,982.09,1.0,1,UNKNOWN
1312900,1155.32,978.22,1.0,1,UNKNOWN
1344000,1174.45,987.48,1.0,2,UNKNOWN
1360000,1177.14,979.26,1.0,2,UNKNOWN
1375900,849.62,961.32,1.0,3,NOISE
1392100,844.9,962.65,1.0,1,NOISE
1408000,539.19,935.24,1.0,1,UNKNOWN
1424000,532.38,950.68,1.0,1,UNKNOWN
1439900,494.4,944.57,1.0,1,UNKNOWN
1455900,439.41,947.02,1.0,1,UNKNOWN
1488100,410.75,955.6,1.0,1,UNKNOWN
