@RELATION gaze_labels

%@METADATA width_px 1920
%@METADATA height_px 1080
%@METADATA width_mm 540.00
%@METADATA height_mm 254.00
%@METADATA distance_mm 620.00


@ATTRIBUTE time INTEGER
@ATTRIBUTE x NUMERIC
@ATTRIBUTE y NUMERIC
@ATTRIBUTE confidence NUMERIC
@ATTRIBUTE handlabeller1 INTEGER
@ATTRIBUTE handlabeller2 INTEGER
@ATTRIBUTE handlabeller_final INTEGER
@ATTRIBUTE speed_1 numeric
@ATTRIBUTE direction_1 numeric
@ATTRIBUTE acceleration_1 numeric
@ATTRIBUTE speed_2 numeric
@ATTRIBUTE direction_2 numeric
@ATTRIBUTE acceleration_2 numeric
@ATTRIBUTE speed_4 numeric
@ATTRIBUTE direction_4 numeric
@ATTRIBUTE acceleration_4 numeric
@ATTRIBUTE speed_8 numeric
@ATTRIBUTE direction_8 numeric
@ATTRIBUTE acceleration_8 numeric
@ATTRIBUTE speed_16 numeric
@ATTRIBUTE direction_16 numeric
@ATTRIBUTE acceleration_16 numeric

%The number after speed, direction denotes the step size that was used for the calculation.
%Acceleration was calculated between two adjacent samples of the already low pass filtered velocity

@DATA
0,356.53,559.75,1.00,1,1,1,0.00,0.00,0.00,2114.79,-0.36,0.00,119.93,1.23,0.00,512.98,0.35,0.00,187.22,-0.15,0.00
14800,385.85,548.79,1.00,1,1,1,2114.79,-0.36,142891.31,119.93,1.23,143251.34,716.43,-2.93,53137.45,593.69,-3.10,73912.86,442.19,-3.09,42343.02
44500,358.32,564.78,1.00,1,1,1,1071.90,2.62,106956.58,716.43,-2.93,26479.27,512.98,0.35,41309.47,106.75,-0.73,22713.90,258.55,-1.59,16650.56
59100,354.84,542.01,1.00,1,1,1,1577.50,-1.72,151230.02,1175.90,0.23,129609.66,593.69,-3.10,74925.37,326.89,-0.69,15085.58,214.62,1.84,32063.18
74200,392.35,572.63,1.00,1,1,1,3206.40,0.68,298205.11,482.57,2.86,106972.51,106.75,-0.73,44675.69,187.22,-0.15,12724.91,132.40,-1.61,22726.52
95700,337.86,546.86,1.00,1,1,1,2803.70,-2.70,277491.41,869.45,-2.73,27143.67,326.89,-0.69,10244.16,442.19,-3.09,29147.75,216.76,-0.04,11787.02
110300,363.57,560.11,1.00,1,1,1,1981.18,0.48,327684.99,1310.07,-0.50,134609.79,297.72,-2.11,27882.92,258.55,-1.59,33871.34,242.25,2.90,31286.88
125000,371.47,528.31,1.00,1,1,1,2228.96,-1.33,224888.98,656.53,-0.22,47867.60,233.81,-3.04,16651.92,214.62,1.84,31845.06,79.34,-2.49,13737.72
139700,382.40,555.86,1.00,1,1,1,2016.12,1.19,275000.52,1709.16,2.79,160679.82,453.83,-1.77,30132.68,132.40,-1.61,23344.93,87.98,-0.76,8669.07
154400,324.21,545.40,1.00,1,1,1,4021.59,-2.96,365014.61,959.90,-2.35,106936.94,720.99,2.10,74865.28,216.76,-0.04,17239.52,35.09,2.72,8277.06
176600,357.53,530.64,1.00,1,1,1,1641.63,-0.42,245909.76,907.36,0.80,84109.85,118.70,-0.28,36531.99,242.25,2.90,20576.06,1083.04,0.42,49843.21
191000,347.28,569.29,1.00,1,1,1,2777.30,1.83,278786.66,928.09,0.59,13921.48,541.61,0.00,29777.56,79.34,-2.49,14023.92,1132.86,0.46,4444.89
220700,391.65,553.25,1.00,1,1,1,1588.64,-0.35,131552.14,709.25,-0.85,36652.20,626.85,2.19,34983.13,105.18,-2.08,1522.83,1001.91,0.47,4414.60
235500,368.14,545.61,1.00,1,1,1,1670.45,-2.83,208291.34,2128.76,2.90,185168.09,618.93,-1.27,83086.54,359.61,0.14,29168.75,1182.24,0.44,12333.24
250200,330.64,568.12,1.00,1,1,1,2975.50,2.60,153934.98,681.95,-1.81,152028.34,302.02,-2.57,41535.29,2222.15,0.52,128769.98,1076.78,0.31,12182.74
272300,362.17,521.23,1.00,2,2,2,2557.06,-0.98,244396.45,1386.49,-0.53,61539.11,169.95,0.71,21311.34,2168.93,0.37,15514.26,1155.44,0.37,4555.89
287100,374.82,542.33,1.00,2,2,2,1662.59,1.03,242818.94,1182.54,1.14,129024.71,4808.04,0.38,314033.42,2062.86,0.52,23055.48,1041.06,0.38,7801.67
301800,376.68,552.96,1.00,2,2,2,733.47,1.40,68902.21,9865.99,0.52,607692.04,5284.69,0.53,61283.00,2122.18,0.49,6633.56,1240.87,0.42,13861.21
316500,626.84,685.95,1.00,3,3,3,19272.97,0.49,1281044.28,9625.16,0.46,41893.75,3996.37,0.53,87654.37,2184.28,0.26,32892.23,1225.56,0.46,4094.35
331300,631.13,678.96,1.00,1,1,1,554.20,-1.02,1300429.11,666.44,0.59,605718.33,3717.86,0.48,22679.98,2325.23,0.38,19975.09,1233.18,0.31,12976.22
368300,655.55,705.11,1.00,1,1,1,967.00,0.82,33392.42,366.56,0.73,8336.29,554.48,-0.51,93021.64,2110.60,0.41,6168.53,1383.09,0.32,4078.37
383100,645.22,691.69,1.00,1,1,1,1144.35,-2.23,142498.02,1091.99,-1.19,85622.42,736.86,-0.36,13886.86,2056.90,0.46,7735.45,1526.94,0.39,11800.37
412700,673.47,660.06,1.00,1,1,1,1432.73,-0.84,56089.83,1452.15,-0.62,26787.28,500.43,-1.04,15804.48,385.17,0.17,57139.80,1475.49,0.26,6891.50
427400,697.44,654.12,1.00,2,2,2,1679.96,-0.24,64503.51,455.51,1.51,118154.53,388.66,0.31,38101.58,442.17,0.05,5128.03,1384.70,0.37,12849.06
442000,674.35,673.37,1.00,2,2,2,2059.58,2.45,249683.50,1430.67,2.01,72354.53,598.75,1.18,31528.62,831.25,-0.23,29011.79,1347.15,0.36,2729.36
463800,675.12,701.17,1.00,2,2,2,1275.42,1.54,74217.03,741.07,1.03,54761.76,438.89,1.39,8725.44,987.71,0.19,18749.75,1275.78,0.30,5031.42
478600,688.36,696.60,1.00,2,2,2,946.26,-0.33,121732.79,1117.05,-0.59,92480.61,1430.09,0.06,93918.38,694.16,0.25,20045.76,430.20,0.19,57379.75
493600,702.80,682.67,1.00,1,1,1,1337.30,-0.77,41547.96,2777.89,-0.21,119085.23,1642.60,0.17,17773.40,395.11,0.36,20302.72,372.99,0.18,3828.17
508300,768.99,679.11,1.00,1,1,1,4509.18,-0.05,245296.43,2258.09,0.40,108055.96,1044.57,-0.14,48726.53,559.07,0.17,12572.89,419.97,0.20,3213.83
538000,795.33,721.26,1.00,1,1,1,1673.64,1.01,133975.76,134.61,1.01,72373.45,614.62,-0.17,14498.05,554.63,-0.45,11437.46,989.50,0.07,19368.12
560100,772.70,685.02,1.00,1,1,1,1933.67,-2.13,163226.87,1733.34,-2.32,84426.09,194.87,2.57,36074.94,482.32,0.22,15556.75,844.43,0.07,6567.04
574800,752.02,674.44,1.00,1,1,1,1580.11,-2.67,67810.00,582.70,2.98,101405.20,1099.27,-2.32,73663.88,304.84,0.40,13014.83,780.01,0.19,7514.56
589700,755.66,687.72,1.00,1,1,1,924.61,1.30,154845.34,316.27,-2.32,32457.42,537.16,2.17,88895.85,336.07,1.47,21864.53,969.78,0.22,12869.74
604600,745.60,667.54,1.00,2,2,2,1513.77,-2.03,162918.44,793.47,1.61,69799.53,453.69,1.94,9450.55,1010.71,-0.07,70779.26,859.82,-0.21,26723.96
619300,754.63,711.19,1.00,2,2,2,3032.23,1.37,306961.58,1088.96,1.68,20484.45,673.64,1.14,32891.20,1042.16,-0.06,2313.78,882.13,-0.09,7285.32
634100,742.19,699.48,1.00,2,2,2,1154.19,-2.39,272429.60,707.63,0.73,60089.27,2846.40,0.24,168259.81,1239.93,0.12,19277.96,750.79,0.15,15471.32
656300,774.21,728.58,1.00,2,2,2,1948.65,0.74,139762.34,5084.03,0.06,204809.05,2297.60,-0.22,58015.93,1402.28,0.23,9922.60,738.48,0.18,1294.79
671000,929.40,711.55,1.00,1,1,1,10621.09,-0.11,642457.83,4727.80,-0.38,148518.28,2475.97,-0.04,32700.84,1172.40,-0.10,32844.58,776.60,0.01,9114.12
685700,903.36,677.20,1.00,1,1,1,2932.24,-2.22,842557.33,972.54,-2.46,358616.90,2343.17,0.03,14032.61,1290.72,-0.19,11182.56,839.08,0.29,15827.54
700700,906.98,693.35,1.00,1,1,1,1102.92,1.35,264138.98,1604.46,0.91,170769.24,762.41,-1.75,174164.66,1148.98,0.09,24416.26,1032.81,0.21,13908.65
730200,947.30,733.48,1.00,1,1,1,1928.49,0.78,39354.81,855.24,-1.32,75628.00,474.63,-0.06,32113.38,1391.60,-0.04,9951.32,1047.61,0.19,781.59
752400,918.04,650.54,1.00,2,2,2,3961.80,-1.91,259482.44,1592.67,-1.66,37789.30,317.13,0.83,16641.62,590.54,0.13,36761.06,1097.20,0.27,4480.91
767100,941.93,674.96,1.00,2,2,2,2323.81,0.80,418198.63,1515.30,1.43,211361.94,543.05,-0.33,34677.94,780.95,0.65,27226.54,948.97,0.21,10862.20
795800,927.28,715.65,1.00,3,3,3,1506.95,1.92,74887.21,1482.85,0.76,34332.14,1610.67,0.61,47469.01,878.27,0.30,10687.82,962.48,0.19,790.58
810400,988.45,719.22,1.00,1,1,1,4196.78,0.06,331814.87,2655.76,0.08,120816.05,1250.68,0.91,38309.62,710.98,0.10,15609.24,973.71,0.14,3607.28
832300,1023.87,723.76,1.00,1,1,1,1630.91,0.13,117456.18,1027.93,1.16,107338.28,1765.41,0.17,54407.14,1188.93,0.66,31668.74,474.67,0.18,22829.46
847000,1003.41,753.73,1.00,1,1,1,2468.42,2.17,239633.18,729.92,0.56,40530.85,1015.88,0.38,54574.64,878.82,0.87,25700.24,410.22,0.24,4713.48
861800,1042.15,735.14,1.00,1,1,1,2903.16,-0.45,350622.34,1636.59,-0.20,81933.14,629.22,0.84,35815.41,756.58,0.39,27449.45,650.87,0.27,16300.50
876500,1050.75,744.25,1.00,1,1,1,852.25,0.81,188128.40,593.54,1.19,111389.62,384.78,0.70,17302.37,592.82,0.66,16581.92,337.89,0.00,22958.89
891100,1048.58,751.30,1.00,0,0,0,505.40,1.87,51145.09,1287.51,2.46,85450.77,438.87,2.45,43485.62,344.35,0.29,20414.94,839.76,0.62,40805.19
906300,1020.92,768.37,1.00,0,0,0,2138.53,2.59,117723.09,785.90,3.06,51239.45,347.87,1.58,22483.08,364.28,-1.17,31129.14,508.32,0.30,25700.20
927900,1019.75,753.57,1.00,0,0,0,687.36,-1.65,117009.95,810.26,-0.04,73879.31,312.66,-0.56,26890.56,391.30,0.21,22244.01,615.32,0.05,8039.27
942800,1050.47,767.32,1.00,0,0,0,2258.91,0.42,178355.87,1185.43,-0.31,30769.55,762.94,-1.53,42897.50,74.73,-1.94,29286.99,401.07,0.40,18374.55
972400,1070.06,737.71,1.00,1,1,1,1199.30,-0.99,80355.96,1496.84,-1.99,68010.42,1028.44,-0.09,40430.46,516.14,0.53,19467.97,241.51,0.77,6640.84
987100,1023.41,706.78,1.00,1,1,1,3807.38,-2.56,271466.18,914.50,0.33,151208.57,410.37,-1.68,75769.80,532.87,-0.70,41008.09,289.91,0.42,7123.80
1002300,1095.94,746.53,1.00,1,1,1,5441.21,0.50,607938.69,952.70,0.86,32306.74,1024.73,0.86,91001.85,572.35,-0.37,12174.26,170.66,-0.31,13012.03
1024700,1046.80,733.91,1.00,1,1,1,2264.74,-2.89,341790.91,1272.96,1.16,20610.11,880.64,0.19,28760.78,279.57,-0.14,13665.42,165.46,-0.41,827.79
1039400,1114.70,789.87,1.00,1,1,1,5985.44,0.69,550588.53,1295.64,-0.43,125143.67,329.63,-1.61,68611.21,234.28,1.46,25223.54,229.73,-0.31,4582.50
1054100,1081.36,717.88,1.00,1,1,1,5396.94,-2.00,755041.07,2317.88,-1.86,169458.98,865.04,0.58,74156.47,666.01,0.96,32237.79,475.54,0.28,21229.14
1068800,1095.02,724.63,1.00,1,1,1,1036.38,0.46,424349.06,1515.32,1.39,260375.87,550.48,-2.73,95968.70,169.29,-1.74,55933.43,614.64,-0.09,16573.15
1083500,1089.40,761.70,1.00,1,1,1,2550.53,1.72,166267.25,1010.23,1.99,60512.27,861.90,1.59,80582.46,328.49,-0.19,24853.32,524.58,-0.00,7058.16
1120300,1073.84,772.15,1.00,2,2,2,509.44,2.55,60818.96,536.06,1.93,12942.70,66.16,-2.18,24889.31,386.22,-1.57,12361.94,430.36,0.64,8596.67
1134900,1079.74,787.50,1.00,2,2,2,1126.61,1.20,77293.00,1256.49,-1.25,122759.79,400.21,-1.38,24481.39,751.40,0.84,73287.42,579.75,0.26,16518.63
1164500,1091.37,719.45,1.00,2,2,2,2332.31,-1.40,113195.00,1481.36,-1.31,8107.78,793.64,-0.80,17222.82,683.08,0.10,17576.46,358.24,0.30,7501.24
1179200,1096.59,724.08,1.00,2,2,2,474.66,0.72,177821.70,860.09,0.42,124332.46,1047.67,0.25,64651.21,739.51,0.04,4840.58,507.29,0.17,10778.72
1194500,1114.93,729.97,1.00,3,3,3,1258.93,0.31,55308.47,2859.27,0.91,139751.67,1722.45,0.15,45104.22,736.59,0.40,17012.19,474.05,-0.28,14571.21
1216900,1162.90,809.07,1.00,1,1,1,4129.76,1.03,146625.49,2454.88,0.07,98031.86,1802.46,0.36,17361.04,792.80,-0.34,24744.08,875.87,0.42,26683.90
1231500,1205.55,736.25,1.00,1,1,1,5779.94,-1.04,585914.31,2140.71,-0.73,124455.78,1486.03,0.99,72231.30,936.41,0.51,49432.27,769.89,0.10,19059.25
1246300,1209.68,766.96,1.00,1,1,1,2094.08,1.44,509510.11,2865.95,2.02,331906.92,1068.93,-1.21,154371.37,751.46,0.35,15237.71,669.07,-0.00,8580.48
1260900,1169.30,812.31,1.00,1,1,1,4159.04,2.30,220199.17,1018.91,-2.55,217768.47,707.56,1.83,121538.68,942.57,0.14,17750.05,1008.14,0.19,25602.36
1275600,1184.91,750.31,1.00,1,1,1,4349.68,-1.32,562177.40,1468.21,-0.95,123194.81,309.52,-2.73,55401.35,1155.57,0.10,14795.15,940.23,-0.09,18686.35
1290700,1194.74,776.72,1.00,2,2,2,1866.56,1.21,396118.78,275.93,0.95,104660.49,1284.60,-0.65,96776.45,870.99,0.10,18846.71,915.33,0.15,14431.19
1312800,1190.84,758.69,1.00,3,3,3,834.97,-1.78,121973.88,1243.98,-0.44,55440.68,1946.21,0.50,82909.12,589.71,-0.07,13950.46,980.12,0.24,5053.77
1341800,1252.35,749.83,1.00,1,1,1,2142.85,-0.14,81168.80,3390.56,0.47,96415.51,1674.58,-0.21,44076.29,1289.53,0.07,24539.58,844.98,0.15,5497.15
1356600,1323.50,825.42,1.00,1,1,1,7014.22,0.82,408280.94,2525.68,-0.02,111032.22,1374.71,0.02,31122.19,1120.45,0.08,11446.04,501.12,-0.44,34548.32
1371200,1326.59,748.64,1.00,1,1,1,5263.02,-1.53,776663.57,2401.72,-2.02,284651.99,1961.84,0.62,77496.54,989.11,-0.14,18446.55,483.00,0.26,22990.73
1386500,1292.13,760.82,1.00,1,1,1,2388.96,2.80,427261.84,2232.68,1.17,302815.44,999.37,-1.16,155529.75,1204.90,0.18,26748.52,487.26,0.19,2140.14
1409100,1359.89,826.43,1.00,1,1,1,4173.28,0.77,250324.47,1566.69,0.05,92174.55,219.22,0.54,46489.22,742.94,0.16,20456.75,445.77,-0.00,4342.36
1423600,1350.17,764.00,1.00,1,1,1,4357.70,-1.73,557833.58,2516.33,-1.86,233109.81,1062.68,0.41,58340.74,562.24,-1.94,78286.50,184.60,2.83,43045.89
1438200,1339.19,756.19,1.00,1,1,1,922.68,-2.52,258371.21,874.23,1.30,232222.70,818.52,-1.64,110396.96,178.57,1.03,50608.67,688.53,2.75,34564.28
1452900,1356.95,788.70,1.00,1,1,1,2519.88,1.07,229512.71,436.11,0.56,42730.41,725.60,-2.86,60343.99,436.88,0.50,20272.38,384.45,2.23,27530.17
1482600,1355.63,766.42,1.00,1,1,1,751.34,-1.63,108263.07,1453.68,-2.57,63627.24,187.35,1.51,27212.09,370.12,-2.89,26977.20,431.89,3.05,11064.79
1504900,1293.49,747.63,1.00,1,1,1,2911.02,-2.85,123017.37,440.95,2.83,54844.39,65.81,1.93,5840.21,1409.88,3.13,47440.53,894.43,-0.73,56834.91
1519500,1340.14,771.40,1.00,4,4,4,3585.65,0.47,443243.80,1738.22,0.65,138486.04,841.93,2.41,53712.43,2196.21,2.85,62951.87,736.93,-0.23,29732.83
1549300,1354.70,794.63,1.00,4,4,4,920.27,1.01,95158.43,1214.65,2.29,73368.61,2212.21,3.02,53466.90,1511.86,2.89,23047.98,976.49,-0.09,8977.97
1564000,1304.41,811.96,1.00,4,4,4,3618.70,2.81,267380.91,7668.69,-3.02,479836.91,4359.83,2.90,148392.20,1542.08,-3.12,28893.59,496.78,-0.72,44102.68
1578600,1131.66,767.45,1.00,4,4,4,12218.63,-2.89,644766.93,8486.45,3.00,157577.36,3671.84,2.91,47226.23,1724.54,-0.40,218735.03,89.22,-1.64,30678.78
1600600,997.12,857.17,1.00,4,4,4,7350.88,2.55,415290.37,2300.57,1.71,369735.36,2776.06,-2.86,84362.64,1401.10,-0.34,15253.37,336.94,3.06,15912.51
1615100,1119.66,850.56,1.00,4,4,4,8463.56,-0.05,1052171.43,5532.77,-0.63,505473.96,6056.64,-0.29,588040.23,1678.33,-0.25,21714.68,565.90,2.98,15979.47
1630000,1128.39,761.12,1.00,4,4,4,6031.34,-1.47,645933.87,14936.96,-0.46,639571.54,7748.84,-0.28,113605.94,1281.76,-0.47,34352.30,721.61,2.56,20448.39
1644700,1515.44,653.48,1.00,4,4,4,27329.30,-0.27,1753615.31,9532.79,-0.15,445983.36,6051.40,-0.24,117157.29,1492.67,-0.14,33945.84,1390.75,2.73,46966.26
1674100,1544.08,698.42,1.00,4,4,4,1812.55,1.00,913478.23,2205.21,0.81,287836.95,4285.85,-0.10,64883.51,1851.46,-0.37,17716.72,1401.10,-0.34,94911.07
1695600,1592.84,734.78,1.00,4,4,4,2828.76,0.64,60635.37,2123.25,2.76,166630.29,2321.02,2.68,302615.33,549.07,-0.46,60719.11,1678.33,-0.25,14644.78
1710600,1472.17,727.31,1.00,4,4,4,8059.95,-3.08,702799.16,8259.08,3.13,421904.39,4761.25,2.93,171882.24,891.22,1.19,71925.94,1281.76,-0.47,34123.28
1725200,1348.38,737.15,1.00,4,4,4,8505.46,3.06,85608.94,8097.22,2.98,83973.21,6981.09,2.94,152130.47,4351.41,2.74,303015.38,1492.67,-0.14,34178.35
1739900,1237.89,764.74,1.00,1,1,1,7747.00,2.90,104807.12,6055.76,2.68,200249.60,5006.42,2.66,176326.96,4761.25,2.93,65685.99,1851.46,-0.37,35433.45
1754700,1188.50,816.86,1.00,1,1,1,4851.31,2.33,303425.52,3557.65,2.04,258739.82,6812.36,2.76,128694.56,6981.09,2.94,150074.65,549.07,-0.46,88206.82
1777100,1177.68,882.60,1.00,1,1,1,2974.31,1.73,130067.68,7439.92,2.81,244420.26,3557.65,2.04,211870.86,5006.42,2.66,115714.57,891.22,1.19,48164.69
1791800,927.31,906.10,1.00,1,1,1,17106.92,3.05,1129429.54,17106.92,3.05,681919.72,7439.92,2.81,372449.91,6812.36,2.76,129570.04,4351.41,2.74,300954.05
