@RELATION gaze_labels

%@METADATA width_px 1920
%@METADATA height_px 1080
%@METADATA width_mm 540.00
%@METADATA height_mm 254.00
%@METADATA distance_mm 620.00


@ATTRIBUTE time INTEGER
@ATTRIBUTE x NUMERIC
@ATTRIBUTE y NUMERIC
@ATTRIBUTE confidence NUMERIC
@ATTRIBUTE handlabeller1 INTEGER
@ATTRIBUTE handlabeller2 INTEGER
@ATTRIBUTE handlabeller_final INTEGER
@ATTRIBUTE speed_1 numeric
@ATTRIBUTE direction_1 numeric
@ATTRIBUTE acceleration_1 numeric
@ATTRIBUTE speed_2 numeric
@ATTRIBUTE direction_2 numeric
@ATTRIBUTE acceleration_2 numeric
@ATTRIBUTE speed_4 numeric
@ATTRIBUTE direction_4 numeric
@ATTRIBUTE acceleration_4 numeric
@ATTRIBUTE speed_8 numeric
@ATTRIBUTE direction_8 numeric
@ATTRIBUTE acceleration_8 numeric
@ATTRIBUTE speed_16 numeric
@ATTRIBUTE direction_16 numeric
@ATTRIBUTE acceleration_16 numeric

%The number after speed, direction denotes the step size that was used for the calculation.
%Acceleration was calculated between two adjacent samples of the already low pass filtered velocity

@DATA
0,303.44,492.90,1.00,1,1,1,0.00,0.00,0.00,2581.58,-2.01,0.00,1181.58,-2.21,0.00,588.25,-2.18,0.00,210.67,-2.90,0.00
14700,287.42,458.50,1.00,1,1,1,2581.58,-2.01,175617.49,1181.58,-2.21,98287.71,331.35,0.21,98486.98,525.71,1.14,75474.54,123.63,2.14,14088.69
29500,282.61,464.96,1.00,1,1,1,544.21,2.21,194587.60,331.35,0.21,97821.53,588.25,-2.18,58207.63,309.08,-2.21,56111.36,248.11,1.28,12978.65
51700,299.41,461.09,1.00,1,1,1,776.46,-0.23,55960.01,117.46,-1.95,18410.17,525.71,1.14,49976.39,735.79,1.19,46725.93,194.63,2.44,11132.11
66400,281.00,460.93,1.00,1,1,1,1251.94,-3.13,137088.12,992.41,1.48,75205.75,309.08,-2.21,56493.07,210.67,-2.90,59558.05,105.08,-2.94,10457.15
81200,302.07,490.25,1.00,1,1,1,2438.95,0.95,225335.76,554.35,-2.28,99916.69,735.79,1.19,70088.89,123.63,2.14,13993.49,282.60,-2.53,12882.13
96000,270.28,448.52,1.00,1,1,1,3544.61,-2.22,404257.04,592.58,0.70,77251.88,345.13,1.82,33777.69,248.11,1.28,12978.65,40.52,-0.50,20451.52
111000,315.58,501.62,1.00,1,1,1,4653.29,0.86,546321.61,839.46,1.45,38330.93,360.31,-2.56,38365.39,194.63,2.44,16475.53,234.59,-2.34,16545.69
140700,274.67,485.78,1.00,1,1,1,1477.01,-2.77,201822.11,905.04,-2.51,53822.78,692.20,1.15,34166.11,105.08,-2.94,5175.76,223.42,-2.49,1221.57
163000,277.52,473.93,1.00,1,1,1,546.54,-1.33,67502.13,634.65,0.66,69035.77,535.79,-2.59,52638.61,282.60,-2.53,8549.57,136.23,1.09,15778.06
177600,293.16,500.16,1.00,1,1,1,2091.31,1.03,172018.36,166.12,1.38,35687.66,437.59,-1.85,24736.27,40.52,-0.50,20731.68,509.22,0.60,26993.98
192400,278.45,478.73,1.00,1,1,1,1756.06,-2.17,259827.14,1697.83,-2.13,125248.62,196.72,-2.48,20351.16,234.59,-2.34,16769.28,619.30,0.40,10482.54
207000,266.54,457.93,1.00,1,1,1,1641.58,-2.09,12228.00,416.65,-2.31,88315.84,709.80,-1.87,38338.79,265.13,-2.18,3422.66,587.82,0.44,2724.80
236700,266.07,465.04,1.00,1,1,1,239.87,1.64,62161.10,306.34,-0.92,15781.34,145.21,-0.40,23929.00,232.79,0.63,16525.28,629.36,0.34,2530.98
258500,276.04,445.34,1.00,1,1,1,1012.85,-1.10,56746.61,684.59,0.38,30769.86,181.85,-2.85,14131.91,811.97,0.42,26881.35,690.42,0.40,3287.87
273100,289.25,474.18,1.00,1,1,1,2172.07,1.14,199504.78,854.32,2.80,98795.37,624.96,0.64,54689.79,1243.88,0.28,31096.60,601.70,0.22,9752.15
287800,252.46,453.72,1.00,2,2,2,2863.77,-2.63,325840.47,612.25,0.87,82440.22,2161.72,0.67,104575.64,1136.98,0.43,13774.93,744.54,0.17,10072.12
317400,306.66,494.98,1.00,3,3,3,2301.14,0.65,174047.50,3673.02,0.56,104635.91,2372.35,0.32,27589.20,1497.66,0.39,12294.61,635.97,0.42,6876.39
339300,413.04,553.70,1.00,1,1,1,5548.55,0.50,150187.19,4624.35,0.23,74375.46,2246.85,0.42,11740.10,1386.87,0.42,5487.73,714.15,0.30,5070.08
354100,471.72,534.44,1.00,1,1,1,4173.00,-0.32,275786.25,871.45,-0.34,264924.16,2389.81,0.32,17293.18,1404.24,0.32,9967.23,801.80,0.31,5973.62
383700,449.53,540.85,1.00,1,1,1,780.14,2.86,167321.36,655.31,0.88,30038.25,845.80,-0.33,60616.73,1596.73,0.27,6840.16,768.77,0.41,2668.62
398500,490.35,556.79,1.00,1,1,1,2960.87,0.37,244025.49,808.08,-0.32,56148.00,439.80,0.30,37401.77,1064.83,0.37,36902.98,1288.16,0.37,35191.00
413800,472.65,533.29,1.00,1,1,1,1922.81,-2.22,307631.22,530.39,-0.65,23115.86,829.72,-0.32,34909.18,618.41,0.12,32104.71,1699.15,0.51,30024.11
435400,505.91,544.91,1.00,1,1,1,1630.89,0.34,157488.23,847.71,-0.32,17969.72,567.95,-3.00,63092.15,295.72,0.48,16573.79,1964.18,0.42,14386.00
450000,501.81,523.72,1.00,1,1,1,1478.52,-1.76,184707.16,1811.64,3.02,181418.84,614.53,0.86,75857.70,277.74,0.30,3750.44,2038.36,0.36,9469.81
464800,453.06,551.56,1.00,1,1,1,3793.09,2.62,303571.94,1367.32,1.64,138391.34,153.44,1.29,32401.47,1032.69,0.33,51022.52,1904.22,0.35,9082.59
479300,499.04,563.69,1.00,1,1,1,3279.37,0.26,451628.18,1896.87,0.04,163787.42,499.73,2.12,28469.79,2039.64,0.57,73394.83,1405.34,0.33,34538.70
494000,508.41,553.55,1.00,2,2,2,939.31,-0.82,201180.06,517.04,-2.45,158346.94,2637.40,0.29,191139.25,2629.26,0.48,42403.36,1356.11,0.39,6622.50
515700,484.56,551.66,1.00,3,3,3,1102.52,-3.06,84716.09,3298.01,0.40,174947.70,3217.13,0.52,41274.85,2563.06,0.42,7770.41,1389.58,0.50,7139.14
530600,619.42,600.95,1.00,3,3,3,9636.67,0.35,718318.67,6265.92,0.53,203176.85,4457.71,0.46,84708.26,2749.51,0.35,17884.91,1129.86,0.34,21700.18
560200,724.45,693.80,1.00,1,1,1,4735.90,0.72,186005.70,5422.88,0.49,29731.54,4920.21,0.33,25987.98,2170.47,0.38,19784.62,1286.88,0.44,6617.26
574900,831.21,714.35,1.00,1,1,1,7396.11,0.19,279038.84,3630.91,-0.23,244828.72,2847.86,0.39,141895.08,2363.87,0.38,13201.37,1293.62,0.43,1301.11
589600,828.45,669.76,1.00,1,1,1,3038.84,-1.63,589682.68,695.72,-1.56,240509.97,1078.34,-0.14,136044.46,2341.58,0.52,22617.18,1459.18,0.41,11345.74
611200,831.36,689.09,1.00,1,1,1,905.08,1.42,182464.42,975.46,2.75,64859.74,487.09,-1.54,51006.65,1202.53,0.35,54250.68,1944.71,0.23,26715.47
626500,795.20,683.54,1.00,1,1,1,2391.41,-2.99,182831.22,237.81,-1.44,72809.24,839.94,2.01,85126.73,663.37,0.09,38530.28,1834.80,0.20,8050.36
641400,832.32,681.97,1.00,1,1,1,2493.32,-0.04,326285.53,1091.28,1.48,88860.14,195.61,-2.28,62925.54,264.57,0.01,26860.23,1823.89,0.18,2350.73
670700,799.79,731.55,1.00,1,1,1,2023.86,2.15,137366.50,227.79,-2.65,42068.41,431.37,0.49,21092.80,587.30,0.39,12145.86,1877.29,0.21,2413.21
707600,819.04,674.82,1.00,2,2,2,1623.75,-1.24,98068.06,825.87,-0.73,25162.22,509.58,0.62,2673.38,1300.86,0.01,21325.87,1608.06,0.09,9204.30
722400,831.64,703.12,1.00,2,2,2,2093.23,1.15,234167.51,1619.33,0.59,109974.35,1325.19,-0.18,70032.80,1620.90,-0.01,21685.87,1325.53,-0.09,25862.15
751500,877.93,714.64,1.00,3,3,3,1639.31,0.24,57986.06,2119.09,0.06,37508.63,3176.78,0.07,65934.68,1462.49,-0.09,6837.85,931.66,-0.16,13786.46
766300,924.47,709.12,1.00,1,1,1,3166.72,-0.12,117130.44,5917.42,-0.14,261091.69,3111.42,-0.09,33602.49,1689.40,-0.22,20580.17,958.22,-0.12,3223.70
781300,1052.63,690.67,1.00,1,1,1,8632.17,-0.14,364468.19,4349.11,-0.18,105537.49,3303.82,-0.26,37878.55,2215.32,-0.10,38294.27,742.29,-0.22,15495.68
802900,1081.11,680.81,1.00,1,1,1,1395.26,-0.33,336432.74,1322.28,-0.71,151853.20,2221.30,-0.25,50120.54,2113.69,-0.16,7470.54,983.08,-0.00,14003.98
817500,1088.87,659.39,1.00,1,1,1,1559.91,-1.22,87701.59,583.95,-2.65,111470.68,1321.73,-0.56,71328.73,1826.53,-0.19,20250.42,863.47,-0.10,9983.74
832100,1066.05,672.81,1.00,1,1,1,1812.94,2.61,217417.30,1363.18,-0.37,123182.93,806.17,-0.51,35449.41,1531.57,-0.34,26642.66,889.13,-0.21,6878.51
846900,1126.17,644.72,1.00,1,1,1,4483.14,-0.44,425021.79,1976.20,-0.27,43159.15,424.07,0.33,41478.07,364.34,-1.42,94243.09,1005.49,-0.01,14898.64
861600,1122.31,657.52,1.00,1,1,1,909.28,1.86,349266.49,704.43,1.99,168868.55,994.16,-0.51,53008.26,179.12,0.05,26431.40,943.06,-0.24,15991.11
884000,1115.53,668.59,1.00,1,1,1,579.70,2.12,16897.00,541.74,-1.04,55547.66,809.55,-3.04,76783.43,111.97,-0.22,3441.04,833.54,-0.31,5579.09
913300,1136.49,633.37,1.00,1,1,1,1399.03,-1.03,67532.33,1425.12,-2.63,52352.17,361.43,2.15,24527.14,25.68,0.70,3360.09,610.10,-0.26,7716.02
928000,1060.87,637.86,1.00,1,1,1,5152.97,3.08,411576.13,1943.59,2.13,160362.21,230.21,-2.30,32318.66,225.45,2.15,15239.07,161.29,-1.14,35525.58
942800,1106.14,682.01,1.00,1,1,1,4272.94,0.77,583028.57,1580.92,0.40,182133.29,1191.17,2.59,79245.56,228.12,-2.54,21847.79,134.24,-0.86,3316.54
957700,1104.19,655.97,1.00,1,1,1,1752.81,-1.65,382971.42,1015.75,-2.96,173307.82,873.89,0.64,115328.78,183.19,-1.90,9115.67,30.31,-1.69,7785.87
980000,1068.97,675.24,1.00,1,1,1,1800.47,2.64,133940.74,457.72,1.36,56707.75,676.41,-1.83,65696.66,283.06,2.45,17394.66,191.85,0.72,9657.15
994800,1107.81,672.56,1.00,1,1,1,2630.85,-0.07,292711.24,1521.20,-0.96,125898.37,176.50,-1.43,35055.64,89.90,0.53,21927.57,123.21,2.51,16903.62
1009400,1094.47,638.50,1.00,1,1,1,2505.33,-1.94,283643.52,697.65,-1.62,72540.93,410.71,-0.38,24402.98,196.76,-1.52,17232.85,34.33,-2.46,8157.20
1039000,1106.23,641.77,1.00,1,1,1,412.17,0.27,93665.10,413.36,1.23,37159.39,455.60,-2.47,25292.16,98.93,-2.78,6463.31,61.71,-2.64,966.97
1068700,1102.74,661.58,1.00,1,1,1,677.37,1.75,25530.08,632.93,3.03,28054.27,181.07,0.72,21432.42,336.25,0.72,14484.61,204.81,2.01,7319.31
1091000,1073.50,645.29,1.00,1,1,1,1500.82,-2.63,82420.09,339.35,-1.17,38153.54,209.13,2.73,14806.01,83.60,-2.79,18621.00,174.19,0.94,8778.66
1105800,1107.63,649.98,1.00,1,1,1,2327.24,0.14,254405.32,334.16,0.31,30707.75,640.35,1.39,42327.76,127.18,0.56,14166.87,203.38,-2.50,25224.11
1135600,1087.70,649.82,1.00,1,1,1,668.66,-3.13,100389.11,1421.41,1.50,44777.77,414.60,0.82,12346.66,117.23,2.00,5412.13,144.51,-3.14,4111.16
1150200,1112.03,712.93,1.00,1,1,1,4632.90,1.20,336835.20,650.47,1.21,56124.82,74.31,0.08,24874.78,194.68,1.32,8656.59,86.66,0.32,15646.79
1165000,1094.43,667.72,1.00,1,1,1,3278.21,-1.94,534533.86,1693.53,-1.54,156030.30,213.36,0.72,10812.54,283.60,1.09,7093.65,109.45,-1.53,10633.94
1187100,1113.65,650.46,1.00,1,1,1,1168.71,-0.73,138801.00,255.11,-1.14,66157.91,349.70,-1.67,23789.34,365.48,-3.05,25878.72,90.05,-2.41,3900.72
1201900,1098.33,659.15,1.00,1,1,1,1189.89,2.63,158439.39,1306.70,1.67,104747.69,195.67,1.75,36527.10,223.57,2.92,11316.34,74.85,-3.09,3833.71
1217200,1109.82,689.61,1.00,1,1,1,2127.45,1.21,148448.74,753.93,1.86,38106.76,972.52,-3.05,63686.80,260.85,-2.12,18509.86,109.69,-1.00,10475.02
1231400,1092.09,680.50,1.00,1,1,1,1403.86,-2.67,232776.70,2404.57,-2.45,196613.87,646.43,-3.06,22966.84,225.72,-1.12,16660.81,166.55,-1.32,4996.25
1246000,1056.60,645.30,1.00,1,1,1,3423.67,-2.36,145756.84,1363.56,-2.48,71436.97,259.81,-2.77,27657.11,364.79,-2.49,26630.91,73.10,-1.35,6403.92
1260800,1060.39,655.96,1.00,1,1,1,764.32,1.23,278780.17,1445.92,0.80,189380.35,566.44,-1.19,42250.56,169.89,-2.24,13800.96,133.79,-0.60,6393.38
1282900,1093.90,683.45,1.00,1,1,1,1961.26,0.69,61751.14,1004.63,-0.36,62738.44,380.71,-1.00,9317.46,383.96,-1.39,13610.86,369.16,-1.42,13336.56
1312500,1109.06,637.81,1.00,1,1,1,1624.51,-1.25,100037.87,1530.20,-1.88,60560.39,344.95,-0.59,5180.42,556.25,-1.65,7138.08,275.95,-1.01,5370.72
1326900,1073.22,619.37,1.00,1,1,1,2798.60,-2.67,209151.99,879.51,3.03,111239.70,688.84,-1.08,29072.80,391.83,-0.28,42704.52,231.51,-0.44,10271.70
1341600,1083.61,640.54,1.00,1,1,1,1603.86,1.11,285457.50,1333.35,0.31,147452.59,688.86,-2.12,46384.76,403.66,-0.44,4410.96,153.99,-0.63,5773.58
1363800,1120.11,634.27,1.00,3,3,3,1668.46,-0.17,88335.17,1126.61,-1.53,88171.34,603.20,0.25,53931.34,513.52,-1.17,15422.13,272.15,-0.92,5965.49
1378600,1085.42,598.89,1.00,1,1,1,3347.93,-2.35,304818.14,306.09,-2.59,68463.58,468.94,-0.33,22498.29,323.69,-0.94,14218.10,274.54,-0.44,8794.59
1393800,1112.30,629.45,1.00,1,1,1,2677.30,0.85,396252.84,1027.29,0.71,87524.51,370.41,-1.30,26403.01,602.72,-0.00,32063.11,294.08,-0.03,7753.73
1422400,1119.47,628.31,1.00,1,1,1,253.91,-0.16,89185.04,518.86,-1.04,43027.86,570.43,-0.06,19910.12,311.58,-0.18,10532.87,272.65,-0.22,2044.81
1459300,1129.58,600.19,1.00,1,1,1,809.87,-1.23,19581.95,746.67,-1.02,6183.64,621.43,-0.15,2024.79,258.40,-0.30,1713.58,459.34,-2.92,19393.86
1474100,1139.79,595.48,1.00,1,1,1,759.38,-0.43,41125.69,1205.57,0.36,87007.77,192.11,0.12,29706.74,552.01,0.47,27567.42,965.62,3.08,36456.49
1503800,1179.84,618.94,1.00,1,1,1,1562.84,0.53,43384.28,792.37,1.63,41470.54,523.42,0.58,12162.20,236.50,0.32,10766.94,871.60,3.00,3909.94
1518400,1137.78,630.53,1.00,1,1,1,2988.55,2.87,289714.64,627.52,3.02,62793.66,708.28,0.96,20397.02,174.58,0.30,4253.60,830.48,3.04,3394.27
1532800,1161.79,621.22,1.00,1,1,1,1788.29,-0.37,331329.84,1001.45,0.34,110287.43,555.00,2.44,59546.52,1321.55,2.86,102118.87,950.97,-3.11,11909.58
1555100,1172.48,642.63,1.00,2,2,2,1072.96,1.11,89580.46,635.98,2.01,55576.19,161.17,0.61,27661.60,2337.27,2.95,46188.06,867.90,3.08,5358.02
1569900,1151.81,642.61,1.00,3,3,3,1396.65,-3.14,142442.71,899.08,-2.91,66740.37,3188.81,3.00,223531.83,2950.96,3.04,44291.76,972.63,3.13,7788.47
1584700,1146.56,636.62,1.00,3,3,3,538.15,-2.29,75455.25,6804.28,3.09,401622.95,6014.22,3.10,193534.29,2353.36,3.02,40530.35,935.59,-3.11,3746.69
1599300,951.99,652.08,1.00,3,3,3,13368.43,3.06,894082.65,11216.30,3.08,302285.46,5755.29,3.10,17736.20,2321.23,3.13,17598.74,1083.69,3.03,14168.90
1614000,818.51,656.29,1.00,1,1,1,9084.96,3.11,293586.58,4714.11,3.12,442667.43,4832.21,3.04,66231.27,2585.88,-3.07,22732.99,1207.34,3.02,8426.58
1628900,812.50,655.54,1.00,1,1,1,406.69,-3.02,582784.26,401.60,0.86,334082.39,1672.19,-2.94,219658.22,2479.24,-3.11,10403.14,1219.53,3.08,4654.16
1650900,828.16,667.54,1.00,1,1,1,896.98,0.65,57496.27,614.74,-1.36,41592.66,503.93,-1.75,70687.17,2153.54,-3.08,15085.36,1022.98,3.10,8976.12
1680400,819.19,624.59,1.00,1,1,1,1487.10,-1.78,76079.39,1224.13,-1.89,25796.42,299.26,-1.89,7178.71,903.16,-3.01,42538.70,1054.92,3.05,1907.51
1695200,811.18,616.04,1.00,1,1,1,792.22,-2.32,61418.35,555.19,2.64,96971.51,603.60,-1.53,22980.17,209.33,-2.42,49903.26,1028.03,3.10,3895.81
1709900,804.86,632.53,1.00,1,1,1,1201.37,1.94,115913.05,519.62,0.14,69351.23,149.74,1.48,51174.49,147.07,-0.71,18516.96,967.93,-3.08,7999.05
1731900,830.06,618.68,1.00,1,1,1,1306.93,-0.50,107060.02,419.22,0.13,4572.19,383.52,2.24,13388.66,136.43,-1.82,6811.88,1073.73,-2.91,9180.20
1746600,820.13,634.46,1.00,1,1,1,1268.51,2.13,169615.03,1316.12,2.68,114378.51,331.97,0.29,40425.40,191.85,0.95,21964.65,386.20,-3.11,47570.24
1761300,795.40,635.88,1.00,1,1,1,1684.89,3.08,95413.82,269.58,0.49,101253.24,280.53,1.87,29710.15,303.86,0.82,7918.88,61.83,1.94,25201.69
1790700,830.60,640.09,1.00,1,1,1,1205.77,0.12,97950.24,427.75,0.30,5818.35,240.62,0.74,9550.69,240.90,-0.21,9369.34,189.03,0.97,5518.78
1827100,822.28,644.23,1.00,1,1,1,255.25,2.68,39178.12,229.57,0.99,7939.01,505.59,0.36,8134.38,364.04,-1.80,12096.89,578.60,0.78,10839.29
1841800,837.08,649.87,1.00,1,1,1,1077.40,0.36,86018.11,623.17,0.41,30464.42,239.51,-0.81,31748.56,86.47,1.09,30505.57,713.99,1.00,13396.32
1871400,847.56,655.31,1.00,1,1,1,399.09,0.48,23055.50,630.18,-1.23,31037.88,1158.45,-1.65,34237.41,239.55,1.18,5189.94,2350.16,-0.10,71918.72
1886100,846.35,623.54,1.00,1,1,1,2163.10,-1.61,162291.71,3422.06,-1.89,200519.67,125.07,-2.96,77053.70,420.42,1.33,12679.87,2121.59,-0.15,17256.40
1901100,815.88,558.74,1.00,4,4,4,4773.50,-2.01,193853.31,847.75,2.24,263697.14,624.72,2.65,35567.28,1458.43,0.84,73590.38,2529.92,-0.01,35310.99
1922800,827.12,648.00,1.00,4,4,4,4145.70,1.45,405984.70,3203.73,1.61,118239.94,1248.36,1.56,50845.59,1317.10,1.01,12659.83,2490.29,0.12,15073.70
1937400,811.31,674.95,1.00,4,4,4,2140.20,2.10,190123.61,2090.66,1.24,100375.55,4212.00,1.03,219083.21,5247.18,-0.16,335288.95,2072.64,0.19,30587.52
1952100,847.04,705.93,1.00,4,4,4,3217.00,0.71,239694.85,6473.08,0.69,327539.66,3250.72,0.97,67028.71,4374.89,-0.15,59581.62,1736.26,0.31,27645.08
1966800,958.00,796.18,1.00,4,4,4,9730.36,0.68,443247.17,4509.63,0.85,146012.76,11060.53,-0.18,693538.43,5554.83,0.07,107895.32,1535.47,0.41,17339.66
1981600,934.71,805.99,1.00,4,4,4,1707.71,2.74,718966.81,17028.57,-0.42,1099209.03,8139.52,-0.27,205469.50,5568.20,0.11,14906.75,922.03,1.12,69426.16
2003700,1532.34,541.30,1.00,4,4,4,29575.74,-0.42,1415527.80,11907.52,-0.47,234062.46,8581.63,-0.27,20153.53,4521.91,0.14,47830.04,911.44,1.21,4001.70
2033200,1482.81,528.31,1.00,4,4,4,1735.80,-2.89,1049203.06,2735.31,0.64,371478.77,8279.93,-0.11,45006.51,3417.53,0.20,38320.72,464.24,1.36,15526.22
2047900,1629.50,613.25,1.00,4,4,4,11531.27,0.52,898840.87,7975.59,1.04,378635.26,3242.48,1.97,698946.18,1830.64,0.09,109612.69,787.02,1.31,22062.32
2062600,1601.15,730.74,1.00,4,4,4,8221.90,1.81,823942.13,8187.42,2.48,725579.97,4697.85,2.05,100796.00,599.06,1.31,117324.13,315.07,1.30,32108.21
2077400,1438.49,761.07,1.00,4,4,4,11179.77,2.96,732192.69,7360.82,2.86,206498.55,6835.62,2.67,275585.54,4488.66,2.60,294358.39,181.75,0.70,13185.74
2099400,1340.62,804.89,1.00,4,4,4,4874.40,2.72,297353.27,5986.70,2.87,62515.26,8194.87,2.88,95716.11,4024.51,2.77,39617.19,48.17,-1.27,9328.57
2114100,1226.66,819.38,1.00,1,1,1,7814.78,3.02,234943.42,8891.28,2.90,197963.95,6420.48,2.87,120897.43,4776.55,2.91,65036.20,394.19,-2.36,25467.99
2143600,959.27,899.87,1.00,1,1,1,9465.69,2.85,73955.14,6782.33,2.87,71907.15,4881.46,-3.05,85577.93,4627.45,3.13,35926.10,376.71,-2.62,3392.36
2158100,939.33,899.98,1.00,1,1,1,1375.72,3.14,562455.71,3104.72,-2.12,458038.50,3657.26,-3.07,84526.95,3311.16,-3.06,94405.06,2166.89,2.93,131411.98
2195000,875.76,763.89,1.00,1,1,1,4070.57,-2.01,100583.88,2380.82,-2.09,19725.71,2383.85,-2.16,78284.88,2955.19,-2.91,15547.14,2214.50,2.88,2972.79
2209700,877.98,793.54,1.00,1,1,1,2022.77,1.50,408507.66,1144.92,-2.33,88295.47,2145.47,-1.99,30545.81,2130.51,-2.84,57598.14,2546.63,3.05,34952.24
2224400,852.48,739.58,1.00,1,1,1,4060.42,-2.01,407675.24,1908.37,-1.84,71578.69,1029.57,-1.89,76544.62,1248.78,-2.27,86300.16,2502.18,-3.06,30956.98
2254100,855.48,711.85,1.00,1,1,1,938.96,-1.46,110987.50,1074.82,-1.59,30521.62,1080.97,-1.69,7237.74,1388.51,-1.92,16108.08,1901.52,-2.95,21676.84
2269300,851.54,691.33,1.00,1,1,1,1375.00,-1.76,36249.99,349.11,-0.44,64754.36,296.83,2.92,75636.75,528.75,-2.12,57694.83,1676.47,-2.86,18442.86
2291000,867.12,706.33,1.00,1,1,1,996.82,0.77,104314.68,1599.15,1.97,86355.05,368.64,-1.30,26399.27,768.68,-1.70,16584.08,1130.70,-2.68,27484.63
2305700,828.96,744.97,1.00,1,1,1,3694.71,2.35,261146.10,637.51,-1.85,145203.14,265.37,2.57,40403.00,522.02,-1.86,18174.24,846.88,-1.21,91337.68
2320400,862.01,688.30,1.00,1,1,1,4463.31,-1.04,550635.40,1525.74,-1.39,67547.75,336.97,-1.72,34554.11,469.83,-1.47,13460.79,907.79,-1.01,12570.15
2335100,836.89,700.83,1.00,1,1,1,1909.57,2.68,418374.18,91.25,-0.62,99432.96,1198.21,-1.55,59030.71,276.81,-2.10,20003.08,982.50,-0.55,30109.43
2349800,864.19,686.74,1.00,1,1,1,2089.95,-0.48,272069.52,970.19,-1.75,63606.33,580.55,-1.58,42056.45,427.90,-0.86,28993.56,1078.56,-0.54,6537.32
2371700,830.45,665.91,1.00,1,1,1,1810.90,-2.59,155171.14,1006.75,-1.64,5228.42,555.66,-1.70,3228.19,1684.29,-0.37,60447.29,971.71,-0.45,6698.31
2386400,861.52,649.99,1.00,2,2,2,2374.96,-0.47,248779.35,218.48,-1.50,53806.14,607.58,-0.55,43018.98,1547.22,-0.12,28964.01,960.44,-0.32,8119.83
2416000,831.09,656.25,1.00,3,3,3,1049.63,2.94,114797.54,1036.52,0.24,37029.86,2956.43,-0.03,82800.39,1988.38,-0.29,18102.28,881.45,-0.32,2669.52
2430500,905.90,660.95,1.00,3,3,3,5169.38,0.06,426781.25,7358.33,0.02,438050.78,2800.13,0.05,18774.11,1934.59,-0.19,14204.85,890.18,-0.62,18119.41
2445600,1048.86,660.32,1.00,1,1,1,9467.65,-0.00,286346.81,4941.58,0.00,160151.90,4375.66,-0.14,113043.24,1890.36,-0.18,3065.38,1001.34,-0.52,9673.06
2467300,1087.74,661.74,1.00,1,1,1,1793.29,0.04,353742.20,2212.26,-0.57,152413.64,3625.98,-0.12,34746.84,1630.54,-0.11,13481.43,885.87,-0.34,9221.34
2481800,1116.35,617.21,1.00,1,1,1,3650.04,-1.00,216678.05,2129.40,-0.48,14546.09,1030.22,-0.61,190479.70,1754.96,-0.18,12192.25,858.47,-0.58,14305.42
2496100,1142.17,633.47,1.00,1,1,1,2134.07,0.56,294533.01,91.00,-1.56,146046.23,656.69,-0.85,29480.07,1304.91,-0.55,50047.87,854.63,-0.43,8747.42
2525500,1116.37,613.23,1.00,1,1,1,1115.26,-2.48,110388.55,439.50,-2.62,13704.74,144.64,-2.16,21602.14,513.67,-0.92,28815.32,1039.23,-0.40,6390.43
2547400,1122.57,622.32,1.00,1,1,1,502.39,0.97,73122.76,208.19,-2.37,11135.86,1049.98,-2.18,41340.86,468.95,-1.01,2893.74,890.69,-0.25,9288.62
2576800,1108.73,605.77,1.00,2,2,2,733.87,-2.27,42001.13,1823.65,-2.06,55331.24,292.17,-2.05,25881.22,472.66,-2.18,17580.10,989.63,-0.29,3529.30
2591500,1085.04,551.19,1.00,3,3,3,4047.39,-1.98,227887.49,407.82,-1.87,96929.27,332.64,-1.29,16081.33,388.69,-1.98,8055.29,778.20,-0.32,14508.53
2621200,1103.39,588.47,1.00,1,1,1,1398.88,1.11,183335.83,1181.73,0.72,51962.39,854.58,-2.18,23407.70,471.09,-1.35,9383.01,469.23,-0.73,13352.39
2643600,1131.50,591.59,1.00,1,1,1,1262.70,0.11,57353.86,1418.44,-2.28,115784.43,433.69,0.57,56534.87,286.06,-1.31,8285.50,397.73,-1.37,12479.78
2658400,1068.91,548.52,1.00,1,1,1,5133.36,-2.54,423963.24,915.97,-2.24,34129.23,872.27,-1.03,66632.82,247.45,-1.33,2638.13,153.41,-0.87,18430.41
2673100,1114.79,570.36,1.00,1,1,1,3456.27,0.44,582564.65,2215.74,-0.15,189349.85,210.37,-1.36,46035.71,405.84,0.62,37256.53,193.42,-1.67,9471.70
2687800,1133.31,538.67,1.00,1,1,1,2496.53,-1.04,278154.57,726.06,0.44,113192.59,910.54,0.45,66856.16,441.36,-0.44,29164.00,137.60,-1.73,3852.73
2702500,1134.09,579.47,1.00,1,1,1,2776.16,1.55,345339.68,1262.69,2.03,99639.75,372.64,0.68,37705.43,401.89,-1.91,38473.21,215.70,-1.16,8418.14
2717200,1117.02,572.03,1.00,1,1,1,1267.10,-2.73,238072.90,175.57,1.62,75049.52,511.84,0.82,10287.54,606.63,0.38,62734.31,1036.63,-0.17,63687.05
2738800,1133.76,585.84,1.00,1,1,1,1004.61,0.69,104166.90,1093.68,-0.21,53349.35,569.55,-2.05,49600.16,154.23,0.10,21318.07,1100.43,0.08,12832.18
2754100,1156.46,563.48,1.00,1,1,1,2082.42,-0.78,144886.80,1159.97,-1.99,114151.75,390.26,0.26,57526.05,272.03,2.20,24457.92,1117.31,-0.06,10661.54
2783300,1112.93,538.61,1.00,1,1,1,1716.89,-2.62,103977.23,428.63,2.07,50088.86,183.26,-1.39,15176.82,151.28,-0.87,14487.31,844.05,-0.20,10476.18
2798000,1147.52,580.04,1.00,1,1,1,3671.40,0.88,361525.60,1394.27,0.97,85582.27,583.39,2.98,45450.30,1944.47,-0.06,125391.69,1230.60,0.04,31090.91
2812800,1136.23,572.50,1.00,1,1,1,917.01,-2.55,307998.03,1042.59,-2.91,153838.22,646.30,0.59,77265.10,1827.82,-0.02,8955.50,947.49,-0.21,25955.93
2835200,1109.77,571.13,1.00,2,2,2,1182.85,-3.09,27368.94,429.96,-0.68,60198.86,3867.72,-0.10,151493.44,1704.66,0.02,6348.07,940.49,-0.11,3969.48
2849600,1148.50,562.51,1.00,3,3,3,2755.24,-0.22,271375.37,10104.31,-0.05,677788.13,3479.20,0.02,40569.54,1655.73,0.00,3620.97,953.62,-0.16,3324.96
2864200,1402.37,555.40,1.00,3,3,3,17395.51,-0.03,1006828.92,6144.18,0.06,278204.70,4007.57,-0.01,37171.75,1809.15,-0.06,13252.48,1017.33,-0.11,5496.72
2893200,1415.88,578.83,1.00,1,1,1,932.73,1.05,585247.35,617.64,0.40,191911.44,2445.99,-0.10,54654.83,1639.94,-0.23,11503.21,938.74,-0.27,6109.96
2915500,1431.56,567.73,1.00,1,1,1,861.27,-0.62,59510.59,1018.11,-2.31,71737.91,393.66,0.16,92738.64,1889.21,-0.20,11413.17,823.30,-0.17,6597.31
2944900,1380.50,539.87,1.00,1,1,1,1978.55,-2.64,84379.82,227.79,-0.67,36012.05,865.71,-1.88,37520.13,1655.28,-0.11,9625.56,951.81,-0.05,5617.02
2959700,1439.47,561.50,1.00,1,1,1,4244.19,0.35,419458.70,1054.57,-1.11,57754.18,660.49,-1.51,23615.86,262.25,-0.44,95271.50,1071.66,-0.26,16027.64
2974400,1394.23,511.95,1.00,1,1,1,4563.97,-2.31,582097.24,1106.54,-1.64,38375.22,726.35,-0.17,58731.69,452.83,-1.51,27191.92,614.79,-0.45,32868.30
3011200,1435.55,504.65,1.00,1,1,1,1140.28,-0.17,143024.81,929.45,0.39,47049.70,325.78,-1.39,18690.72,333.59,-1.93,5467.31,392.03,-0.80,7608.24
3025900,1438.52,530.12,1.00,1,1,1,1744.49,1.45,145563.12,1082.58,1.30,60784.35,328.20,-0.25,24061.80,182.42,-0.70,22014.56,210.22,-0.86,12423.02
3040800,1444.19,535.51,1.00,1,1,1,525.12,0.76,92820.19,1038.35,-2.21,139937.11,451.73,2.56,51630.31,484.16,-1.15,22162.91,735.49,-2.97,57907.80
3055600,1420.07,505.41,1.00,1,1,1,2606.27,-2.25,211308.11,1176.37,-2.66,34612.72,653.19,-2.97,30326.15,507.16,-2.82,49593.81,717.07,-3.00,1874.27
3070500,1413.19,519.40,1.00,1,1,1,1045.90,2.03,214339.62,897.32,2.41,80896.94,693.69,-1.02,74872.07,1703.47,-3.05,81547.02,708.71,-2.97,1315.93
3085500,1400.17,523.41,1.00,2,2,2,908.38,2.84,52307.56,1616.53,-0.40,165418.77,1297.74,-2.96,111794.88,1753.05,-3.07,4061.10,782.89,-3.04,6032.91
3107700,1468.60,496.04,1.00,2,2,2,3320.05,-0.38,190363.27,1782.23,-2.72,140468.39,2693.25,-2.97,62876.75,1936.54,-3.07,8266.03,967.47,-3.02,8373.61
3137300,1315.88,485.76,1.00,3,3,3,5171.30,-3.07,280056.13,6134.47,-3.09,152656.31,2562.20,-3.09,11166.04,1540.98,2.96,20041.84,718.82,-3.12,8871.04
3152100,1196.58,482.26,1.00,1,1,1,8064.07,-3.11,196157.42,4287.74,2.93,153877.34,4021.02,3.08,101889.90,1309.97,3.08,19343.52,944.44,3.04,16739.71
3166800,1192.17,512.12,1.00,1,1,1,2053.41,1.72,549993.82,1390.00,2.20,230023.64,2030.00,2.67,156332.27,1656.06,-3.12,25125.82,1432.36,3.11,33606.16
3181500,1172.48,515.26,1.00,1,1,1,1356.60,2.98,142457.30,941.58,1.48,63126.35,827.00,1.13,147827.25,2075.08,3.05,31964.16,2334.03,3.10,61346.70
3203800,1195.48,546.81,1.00,1,1,1,1750.61,0.94,119190.72,1371.89,0.33,58494.18,550.99,2.99,50237.05,1006.58,2.99,48069.63,2448.17,3.10,5147.77
3218200,1220.10,531.61,1.00,1,1,1,2008.98,-0.55,177847.49,1686.72,-2.50,209877.66,315.29,2.75,17828.40,400.58,2.14,55679.80,1309.97,3.08,79107.90
3232900,1156.14,517.45,1.00,1,1,1,4456.11,-2.92,412313.68,1617.74,-3.05,61041.51,602.65,-2.01,45337.83,1173.47,2.97,64623.50,1656.06,-3.12,25125.82
3262400,1148.90,524.99,1.00,1,1,1,354.54,2.34,145168.33,521.56,-0.48,70354.82,681.42,3.14,23541.40,2697.58,3.03,51783.40,2075.08,3.05,15927.91
3277200,1176.64,506.78,1.00,1,1,1,2242.05,-0.58,174922.92,471.21,0.41,29081.08,1602.69,2.96,63434.81,3262.30,-3.12,47058.96,1006.58,2.99,72429.24
3299300,1164.83,531.95,1.00,2,2,2,1257.87,2.01,152869.61,3408.94,2.92,171939.78,5083.72,3.04,157861.86,681.42,3.14,116798.06,400.58,2.14,36280.05
3328800,1004.91,544.86,1.00,2,2,2,5438.87,3.06,167361.79,9662.74,3.06,213732.67,5568.69,3.09,18451.15,1602.69,2.96,31824.92,1173.47,2.97,32202.22
3343600,738.08,565.41,1.00,3,3,3,18081.99,3.06,854268.77,8165.92,-3.11,119902.36,9662.74,3.06,276939.47,5083.72,3.04,235726.15,2697.58,3.03,103216.91
3373100,643.31,534.33,1.00,1,1,1,3380.96,-2.82,509010.14,3380.96,-2.82,170053.05,8165.92,-3.11,60154.41,5568.69,3.09,18451.15,3262.30,-3.12,23609.24
