@RELATION gaze_labels

%@METADATA width_px 1920
%@METADATA height_px 1080
%@METADATA width_mm 540.00
%@METADATA height_mm 254.00
%@METADATA distance_mm 620.00


@ATTRIBUTE time INTEGER
@ATTRIBUTE x NUMERIC
@ATTRIBUTE y NUMERIC
@ATTRIBUTE confidence NUMERIC
@ATTRIBUTE handlabeller1 INTEGER
@ATTRIBUTE handlabeller2 INTEGER
@ATTRIBUTE handlabeller_final INTEGER
@ATTRIBUTE speed_1 numeric
@ATTRIBUTE direction_1 numeric
@ATTRIBUTE acceleration_1 numeric
@ATTRIBUTE speed_2 numeric
@ATTRIBUTE direction_2 numeric
@ATTRIBUTE acceleration_2 numeric
@ATTRIBUTE speed_4 numeric
@ATTRIBUTE direction_4 numeric
@ATTRIBUTE acceleration_4 numeric
@ATTRIBUTE speed_8 numeric
@ATTRIBUTE direction_8 numeric
@ATTRIBUTE acceleration_8 numeric
@ATTRIBUTE speed_16 numeric
@ATTRIBUTE direction_16 numeric
@ATTRIBUTE acceleration_16 numeric

%The number after speed, direction denotes the step size that was used for the calculation.
%Acceleration was calculated between two adjacent samples of the already low pass filtered velocity

@DATA
0,275.98,605.55,1.00,1,1,1,0.00,0.00,0.00,1222.86,-0.32,0.00,509.77,-2.25,0.00,329.18,2.58,0.00,297.39,-1.09,0.00
21300,300.74,597.46,1.00,1,1,1,1222.86,-0.32,57411.29,509.77,-2.25,69660.66,1444.38,-2.70,47383.01,1189.02,-2.48,52555.67,434.96,1.09,30624.06
35200,264.67,591.61,1.00,1,1,1,2628.67,-2.98,270321.31,1444.38,-2.70,72608.50,329.18,2.58,93259.22,402.08,2.37,86392.24,923.11,0.88,36365.49
49800,263.52,579.87,1.00,1,1,1,807.79,-1.67,174308.20,895.94,1.83,125586.35,1189.02,-2.48,76673.69,532.03,0.05,58805.78,967.20,0.97,6598.43
64200,258.05,616.73,1.00,1,1,1,2587.88,1.72,234529.76,1045.84,-2.24,120707.07,402.08,2.37,83392.51,297.39,-1.09,33963.26,746.79,0.90,15887.37
86100,239.97,550.10,1.00,1,1,1,3152.72,-1.84,256630.70,381.81,-2.65,32511.81,532.03,0.05,39203.85,434.96,1.09,29785.05,1085.72,0.84,15689.31
101200,245.60,610.06,1.00,1,1,1,3988.42,1.48,471212.34,2258.95,0.49,174884.70,876.90,-0.90,47381.01,923.11,0.88,33475.52,1145.12,0.62,16413.63
115500,298.43,581.60,1.00,2,2,2,4196.61,-0.49,477209.58,2130.64,-0.68,169907.64,1709.40,0.85,144139.19,967.20,0.97,6736.86,565.03,1.52,63387.38
130300,293.90,571.19,1.00,3,3,3,767.37,-1.98,283964.29,1544.96,1.16,198644.11,1690.89,0.68,19428.66,746.79,0.90,15457.98,323.42,0.78,26476.23
166200,329.93,653.32,1.00,1,1,1,2498.23,1.16,90963.57,2684.79,1.14,31757.50,1445.74,1.18,22304.61,1085.72,0.84,9570.92,575.36,0.55,7549.41
181200,350.36,695.64,1.00,1,1,1,3132.65,1.12,42835.54,1332.29,1.20,90482.33,1535.61,1.30,13666.41,1145.12,0.62,16523.05,1373.05,0.20,57025.74
210200,350.91,708.06,1.00,1,1,1,428.76,1.53,94616.89,539.36,2.45,43730.11,458.42,0.78,40066.53,565.03,1.52,31256.54,1557.45,0.27,7341.69
224400,332.39,710.47,1.00,1,1,1,1315.14,3.01,94936.83,834.99,-1.40,91036.79,606.43,0.44,16181.25,700.86,1.12,19983.14,1677.49,0.02,29708.34
245700,355.95,678.85,1.00,1,1,1,1851.14,-0.93,137233.94,1716.05,0.09,86776.00,935.60,-2.48,71992.90,809.89,0.27,29703.10,1530.13,0.17,13603.22
260300,393.74,716.11,1.00,2,2,2,3635.57,0.78,294589.54,1847.25,-3.00,243984.41,629.29,-1.32,61527.32,2122.00,-0.08,95159.31,1611.15,0.07,12470.47
274500,303.28,671.31,1.00,2,2,2,7108.95,-2.68,748087.56,2383.36,-2.42,92307.27,1335.38,0.06,96039.38,2683.32,-0.02,40910.13,1490.84,0.25,21100.35
288900,342.50,671.16,1.00,3,3,3,2723.75,-0.00,668226.12,3829.91,0.09,411500.44,4073.78,-0.18,193946.34,3236.71,-0.20,53188.91,1445.48,0.17,8461.23
311200,443.25,684.13,1.00,1,1,1,4555.25,0.13,84730.78,8533.62,-0.00,212356.47,6059.71,0.07,104809.46,2552.59,-0.17,30947.97,1492.82,0.02,10232.03
325600,655.68,669.72,1.00,1,1,1,14786.02,-0.07,719153.92,8902.38,0.06,48541.61,6173.14,-0.11,78873.73,2497.48,-0.23,10576.88,1461.78,-0.05,7561.06
340000,699.12,700.42,1.00,1,1,1,3693.81,0.62,843490.39,3438.45,-0.46,427555.43,3984.59,-0.26,160003.62,3167.20,0.04,69659.72,1342.28,-0.18,14861.15
354500,744.94,626.04,1.00,1,1,1,6024.40,-1.02,500847.54,2809.95,-1.98,299704.33,938.17,-0.45,211698.21,2782.07,-0.08,35878.11,1352.88,-0.12,5398.02
369100,666.38,625.49,1.00,1,1,1,5380.75,-3.13,681013.30,1074.60,2.68,209313.36,337.70,-0.61,41564.76,2337.61,-0.08,30445.23,1840.84,-0.08,33694.13
390400,710.37,643.16,1.00,1,1,1,2225.43,0.38,351924.56,2221.91,0.89,125578.10,630.11,2.73,45239.52,691.78,0.07,77779.58,1608.09,-0.21,14811.62
405300,717.22,687.82,1.00,1,1,1,3032.24,1.42,181008.31,115.36,-3.00,154920.58,1118.70,0.51,106144.11,418.62,-1.66,57992.91,1982.53,-0.05,31415.25
420300,706.95,642.66,1.00,1,1,1,3087.31,-1.79,407710.72,1025.00,-1.12,71001.81,762.08,0.82,30587.79,417.25,2.42,49726.32,1700.42,-0.06,18910.11
434300,730.08,661.02,1.00,1,1,1,2109.22,0.67,350926.71,1670.39,0.78,158884.18,735.39,-2.08,106187.08,1325.21,0.05,117821.60,1551.12,-0.04,11050.19
448400,740.43,675.56,1.00,1,1,1,1265.82,0.95,68067.44,1089.47,-2.75,192253.93,310.60,1.86,69403.65,876.88,-0.15,35352.37,620.68,-0.12,66261.04
470000,694.11,646.23,1.00,2,2,2,2538.33,-2.58,173191.68,832.57,-2.91,13698.16,1572.07,-0.16,80066.84,1031.66,-0.27,8848.82,582.04,-0.37,7127.53
498200,700.12,665.87,1.00,3,3,3,728.43,1.27,110893.63,2994.75,-0.05,134751.26,1196.19,-0.47,19882.92,899.95,-0.03,9482.92,299.46,0.16,12737.38
533500,884.00,635.91,1.00,1,1,1,5277.70,-0.16,148144.02,3064.02,-0.29,20356.04,1940.53,-0.01,28699.87,1010.57,0.03,3512.86,539.15,0.11,6821.07
548300,847.17,621.83,1.00,1,1,1,2663.51,-2.78,520112.20,472.56,2.49,237130.68,1696.12,-0.17,25239.19,587.79,-0.28,32781.40,459.93,-0.09,8517.38
562300,873.21,644.20,1.00,1,1,1,2451.93,0.71,359981.30,507.83,0.69,54797.67,504.60,0.86,107181.68,984.35,-0.06,30813.32,446.74,-0.47,12230.43
597700,866.53,637.79,1.00,1,1,1,261.56,-2.38,76642.10,854.38,0.54,10179.57,324.58,1.82,11656.02,840.26,-0.18,5140.86,699.70,-0.01,10107.12
612200,909.79,666.10,1.00,1,1,1,3565.48,0.58,263645.25,936.39,2.81,112123.43,169.17,-2.52,28776.02,372.32,3.00,83609.55,243.43,-0.48,34119.26
626500,840.99,646.45,1.00,1,1,1,5003.63,-2.86,592645.88,1929.24,-2.58,106330.12,474.93,3.03,25619.97,62.58,1.47,26236.77,858.75,-2.71,71722.84
641200,862.35,636.45,1.00,1,1,1,1604.32,-0.44,428734.27,204.39,-2.33,117836.99,1270.73,-2.86,57904.53,279.90,-2.70,21534.42,984.35,-0.06,121621.79
662500,835.93,641.10,1.00,1,1,1,1259.20,2.97,133289.40,899.80,2.93,38174.97,267.42,-1.15,62644.43,409.42,0.05,31761.37,840.26,-0.18,8543.97
676600,831.22,643.21,1.00,1,1,1,366.15,2.72,64431.70,560.27,-0.71,100578.92,420.65,-2.79,36504.38,933.13,-2.81,94368.35,372.32,3.00,85981.45
691000,848.06,630.72,1.00,2,2,2,1456.24,-0.64,126075.00,586.44,-1.23,20648.17,1407.37,-0.01,125477.48,2713.88,-2.91,124149.04,62.58,1.47,26054.57
705600,836.89,627.18,1.00,2,2,2,802.51,-2.83,139253.41,2404.20,0.14,161388.38,600.89,-2.70,134537.34,420.65,-2.79,157288.06,279.90,-2.70,21681.92
719700,916.43,640.05,1.00,2,2,2,5714.24,0.16,461646.87,1146.74,-3.13,251444.61,5496.55,-2.95,348784.89,1407.37,-0.01,128147.21,409.42,0.05,47979.94
741000,796.30,626.54,1.00,3,3,3,5675.28,-3.03,534562.57,11881.69,-2.96,504783.62,1146.74,-3.13,205220.12,600.89,-2.70,92218.08,933.13,-2.81,62469.19
755200,501.40,564.75,1.00,1,1,1,21218.43,-2.94,1097019.78,21218.43,-2.94,658211.87,11881.69,-2.96,757175.43,5496.55,-2.95,346328.66,2713.88,-2.91,125897.62
