@RELATION gaze_labels

%@METADATA width_px 1920
%@METADATA height_px 1080
%@METADATA width_mm 540.00
%@METADATA height_mm 254.00
%@METADATA distance_mm 620.00


@ATTRIBUTE time INTEGER
@ATTRIBUTE x NUMERIC
@ATTRIBUTE y NUMERIC
@ATTRIBUTE confidence NUMERIC
@ATTRIBUTE handlabeller1 INTEGER
@ATTRIBUTE handlabeller2 INTEGER
@ATTRIBUTE handlabeller_final INTEGER
@ATTRIBUTE speed_1 numeric
@ATTRIBUTE direction_1 numeric
@ATTRIBUTE acceleration_1 numeric
@ATTRIBUTE speed_2 numeric
@ATTRIBUTE direction_2 numeric
@ATTRIBUTE acceleration_2 numeric
@ATTRIBUTE speed_4 numeric
@ATTRIBUTE direction_4 numeric
@ATTRIBUTE acceleration_4 numeric
@ATTRIBUTE speed_8 numeric
@ATTRIBUTE direction_8 numeric
@ATTRIBUTE acceleration_8 numeric
@ATTRIBUTE speed_16 numeric
@ATTRIBUTE direction_16 numeric
@ATTRIBUTE acceleration_16 numeric

%The number after speed, direction denotes the step size that was used for the calculation.
%Acceleration was calculated between two adjacent samples of the already low pass filtered velocity

@DATA
0,346.04,530.23,1.00,1,1,1,0.00,0.00,0.00,1048.25,2.61,0.00,2250.50,1.09,0.00,647.13,0.47,0.00,507.55,0.76,0.00
36500,313.02,549.56,1.00,1,1,1,1048.25,2.61,28719.24,2250.50,1.09,66781.58,2128.74,0.47,36759.44,1219.21,0.56,15839.11,540.48,2.05,17226.81
50900,399.19,631.70,1.00,1,1,1,8267.45,0.76,598332.16,2128.74,0.47,93174.98,647.13,0.47,102889.35,1644.69,-2.24,196024.47,1496.99,-2.88,102837.34
65100,367.36,577.01,1.00,1,1,1,4456.03,-2.10,887921.12,1466.10,-1.50,212668.98,1219.21,0.56,40713.20,283.77,1.43,133470.94,1180.16,2.79,60910.79
100300,404.00,559.43,1.00,1,1,1,1154.70,-0.45,133283.03,707.22,0.72,56210.39,1644.69,-2.24,80191.83,507.55,0.76,9514.30,1389.33,2.63,8377.22
114500,393.56,600.12,1.00,2,2,2,2958.37,1.82,267968.52,3131.72,-2.82,267122.95,283.77,1.43,133470.94,540.48,2.05,44280.19,1166.47,2.69,16622.19
128500,320.25,531.41,1.00,2,2,2,7176.75,-2.39,641595.61,821.95,-3.09,167774.20,445.40,1.49,11647.04,1496.99,-2.88,105775.55,1186.98,2.08,50655.95
142700,370.42,598.82,1.00,2,2,2,5917.41,0.93,918508.54,2895.09,0.58,255651.47,1841.96,2.99,131292.60,1180.16,2.79,60910.79,1046.83,2.83,58530.23
164000,406.23,587.71,1.00,1,1,1,1760.45,-0.30,262173.34,2673.95,2.94,241912.22,2083.13,2.80,21007.79,1389.33,2.63,13844.04,532.18,2.10,34822.06
178000,277.89,617.49,1.00,1,1,1,9410.67,2.91,797657.43,7435.43,-3.09,349542.50,2561.48,2.92,39798.96,1166.47,2.69,16859.65,566.64,2.06,2859.59
192500,194.64,576.09,1.00,1,1,1,6412.02,-2.68,416963.10,2424.53,2.90,356381.22,2609.28,2.78,25232.81,1186.98,2.08,48909.19,201.59,2.11,25195.78
206700,210.36,634.28,1.00,1,1,1,4244.19,1.31,687239.75,2479.09,0.92,288936.98,795.27,1.95,151758.21,1046.83,2.83,58530.23,1022.69,0.16,78294.77
228400,248.87,646.66,1.00,1,1,1,1864.23,0.31,165394.48,1584.09,0.57,51647.19,1587.06,1.05,58189.80,1273.63,2.65,14354.19,1085.95,0.35,9635.32
243000,258.67,665.47,1.00,1,1,1,1452.61,1.09,90189.17,639.77,1.73,99131.85,494.57,0.18,90470.92,595.23,2.08,57295.47,1033.44,0.11,18241.70
257100,246.04,664.80,1.00,1,1,1,896.64,-3.09,145997.24,1064.07,-2.15,113248.64,438.02,0.64,15541.43,1578.08,0.53,118790.86,1240.37,0.24,18366.03
271600,241.94,640.05,1.00,2,2,2,1730.26,-1.74,121981.34,800.33,-0.13,109453.23,413.23,2.32,43671.03,3324.34,-0.03,148259.38,1068.50,0.11,15675.45
286300,269.22,661.81,1.00,2,2,2,2373.59,0.67,261087.85,1240.98,1.60,107576.71,1942.87,0.11,150561.18,3346.03,0.02,10317.10,810.95,0.09,17568.24
308000,240.43,685.20,1.00,2,2,2,1709.27,2.46,147812.08,2900.19,0.16,138335.26,6174.55,-0.05,196582.10,3212.93,-0.10,18128.27,1230.40,-0.00,19836.48
322000,371.36,678.73,1.00,3,3,3,9363.36,-0.05,770632.67,14329.80,-0.16,829520.20,6018.17,-0.02,15236.55,2982.89,-0.14,19468.16,1613.80,0.08,28614.11
336300,641.02,622.07,1.00,1,1,1,19269.25,-0.21,708349.67,9912.58,-0.09,314215.22,7165.84,-0.14,96843.81,2888.13,-0.02,26389.50,1348.63,-0.09,25326.46
351200,659.71,653.52,1.00,1,1,1,2454.79,1.03,1249761.17,412.82,0.46,641732.97,4093.51,-0.26,210876.88,2466.20,-0.15,36968.18,1350.80,-0.03,5228.30
366000,652.03,627.48,1.00,1,1,1,1833.93,-1.86,287579.40,1411.72,-2.11,119814.23,282.89,0.46,262467.93,2513.78,-0.17,4919.56,1330.18,-0.10,6802.43
388100,632.78,608.92,1.00,1,1,1,1209.81,-2.37,44524.51,207.07,0.45,71922.78,744.76,-2.27,45680.68,1855.51,-0.23,30221.62,1406.48,-0.02,6476.59
416900,661.50,632.09,1.00,1,1,1,1281.37,0.68,86414.38,259.31,-3.05,15935.21,220.96,-2.61,18826.81,312.33,-2.68,73122.23,1275.73,-0.11,6189.40
430900,621.73,607.90,1.00,1,1,1,3325.32,-2.60,328471.11,659.78,-2.64,31057.17,275.72,0.15,34852.70,178.72,-2.45,10292.21,1342.16,-0.08,5267.11
466500,632.86,616.27,1.00,1,1,1,391.16,0.64,104348.04,737.13,0.13,38567.01,931.34,-2.68,33621.70,76.52,-2.99,3369.98,1454.81,-0.16,4367.15
480500,657.97,612.76,1.00,1,1,1,1810.73,-0.14,111303.61,1416.21,-2.72,152352.52,363.52,1.05,89257.62,336.11,1.22,27040.93,1591.56,-0.12,10648.65
494400,596.85,600.01,1.00,1,1,1,4491.88,-2.94,447943.30,857.05,2.33,100137.45,178.56,0.95,13436.42,441.76,-2.63,52555.98,827.90,-0.03,55417.11
515900,637.04,634.74,1.00,1,1,1,2470.57,0.71,314379.69,1364.14,0.54,81989.54,718.23,1.73,28090.98,274.87,0.61,33298.97,967.35,-0.06,6616.84
530900,639.55,625.62,1.00,1,1,1,629.90,-1.30,186651.50,945.14,1.05,47065.03,154.17,0.12,49366.23,161.30,0.14,9942.19,729.54,-0.03,15959.18
544900,650.78,658.46,1.00,2,2,2,2478.56,1.24,215726.32,1444.87,-2.50,167377.77,302.84,-0.26,12056.66,1303.52,0.07,81624.22,1160.79,0.07,31431.65
559200,606.77,601.18,1.00,2,2,2,5051.22,-2.23,520415.23,974.45,-1.45,89202.31,237.03,-0.43,5657.84,2184.93,0.05,61667.00,989.33,-0.09,16564.77
574000,654.07,630.29,1.00,2,2,2,3752.83,0.55,585262.67,1378.90,0.37,126808.00,2755.19,-0.19,170639.27,2452.13,0.00,19506.82,707.81,-0.09,19023.18
595500,653.46,619.22,1.00,3,3,3,515.57,-1.63,189256.50,4818.87,-0.04,167084.39,4228.65,0.05,78552.16,1758.46,-0.02,32352.02,380.06,-2.51,47616.30
609700,825.99,624.20,1.00,1,1,1,12155.59,0.03,859837.04,8019.71,-0.02,225505.90,4410.01,0.02,15498.21,2431.51,-0.09,48437.01,865.76,-2.96,38721.10
623600,878.76,614.60,1.00,1,1,1,3858.60,-0.18,605669.07,3920.12,0.11,299369.15,3305.77,0.01,79509.76,2489.46,0.02,20189.10,552.94,-3.14,24167.61
638100,936.69,636.07,1.00,1,1,1,4260.58,0.35,150358.32,385.16,2.66,292885.32,2141.63,0.05,80574.59,1274.97,-0.25,90029.21,2452.13,0.00,207245.74
659900,866.34,621.01,1.00,1,1,1,3300.12,-2.93,345935.45,778.92,-0.20,52939.07,783.55,-0.12,63056.84,905.19,-2.59,92430.41,1758.46,-0.02,31906.81
674400,964.41,630.51,1.00,2,2,2,6795.30,0.10,695235.37,2222.30,-0.19,99544.21,2029.76,-2.79,189649.23,3042.19,-3.01,154818.01,2431.51,-0.09,47434.87
688900,929.57,608.54,1.00,2,2,2,2841.10,-2.58,649673.13,5483.44,-2.88,520165.05,4927.56,-2.94,202805.99,3300.56,-3.11,27595.89,2489.46,0.02,19353.69
702900,813.44,590.15,1.00,3,3,3,8398.38,-2.98,421101.35,10620.44,-3.01,373509.19,8293.21,-3.03,243813.64,2029.76,-2.79,108346.30,1274.97,-0.25,93244.53
724600,553.77,558.24,1.00,1,1,1,12056.28,-3.02,169332.40,10633.93,-3.10,42579.82,7498.53,-3.12,49201.06,4927.56,-2.94,135515.52,905.19,-2.59,92856.35
738200,438.46,572.87,1.00,1,1,1,8546.69,3.02,317484.78,3891.33,2.75,537087.09,10633.93,-3.10,231242.81,8293.21,-3.03,250984.63,3042.19,-3.01,165063.32
752300,454.24,599.64,1.00,1,1,1,2204.36,1.04,683244.68,2204.36,1.04,335455.87,3891.33,2.75,518041.45,7498.53,-3.12,75720.78,3300.56,-3.11,28378.76
