@RELATION gaze_labels

%@METADATA width_px 1920
%@METADATA height_px 1080
%@METADATA width_mm 540.00
%@METADATA height_mm 254.00
%@METADATA distance_mm 620.00


@ATTRIBUTE time INTEGER
@ATTRIBUTE x NUMERIC
@ATTRIBUTE y NUMERIC
@ATTRIBUTE confidence NUMERIC
@ATTRIBUTE handlabeller1 INTEGER
@ATTRIBUTE handlabeller2 INTEGER
@ATTRIBUTE handlabeller_final INTEGER
@ATTRIBUTE speed_1 numeric
@ATTRIBUTE direction_1 numeric
@ATTRIBUTE acceleration_1 numeric
@ATTRIBUTE speed_2 numeric
@ATTRIBUTE direction_2 numeric
@ATTRIBUTE acceleration_2 numeric
@ATTRIBUTE speed_4 numeric
@ATTRIBUTE direction_4 numeric
@ATTRIBUTE acceleration_4 numeric
@ATTRIBUTE speed_8 numeric
@ATTRIBUTE direction_8 numeric
@ATTRIBUTE acceleration_8 numeric
@ATTRIBUTE speed_16 numeric
@ATTRIBUTE direction_16 numeric
@ATTRIBUTE acceleration_16 numeric

%The number after speed, direction denotes the step size that was used for the calculation.
%Acceleration was calculated between two adjacent samples of the already low pass filtered velocity

@DATA
0,300.63,391.60,1.00,1,1,1,0.00,0.00,0.00,1470.01,2.65,0.00,890.49,-3.04,0.00,826.39,-2.23,0.00,335.14,-1.59,0.00
29500,262.48,412.21,1.00,1,1,1,1470.01,2.65,49830.69,890.49,-3.04,30212.38,956.08,-1.72,38401.62,257.61,-0.57,30037.89,78.65,-0.74,9812.12
44300,261.40,387.44,1.00,1,1,1,1675.01,-1.61,180254.95,956.08,-1.72,76543.77,826.39,-2.23,31601.64,201.00,-0.33,5285.17,545.11,-0.74,31517.04
59300,258.34,384.02,1.00,1,1,1,306.35,-2.30,96756.79,1483.18,-1.53,38071.30,257.61,-0.57,59074.53,1002.30,0.29,56515.93,458.76,0.22,31307.62
74300,263.13,342.98,1.00,1,1,1,2754.66,-1.45,170810.33,721.57,0.80,136452.26,201.00,-0.33,5214.70,335.14,-1.59,76701.43,455.33,1.35,32759.06
96000,276.88,402.93,1.00,1,1,1,2834.25,1.35,253803.48,1140.85,1.31,28623.66,1002.30,0.29,39066.31,78.65,-0.74,13339.06,2566.86,0.24,110535.40
110700,274.01,383.06,1.00,1,1,1,1365.75,-1.71,285503.50,1529.36,0.00,112116.76,554.74,0.04,32912.58,545.11,-0.74,31731.44,4074.10,0.37,106143.90
125300,321.69,403.06,1.00,1,1,1,3541.48,0.40,301574.24,1566.24,-0.98,100320.31,129.47,2.79,46292.55,458.76,0.22,32165.36,3663.54,0.32,30886.53
140200,299.65,344.62,1.00,1,1,1,4191.75,-1.93,477033.27,1768.58,3.09,199932.24,909.17,-0.83,68860.54,455.33,1.35,32978.92,1938.69,0.15,119818.03
154700,269.75,405.57,1.00,1,1,1,4681.92,2.03,561824.28,441.36,-0.39,151034.95,107.08,-2.16,61342.21,2566.86,0.24,165421.95,2314.64,0.12,26188.27
177100,314.74,338.50,1.00,2,2,2,3605.39,-0.98,369142.87,1309.81,-0.17,39422.68,930.57,1.96,44398.30,4074.10,0.37,69656.94,1905.23,0.27,22729.90
191900,317.74,397.12,1.00,2,2,2,3965.95,1.52,485511.18,2511.84,2.12,237646.63,4938.16,0.23,349160.89,3663.54,0.32,30469.15,1921.72,0.27,1290.93
206600,276.20,401.79,1.00,2,2,2,2843.79,3.03,322297.55,9750.80,0.30,724536.52,8371.18,0.48,258276.08,4066.08,0.23,35636.68,2379.52,0.26,31223.05
220900,588.00,480.30,1.00,3,3,3,22485.25,0.25,1760004.18,17207.96,0.34,522538.58,7930.73,0.33,92759.81,4452.11,0.13,39889.67,2086.25,0.13,28623.59
235700,749.06,566.55,1.00,1,1,1,12344.77,0.49,738321.53,6153.45,0.38,747528.11,8353.54,0.12,117333.35,3655.09,0.40,90180.48,2160.59,0.20,11600.68
250400,756.68,547.37,1.00,1,1,1,1404.09,-1.19,855877.38,3320.48,-0.92,418546.48,4017.95,0.02,297850.01,3475.69,0.28,31968.97,1694.74,0.13,33087.64
272600,823.40,469.15,1.00,1,1,1,4630.89,-0.86,150113.47,3151.96,-0.57,51497.32,781.78,-1.84,194025.59,4451.01,0.17,48000.20,1928.38,0.28,16492.02
287300,854.75,484.85,1.00,1,1,1,2385.27,0.46,317890.13,3410.98,2.65,446151.18,565.73,-2.18,21209.74,1711.54,-0.02,189732.35,2047.93,0.13,22846.20
302000,735.07,516.65,1.00,1,1,1,8423.99,2.88,702912.81,4197.72,2.88,80406.53,1031.48,0.52,106270.29,896.10,-0.43,65120.16,2320.57,0.28,29435.80
316800,735.07,516.65,1.00,1,1,1,0.00,0.00,569188.45,3485.08,-0.06,516621.60,221.38,-2.57,84636.08,587.62,-1.05,36423.15,2232.18,0.22,10595.19
346400,889.50,506.90,1.00,1,1,1,5227.62,-0.06,176608.77,2198.27,-0.38,52396.77,1533.00,-0.07,57961.10,202.25,1.33,25214.14,2486.79,0.12,11708.82
368000,839.72,475.20,1.00,1,1,1,2732.50,-2.57,352215.39,170.98,-3.09,109022.01,903.77,-0.64,42345.58,35.42,-1.62,10975.03,1392.82,0.03,51294.58
397300,880.81,506.45,1.00,2,2,2,1762.14,0.65,153273.90,830.57,-2.86,22705.68,730.02,-3.02,51752.47,1357.36,0.03,46428.16,871.57,-0.30,21712.28
412400,804.30,464.94,1.00,3,3,3,5765.14,-2.64,497448.77,1682.67,-3.00,57528.90,206.23,0.27,61887.45,1286.45,0.11,8362.31,705.35,-0.22,11901.78
427200,830.99,499.49,1.00,1,1,1,2949.70,0.91,577492.81,1735.58,0.28,230392.52,1137.34,0.21,62944.07,652.80,-0.18,46419.04,476.95,0.30,25352.21
442500,854.51,479.36,1.00,1,1,1,2023.60,-0.71,239193.80,3407.83,0.18,110357.38,2356.63,0.49,85021.42,1063.51,0.11,31289.15,2221.58,0.38,114135.09
464300,955.29,522.56,1.00,1,1,1,5030.03,0.40,207164.85,2919.20,0.59,63118.36,2316.53,-0.07,58997.75,860.79,-0.14,14304.90,3051.95,0.25,41054.41
478800,942.31,538.68,1.00,1,1,1,1427.59,2.25,385284.24,1510.16,-0.86,215925.43,2043.51,0.09,30447.90,1206.33,0.24,35447.29,3008.08,0.21,7566.34
493300,983.77,489.29,1.00,1,1,1,4447.48,-0.87,405162.37,2240.43,-0.80,50927.48,766.63,-0.76,113471.27,933.69,0.08,21935.38,2624.92,0.27,28816.45
507900,987.58,491.76,1.00,1,1,1,311.14,0.58,302773.02,155.57,0.58,151792.17,603.73,-1.13,20203.87,4860.77,0.38,272470.54,2585.72,0.21,12291.34
522500,987.58,491.76,1.00,2,2,2,0.00,0.00,21310.98,817.34,2.77,62793.36,547.90,2.54,76231.11,5319.82,0.32,38399.87,2704.06,0.22,8658.28
544800,959.48,502.73,1.00,2,2,2,1352.47,2.77,60648.66,1034.49,2.65,10971.29,7754.58,0.46,360320.06,5261.17,0.25,17206.25,3346.49,0.30,30794.03
559400,953.98,509.88,1.00,2,2,2,618.35,2.23,60498.20,18266.77,0.42,1295778.17,9698.57,0.38,140719.14,5029.27,0.34,36201.10,3044.74,0.26,22892.57
574000,1447.27,718.52,1.00,1,1,1,36684.53,0.40,2523649.38,22768.63,0.34,327440.48,11083.68,0.31,108031.55,4199.32,0.23,66447.25,2859.39,0.27,13000.55
588700,1583.44,730.85,1.00,1,1,1,9301.44,0.09,1902713.77,4480.52,-0.14,1286390.75,11023.93,0.30,10611.39,4505.61,0.29,26451.60,2412.90,0.24,30865.63
603300,1577.21,699.78,1.00,1,1,1,2170.59,-1.77,694170.20,1063.44,-1.77,319278.20,1935.84,-0.88,714628.40,5616.64,0.32,76885.97,2324.92,0.15,16377.06
618500,1577.21,699.78,1.00,1,1,1,0.00,0.00,142802.04,2523.87,-2.11,102802.73,1111.69,-1.88,107576.38,5293.32,0.29,23438.12,1831.90,0.19,32854.57
640400,1529.14,619.42,1.00,1,1,1,4275.59,-2.11,195232.37,1161.08,-1.97,63166.53,813.19,0.43,80746.90,1198.85,-0.14,193331.90,2109.16,0.24,13663.76
655100,1560.65,660.64,1.00,1,1,1,3529.53,0.92,530110.90,4817.99,0.82,402742.23,168.62,0.01,45123.01,352.98,-1.41,77869.96,1967.98,0.23,9739.69
669800,1626.26,722.54,1.00,1,1,1,6135.77,0.76,184535.87,1633.15,0.96,218318.28,1472.91,0.68,91463.74,465.63,-1.71,11306.86,2048.99,0.24,5646.27
684500,1588.33,699.88,1.00,1,1,1,3005.63,-2.60,618614.86,564.13,-1.72,146386.81,450.35,0.55,69936.37,842.01,-2.17,31979.38,2090.57,0.19,7513.44
721200,1622.01,693.85,1.00,1,1,1,932.13,-0.18,102431.43,400.67,-1.40,6040.75,1335.56,-2.15,47735.11,324.50,0.38,30661.42,1581.21,-3.13,99634.20
736000,1591.81,679.54,1.00,1,1,1,2258.42,-2.70,207123.40,2797.79,-2.29,173271.85,1489.71,-2.23,13163.04,224.83,-1.81,33090.19,2968.06,2.97,97450.53
750700,1567.56,631.83,1.00,1,1,1,3640.51,-2.04,157227.21,2920.16,-2.35,13649.68,977.66,-2.26,34932.31,763.04,-2.45,40697.43,2884.99,2.99,7086.30
780500,1500.77,586.80,1.00,1,1,1,2702.81,-2.55,61487.74,231.94,0.64,105691.66,827.40,-2.20,5370.31,542.88,-2.11,10393.35,3273.69,3.07,15619.55
795300,1575.84,638.03,1.00,2,2,2,6140.36,0.60,597509.36,1743.31,0.64,102119.13,468.81,2.84,54717.15,4486.02,3.11,287258.67,3439.12,2.98,23297.06
817300,1552.19,625.17,1.00,2,2,2,1223.55,-2.64,334487.10,1222.91,3.03,125584.70,858.05,0.72,53291.09,6218.86,2.91,91964.81,3647.15,3.07,17267.07
832100,1531.14,643.24,1.00,2,2,2,1874.26,2.43,124191.73,301.47,-3.03,62939.99,8874.38,3.01,639312.61,5942.41,2.91,18775.04,3767.25,-3.07,37605.97
846600,1543.41,624.21,1.00,2,2,2,1561.56,-1.00,234506.20,18419.46,3.01,1250131.64,14398.58,2.84,404249.06,6814.01,2.94,62018.52,3537.84,-3.07,15821.67
861600,992.53,715.01,1.00,2,2,2,37221.04,2.98,2552457.90,28378.31,2.83,716276.29,13508.47,2.91,89302.64,7787.51,3.01,72341.99,3673.66,-3.06,9380.66
876200,743.21,879.71,1.00,2,2,2,20465.96,2.56,1392630.80,8870.40,2.70,1344141.61,14107.99,2.99,85775.72,8318.52,3.04,40014.68,3642.63,-3.02,8843.86
891000,757.00,826.99,1.00,2,2,2,3682.34,-1.32,1576809.09,4603.47,-2.42,554454.76,6699.21,3.00,500653.48,7856.40,-3.14,66850.41,3585.96,-3.09,16801.01
913200,614.85,767.76,1.00,1,1,1,6936.84,-2.75,332842.12,5691.15,-2.90,119874.60,4070.04,-2.58,200954.07,7291.56,-3.14,25452.39,3485.69,-3.08,4642.91
927800,553.48,777.58,1.00,1,1,1,4257.07,2.98,273978.63,3581.95,-2.83,146360.47,4238.51,-2.42,46616.48,3032.05,-2.90,301304.10,7787.51,3.01,302759.74
942800,514.01,735.00,1.00,1,1,1,3870.53,-2.32,256503.52,4611.55,-1.63,312761.69,2382.12,-2.13,138348.25,2544.03,-2.21,130064.77,8318.52,3.04,38947.62
957600,545.17,640.41,1.00,1,1,1,6729.23,-1.25,400055.43,2650.65,-1.50,136249.49,1911.04,-1.78,59276.63,2290.51,-2.39,34439.78,7856.40,-3.14,66850.41
986600,522.60,619.22,1.00,1,1,1,1067.30,-2.39,219063.67,773.15,-2.18,72777.27,1962.68,-1.66,8023.52,1722.33,-2.01,32563.57,7291.56,-3.14,19484.24
1023400,515.91,598.79,1.00,1,1,1,584.24,-1.89,16885.70,1460.24,-1.91,20235.76,932.47,-2.30,36384.95,1911.04,-1.78,12506.12,3032.05,-2.90,119539.13
1038700,497.11,547.54,1.00,1,1,1,3567.84,-1.92,195034.28,1318.03,-2.46,50096.75,1166.55,-1.79,37723.02,1962.68,-1.66,15207.99,2544.03,-2.21,127514.48
1052800,485.76,574.44,1.00,2,2,2,2070.97,1.97,374098.59,727.68,-1.34,84702.26,1318.03,-2.46,58791.73,932.47,-2.30,94962.14,2290.51,-2.39,36149.56
1067600,501.82,527.04,1.00,2,2,2,3381.55,-1.24,368185.57,3381.55,-1.24,179633.79,727.68,-1.34,80696.07,1166.55,-1.79,38997.44,1722.33,-2.01,63807.00
