%@metadata width_px 1920.0
%@metadata height_px 1080.0
%@metadata width_mm 540.0
%@metadata height_mm 254.0
%@metadata distance_mm 620.0
% The number after speed, direction denotes the step size that was used for the calculation.
% Acceleration was calculated between two adjacent samples of the already low pass filtered velocity
@RELATION gaze_labels

@ATTRIBUTE time INTEGER
@ATTRIBUTE x NUMERIC
@ATTRIBUTE y NUMERIC
@ATTRIBUTE confidence NUMERIC
@ATTRIBUTE handlabeller_final INTEGER
@ATTRIBUTE EYE_MOVEMENT_TYPE {UNKNOWN, FIX, SACCADE, SP, NOISE, BLINK, NOISE_CLUSTER, PSO}

@DATA
0,529.18,836.59,1.0,1,FIX
22300,609.84,829.86,1.0,1,FIX
52900,616.8,833.27,1.0,1,FIX
67200,551.76,831.27,1.0,1,FIX
81200,621.91,841.03,1.0,1,FIX
95600,625.77,834.32,1.0,1,FIX
111200,614.85,832.35,1.0,1,FIX
127400,555.07,839.11,1.0,1,FIX
149100,596.95,834.14,1.0,1,FIX
164300,595.69,839.79,1.0,1,FIX
179000,628.45,831.6,1.0,1,FIX
193400,606.43,839.56,1.0,1,FIX
223300,502.53,836.14,1.0,1,FIX
238900,636.23,835.76,1.0,2,FIX
255500,606.79,835.44,1.0,2,SACCADE
270800,634.44,828.65,1.0,2,SACCADE
292800,672.82,845.27,1.0,1,SP
307200,744.34,849.3,1.0,1,FIX
322200,844.16,850.68,1.0,1,FIX
336200,791.52,848.2,1.0,1,FIX
372800,844.09,844.43,1.0,1,FIX
387800,787.1,839.81,1.0,1,FIX
402300,851.49,840.76,1.0,1,FIX
431800,815.16,843.1,1.0,1,FIX
453800,815.8,841.52,1.0,2,FIX
467800,825.98,843.72,1.0,2,FIX
483300,865.57,833.94,1.0,3,FIX
498300,906.21,844.53,1.0,1,FIX
512500,833.12,837.86,1.0,1,FIX
527900,760.54,855.18,1.0,1,FIX
543000,822.87,846.1,1.0,1,FIX
564100,807.5,846.96,1.0,1,FIX
579100,850.91,848.57,1.0,1,FIX
593600,820.29,848.45,1.0,1,FIX
608700,841.27,845.28,1.0,1,FIX
622900,850.38,839.42,1.0,1,FIX
644600,795.75,843.29,1.0,1,FIX
659500,824.75,844.6,1.0,1,FIX
674300,844.05,839.47,1.0,1,FIX
689200,788.54,858.22,1.0,1,FIX
703900,827.93,847.42,1.0,2,FIX
718700,827.93,847.42,1.0,1,FIX
754000,836.81,854.71,1.0,1,FIX
770200,828.5,849.47,1.0,1,FIX
799900,855.97,861.73,1.0,1,FIX
814800,877.96,850.35,1.0,1,FIX
836800,873.32,854.68,1.0,1,FIX
851000,899.45,858.92,1.0,1,FIX
866100,819.53,846.64,1.0,1,FIX
880000,884.27,846.05,1.0,1,FIX
894600,778.34,854.45,1.0,2,FIX
917300,784.52,849.9,1.0,2,FIX
933100,835.92,856.97,1.0,2,FIX
948200,864.77,852.82,1.0,1,FIX
963000,763.28,860.18,1.0,1,FIX
977900,956.05,817.96,1.0,1,FIX
993000,964.84,812.97,1.0,1,FIX
1008100,856.24,862.48,1.0,1,FIX
1029600,910.08,841.16,1.0,1,SACCADE
1044500,868.93,856.28,1.0,1,SACCADE
1058900,832.42,861.33,1.0,1,FIX
1074000,831.35,863.36,1.0,1,FIX
1088700,843.34,858.59,1.0,1,FIX
1125800,869.72,861.42,1.0,1,FIX
1140000,867.87,862.57,1.0,1,FIX
1154800,869.45,846.89,1.0,1,FIX
1183600,830.95,867.45,1.0,2,FIX
1206000,836.63,867.26,1.0,1,FIX
1219900,848.71,856.19,1.0,1,FIX
1234500,855.4,846.1,1.0,1,FIX
1249700,788.17,869.02,1.0,1,FIX
1263900,821.02,869.89,1.0,1,FIX
1279500,843.65,848.59,1.0,1,FIX
1302800,839.43,843.58,1.0,1,FIX
1317800,804.44,859.44,1.0,2,FIX
1332900,841.83,844.81,1.0,2,FIX
1347600,819.23,851.68,1.0,2,SACCADE
1362100,846.3,859.09,1.0,1,SACCADE
1377900,803.29,851.65,1.0,1,FIX
1392900,612.02,850.52,1.0,1,FIX
1407800,677.68,840.04,1.0,1,FIX
1422800,685.48,843.98,1.0,1,FIX
1445600,696.21,845.86,1.0,1,FIX
1460500,738.83,841.62,1.0,1,FIX
1476000,660.48,840.47,1.0,1,FIX
1505500,644.28,847.34,1.0,1,FIX
1520800,786.92,846.55,1.0,1,FIX
1551400,772.95,847.2,1.0,1,FIX
1573400,773.3,852.06,1.0,1,FIX
1587800,749.14,846.91,1.0,1,FIX
1601800,739.63,844.03,1.0,1,FIX
1617500,729.71,845.46,1.0,1,FIX
1631200,694.44,847.93,1.0,1,FIX
1653400,768.03,843.54,1.0,2,FIX
1668300,722.13,850.48,1.0,2,FIX
1683100,689.48,851.85,1.0,3,FIX
1699500,684.83,846.17,1.0,1,FIX
1714000,643.87,840.8,1.0,1,FIX
