%@metadata width_px 1920.0
%@metadata height_px 1080.0
%@metadata width_mm 540.0
%@metadata height_mm 254.0
%@metadata distance_mm 620.0
% The number after speed, direction denotes the step size that was used for the calculation.
% Acceleration was calculated between two adjacent samples of the already low pass filtered velocity
@RELATION gaze_labels

@ATTRIBUTE time INTEGER
@ATTRIBUTE x NUMERIC
@ATTRIBUTE y NUMERIC
@ATTRIBUTE confidence NUMERIC
@ATTRIBUTE handlabeller_final INTEGER
@ATTRIBUTE EYE_MOVEMENT_TYPE {UNKNOWN, FIX, SACCADE, SP, NOISE, BLINK, NOISE_CLUSTER, PSO}

@DATA
0,819.95,850.53,1.0,1,FIX
14500,868.11,850.71,1.0,1,FIX
29800,774.98,852.08,1.0,1,FIX
44400,803.83,849.5,1.0,1,FIX
60000,802.7,855.95,1.0,1,FIX
82500,790.13,855.29,1.0,1,FIX
98800,819.99,847.32,1.0,1,FIX
113100,796.87,852.46,1.0,1,FIX
141300,845.73,846.72,1.0,1,FIX
155900,826.39,846.92,1.0,1,FIX
193100,893.61,855.64,1.0,2,FIX
207600,880.59,852.27,1.0,1,FIX
223000,805.21,848.6,1.0,1,FIX
237400,810.84,845.2,1.0,1,FIX
252200,845.62,851.2,1.0,1,FIX
274600,797.98,852.87,1.0,1,FIX
289500,785.33,845.57,1.0,1,FIX
304600,740.9,844.34,1.0,1,FIX
319500,802.59,856.93,1.0,1,FIX
334100,842.8,852.3,1.0,1,FIX
348800,815.23,855.34,1.0,2,FIX
370700,792.0,850.38,1.0,2,FIX
385400,896.89,863.28,1.0,2,FIX
414600,751.71,866.27,1.0,1,FIX
429300,777.62,870.67,1.0,1,FIX
444100,836.4,871.34,1.0,1,FIX
466900,761.7,868.55,1.0,1,FIX
481600,788.42,865.82,1.0,1,FIX
510200,851.99,874.61,1.0,1,FIX
525400,810.19,862.67,1.0,1,FIX
555900,783.07,867.32,1.0,1,FIX
578300,854.63,867.5,1.0,1,FIX
593200,869.09,865.25,1.0,1,FIX
608600,820.89,862.82,1.0,1,FIX
622900,817.75,860.89,1.0,1,FIX
637900,802.94,868.61,1.0,1,FIX
653000,829.87,868.47,1.0,2,FIX
668000,786.59,871.55,1.0,2,FIX
689700,829.08,868.55,1.0,1,FIX
704300,770.46,861.86,1.0,1,FIX
719000,880.87,858.04,1.0,1,FIX
733300,856.09,858.48,1.0,1,FIX
748600,862.17,873.54,1.0,1,FIX
770600,840.64,869.67,1.0,1,FIX
785300,857.21,876.24,1.0,1,FIX
800400,844.16,873.34,1.0,1,FIX
815600,895.91,851.43,1.0,1,FIX
831800,866.58,858.76,1.0,1,FIX
846800,866.08,854.11,1.0,1,FIX
877900,872.35,855.69,1.0,1,FIX
892600,874.15,849.55,1.0,2,SACCADE
914600,848.5,867.35,1.0,2,SACCADE
946100,794.79,873.32,1.0,3,SACCADE
960800,970.39,872.79,1.0,1,SP
990800,546.25,870.02,1.0,1,FIX
1005600,667.36,853.18,1.0,1,FIX
1020600,662.04,858.95,1.0,1,FIX
1036000,774.31,851.2,1.0,1,FIX
1057800,702.57,856.47,1.0,1,FIX
1072900,738.2,853.2,1.0,1,FIX
1087400,680.02,854.53,1.0,1,FIX
1101900,722.71,851.89,1.0,1,FIX
1117100,696.85,865.03,1.0,1,FIX
1138600,746.6,851.87,1.0,2,FIX
1153800,721.27,854.18,1.0,2,SACCADE
1168400,701.6,848.03,1.0,2,SACCADE
1182800,694.98,861.99,1.0,1,FIX
1197700,778.8,867.63,1.0,1,FIX
1212100,794.09,861.36,1.0,1,FIX
1228300,773.0,860.29,1.0,1,FIX
1265200,876.81,854.48,1.0,1,FIX
1279500,813.18,860.26,1.0,1,FIX
1308100,818.86,848.29,1.0,1,FIX
1324100,788.37,856.09,1.0,1,FIX
1345800,828.69,852.75,1.0,1,FIX
