%@metadata width_px 1920.0
%@metadata height_px 1080.0
%@metadata width_mm 540.0
%@metadata height_mm 254.0
%@metadata distance_mm 620.0
% The number after speed, direction denotes the step size that was used for the calculation.
% Acceleration was calculated between two adjacent samples of the already low pass filtered velocity
@RELATION gaze_labels

@ATTRIBUTE time INTEGER
@ATTRIBUTE x NUMERIC
@ATTRIBUTE y NUMERIC
@ATTRIBUTE confidence NUMERIC
@ATTRIBUTE handlabeller_final INTEGER
@ATTRIBUTE EYE_MOVEMENT_TYPE {UNKNOWN, FIX, SACCADE, SP, NOISE, BLINK, NOISE_CLUSTER, PSO}

@DATA
0,72.69,585.87,1.0,0,FIX
14500,109.33,576.26,1.0,2,FIX
29200,60.36,612.8,1.0,3,FIX
43800,123.33,574.49,1.0,3,FIX
58600,94.48,568.27,1.0,1,FIX
80800,28.42,523.58,1.0,1,FIX
95600,12.46,555.94,1.0,1,FIX
110100,31.02,590.38,1.0,1,FIX
139100,2.45,547.74,1.0,1,FIX
154500,-49.58,566.84,1.0,1,FIX
176700,1.56,535.42,1.0,1,FIX
206300,-0.92,560.53,1.0,2,SACCADE
220700,-19.57,554.28,1.0,2,SACCADE
235500,0.82,536.75,1.0,2,SACCADE
250600,14.92,465.34,1.0,3,SP
272000,191.23,586.42,1.0,1,FIX
286700,326.0,582.43,1.0,1,FIX
301800,381.38,595.58,1.0,1,FIX
316700,546.53,519.13,1.0,1,FIX
331000,529.42,539.71,1.0,1,FIX
353100,588.71,464.86,1.0,1,FIX
367700,594.47,527.79,1.0,1,FIX
382500,569.92,558.46,1.0,1,FIX
397300,580.31,529.89,1.0,2,SACCADE
411700,585.36,535.53,1.0,2,SACCADE
426400,530.06,552.45,1.0,2,SP
448800,672.89,508.62,1.0,3,FIX
463500,823.37,492.57,1.0,1,FIX
478200,904.86,491.53,1.0,1,FIX
493000,866.93,492.16,1.0,1,FIX
522200,896.77,538.38,1.0,1,FIX
544300,914.67,533.4,1.0,1,FIX
573900,942.48,568.98,1.0,1,FIX
589200,879.86,524.14,1.0,1,FIX
603900,967.41,520.86,1.0,1,FIX
618600,906.04,489.8,1.0,2,SACCADE
640800,945.13,469.67,1.0,2,SACCADE
655600,884.36,540.11,1.0,3,SACCADE
670300,970.86,521.05,1.0,3,FIX
684900,1167.76,551.32,1.0,1,FIX
700400,1270.89,547.67,1.0,1,FIX
714800,1353.92,528.54,1.0,1,FIX
736700,1357.67,551.3,1.0,1,FIX
751000,1368.82,530.09,1.0,1,FIX
765700,1380.22,555.65,1.0,1,FIX
780400,1332.88,590.77,1.0,1,FIX
795100,1332.88,590.77,1.0,1,FIX
817300,1382.74,530.8,1.0,1,FIX
831900,1357.57,583.76,1.0,1,FIX
846700,1374.68,530.95,1.0,1,SACCADE
861300,1370.06,568.81,1.0,1,SACCADE
890500,1401.24,590.91,1.0,2,SACCADE
912700,1298.2,559.42,1.0,2,SP
927400,1213.71,544.55,1.0,3,FIX
957000,1029.81,516.65,1.0,1,FIX
971500,955.37,559.9,1.0,1,FIX
986200,953.95,542.45,1.0,1,FIX
1008400,945.71,604.16,1.0,1,FIX
1023200,959.89,535.8,1.0,1,FIX
1037800,930.52,585.22,1.0,1,FIX
1052500,993.84,531.24,1.0,1,FIX
1067500,921.56,575.55,1.0,1,FIX
1082400,931.32,568.86,1.0,1,SACCADE
1104700,926.18,556.91,1.0,2,SACCADE
1119500,927.96,481.04,1.0,2,SACCADE
1134200,958.08,594.65,1.0,2,NOISE
1148900,855.32,523.24,1.0,3,FIX
1163600,723.04,577.37,1.0,3,FIX
1178300,681.94,579.73,1.0,3,FIX
1200000,635.46,552.58,1.0,1,FIX
1214700,637.97,495.69,1.0,1,FIX
1229400,601.45,480.18,1.0,1,FIX
1244200,641.72,511.74,1.0,1,FIX
1281000,589.23,530.84,1.0,1,FIX
1295800,628.7,551.77,1.0,1,FIX
1325200,595.9,538.89,1.0,1,FIX
1340300,667.65,458.37,1.0,1,FIX
1354900,640.17,496.56,1.0,1,FIX
1377000,600.56,580.7,1.0,1,FIX
1391800,603.77,531.37,1.0,1,SACCADE
1406600,564.98,585.95,1.0,1,SACCADE
1421100,590.26,559.41,1.0,1,SACCADE
1435800,618.08,507.0,1.0,1,FIX
1450500,640.12,530.47,1.0,1,UNKNOWN
