@RELATION gaze_labels

%@METADATA width_px 1920
%@METADATA height_px 1080
%@METADATA width_mm 540.00
%@METADATA height_mm 254.00
%@METADATA distance_mm 620.00


@ATTRIBUTE time INTEGER
@ATTRIBUTE x NUMERIC
@ATTRIBUTE y NUMERIC
@ATTRIBUTE confidence NUMERIC
@ATTRIBUTE handlabeller1 INTEGER
@ATTRIBUTE handlabeller2 INTEGER
@ATTRIBUTE handlabeller_final INTEGER
@ATTRIBUTE speed_1 numeric
@ATTRIBUTE direction_1 numeric
@ATTRIBUTE acceleration_1 numeric
@ATTRIBUTE speed_2 numeric
@ATTRIBUTE direction_2 numeric
@ATTRIBUTE acceleration_2 numeric
@ATTRIBUTE speed_4 numeric
@ATTRIBUTE direction_4 numeric
@ATTRIBUTE acceleration_4 numeric
@ATTRIBUTE speed_8 numeric
@ATTRIBUTE direction_8 numeric
@ATTRIBUTE acceleration_8 numeric
@ATTRIBUTE speed_16 numeric
@ATTRIBUTE direction_16 numeric
@ATTRIBUTE acceleration_16 numeric

%The number after speed, direction denotes the step size that was used for the calculation.
%Acceleration was calculated between two adjacent samples of the already low pass filtered velocity

@DATA
0,284.55,806.76,1.00,0,0,0,0.00,0.00,0.00,1382.62,-0.89,0.00,1713.12,-2.18,0.00,674.62,-1.93,0.00,594.99,-2.54,0.00
21900,303.70,783.31,1.00,0,0,0,1382.62,-0.89,63133.40,1713.12,-2.18,86053.97,2349.66,-2.92,72366.44,1163.13,-2.39,28764.40,355.69,-1.88,17508.78
35900,249.37,756.32,1.00,1,1,1,4333.81,-2.68,345186.18,2349.66,-2.92,113201.79,674.62,-1.93,146890.83,857.38,1.33,138478.50,369.45,0.91,50981.01
51000,237.00,768.28,1.00,1,1,1,1139.56,2.37,271277.53,363.00,-0.01,179110.41,1163.13,-2.39,41717.90,845.25,1.13,11773.57,190.88,-0.19,21779.11
80100,265.41,756.23,1.00,1,1,1,1060.55,-0.40,74333.10,956.83,-1.60,35496.66,857.38,1.33,66621.96,594.99,-2.54,47833.62,596.37,-0.06,14011.21
102700,235.32,718.84,1.00,1,1,1,2123.41,-2.25,115914.96,1845.14,1.57,123967.53,845.25,1.13,7866.41,355.69,-1.88,16966.47,2968.73,0.44,108963.57
116600,265.60,823.57,1.00,1,1,1,7843.34,1.29,707657.88,2927.59,1.28,91358.30,741.75,-3.08,98405.38,369.45,0.91,51347.78,4257.96,0.10,127775.74
146200,271.68,840.89,1.00,1,1,1,620.02,1.23,244066.85,2072.08,-2.28,165356.76,707.54,0.23,48793.95,190.88,-0.19,11110.29,5506.69,0.05,42846.22
161600,205.06,752.66,1.00,1,1,1,7179.18,-2.22,504681.82,3567.07,-1.43,174078.41,387.34,-0.85,40462.34,596.37,-0.06,26475.72,2396.66,0.03,201994.95
177400,286.84,730.64,1.00,2,2,2,5360.27,-0.26,661031.43,3083.58,0.55,352845.61,1159.89,-1.62,58509.77,2968.73,0.44,155859.29,2207.33,0.12,18039.38
192000,284.95,801.70,1.00,2,2,2,4869.03,1.60,562093.50,1020.00,2.12,222078.93,2220.19,-0.01,174382.19,4257.96,0.10,121649.51,2474.69,0.14,18548.61
213900,267.55,762.48,1.00,2,2,2,1959.43,-1.99,305546.64,2339.23,-0.64,150940.54,5533.57,0.47,169600.65,5506.69,0.05,57910.87,2358.74,0.06,10791.85
228600,353.80,750.81,1.00,3,3,3,5921.25,-0.13,458290.85,12442.38,0.37,773266.15,8820.78,0.14,274324.76,5931.42,0.10,34266.20,2524.76,0.20,25900.77
243800,614.24,897.41,1.00,1,1,1,19662.02,0.51,1010430.10,17619.79,0.25,361092.89,12011.80,0.16,210570.89,5002.43,0.20,71466.75,2750.96,0.14,17678.30
258700,867.93,881.02,1.00,1,1,1,17061.52,-0.06,721182.31,12152.85,-0.06,476059.37,9715.37,0.12,156492.26,5092.52,0.08,40089.29,2540.23,0.04,23075.99
273100,969.63,875.33,1.00,1,1,1,7073.93,-0.06,693613.88,3704.78,-0.40,607642.37,4904.61,-0.11,352261.42,5198.49,0.07,8964.63,2655.31,0.02,8831.28
294600,990.26,828.81,1.00,1,1,1,2366.52,-1.15,295565.47,1082.68,-2.79,211681.99,1384.37,-0.26,164752.68,4840.82,0.24,42181.96,2894.05,0.13,18551.87
309200,933.01,861.68,1.00,1,1,1,4521.66,2.62,450757.13,1531.30,2.45,93192.29,1342.85,-2.25,156625.25,2829.69,-0.21,177974.24,2609.65,0.23,26984.65
324100,955.36,857.49,1.00,1,1,1,1526.16,-0.19,401591.06,1966.83,-1.90,193628.20,1335.51,2.22,141627.25,661.69,-0.37,146252.37,1799.29,0.13,56601.80
338600,914.27,806.98,1.00,1,1,1,4490.69,-2.25,371628.55,1236.00,1.92,208846.53,790.80,-0.98,146588.78,170.77,-1.92,46795.24,1867.15,0.24,14789.40
353700,942.74,891.84,1.00,1,1,1,5927.55,1.25,679069.31,1589.43,0.34,134264.64,201.69,-2.54,53882.51,393.55,2.63,30039.55,1704.61,0.36,17954.73
368500,959.11,822.73,1.00,1,1,1,4798.79,-1.34,697213.52,1345.96,-1.51,158443.53,989.87,0.78,80337.69,214.10,1.18,28776.07,786.40,0.20,63204.07
384400,945.34,850.60,1.00,1,1,1,1955.13,2.03,422541.15,831.28,1.48,136553.27,588.89,-1.46,90032.97,1306.47,3.11,87837.84,321.02,1.95,56664.28
406200,961.94,853.94,1.00,2,2,2,776.77,0.20,104679.95,78.28,0.93,35120.95,976.96,1.81,71682.32,1146.76,2.68,24846.13,505.86,2.81,17501.91
420300,947.02,852.85,1.00,2,2,2,1061.06,-3.07,130090.61,1265.51,2.09,87656.27,2167.37,3.07,147885.48,831.00,2.91,27383.72,652.74,2.81,10416.77
436000,943.39,886.77,1.00,2,2,2,2172.78,1.68,151935.89,3954.23,3.08,218891.57,2515.01,3.00,24226.30,1071.65,2.37,35510.23,486.72,2.68,11618.25
464700,771.76,863.16,1.00,1,1,1,6036.51,-3.00,225667.70,3597.05,-3.11,16845.44,1597.01,2.67,39614.33,1002.94,2.34,2687.46,467.25,2.08,9829.28
486400,762.17,881.76,1.00,1,1,1,964.14,2.05,266695.92,1406.31,0.98,210249.09,1302.28,2.66,13583.12,954.56,2.65,14231.71,504.97,2.03,2065.34
515500,811.79,922.33,1.00,1,1,1,2202.78,0.69,76065.03,2176.16,0.70,31152.15,1501.40,1.03,70407.66,861.25,2.87,7551.40,521.04,2.87,14403.16
530000,834.65,942.99,1.00,1,1,1,2124.48,0.73,9143.01,1675.71,1.11,63570.89,1113.99,0.53,51882.70,877.75,2.87,1144.43,648.32,2.57,14871.44
544700,833.56,966.15,1.00,1,1,1,1577.60,1.62,112704.14,687.87,-1.67,158597.20,493.88,-1.53,96119.44,1118.67,0.75,118677.60,499.69,3.04,20808.77
559600,832.67,922.72,1.00,1,1,1,2915.42,-1.59,301390.19,2148.30,-1.83,98919.50,491.00,-2.52,31459.74,750.83,0.56,27440.27,336.57,2.85,12145.47
581500,813.18,889.77,1.00,1,1,1,1748.24,-2.10,74715.23,674.75,3.08,96891.91,879.31,0.14,60941.05,130.12,2.49,36806.69,144.87,2.55,9256.23
595500,808.50,924.26,1.00,1,1,1,2486.47,1.71,286234.47,3996.13,0.83,317856.75,347.76,0.67,43157.36,295.78,-2.61,19632.14,196.63,3.00,6504.29
610200,890.56,974.42,1.00,1,1,1,6542.76,0.55,407666.49,1482.51,0.29,192394.30,759.10,1.90,49012.21,798.79,-1.90,41209.83,530.64,0.43,47872.85
625100,850.53,936.86,1.00,1,1,1,3684.03,-2.39,683042.12,3331.77,-2.71,322428.54,98.32,-3.10,49526.80,409.17,-0.84,46662.06,690.05,0.10,17323.62
640500,798.86,932.20,1.00,2,2,2,3368.96,-3.05,150466.44,1602.65,-2.88,115119.02,2095.50,-2.27,131844.85,788.19,-0.14,35428.46,1088.29,-0.65,48417.21
656100,802.55,923.99,1.00,1,1,1,576.82,-1.15,230677.89,1780.74,-1.56,132906.27,847.14,-1.24,115742.00,661.45,-0.36,12996.82,1581.02,-0.63,31619.82
678100,799.32,865.25,1.00,1,1,1,2674.28,-1.63,98999.49,2093.79,-0.56,85294.38,1861.64,-0.46,63502.94,406.81,-1.32,24733.90,1901.83,-0.66,14737.43
693800,869.22,881.74,1.00,1,1,1,4575.10,0.23,376835.15,3735.37,0.10,155831.83,1343.04,-0.33,35473.09,796.54,-0.38,41270.06,1812.44,-0.62,7499.43
708500,912.35,876.11,1.00,1,1,1,2958.57,-0.13,142100.38,770.75,0.62,210378.68,1992.94,0.51,101349.40,2227.42,-0.65,100403.88,1810.87,-0.51,12980.10
723000,887.53,894.83,1.00,2,2,2,2143.80,2.50,340524.45,1645.90,1.75,102966.39,1316.69,0.23,56512.27,3199.77,-0.55,69460.35,1831.72,-0.55,4553.29
738100,903.46,924.01,1.00,2,2,2,2201.46,1.07,188038.27,1922.88,0.08,176139.89,2665.58,-0.79,149895.46,3727.38,-0.44,42870.10,1599.30,-0.77,29175.04
753200,945.43,899.35,1.00,2,2,2,3223.87,-0.53,262318.27,6012.68,-0.91,345282.26,5117.43,-0.61,168054.46,3167.76,-0.59,49952.28,1722.85,-0.50,29693.33
774200,1036.13,752.22,1.00,1,1,1,8230.50,-1.02,266154.57,8226.36,-0.73,121410.21,6248.11,-0.68,57271.65,2800.44,-0.61,17635.68,1819.93,-0.57,6919.78
789200,1165.51,701.19,1.00,1,1,1,9271.87,-0.38,374317.28,6931.44,-0.44,171511.20,4886.90,-0.73,92840.83,2859.05,-0.58,5615.20,1867.91,-0.50,8183.95
804100,1223.85,664.40,1.00,1,1,1,4629.23,-0.56,322195.98,2197.42,-0.74,327227.04,2988.27,-0.46,145093.35,2595.20,-0.70,27612.39,1877.74,-0.44,8142.23
833900,1238.20,635.12,1.00,1,1,1,1093.99,-1.12,125586.72,354.46,-0.80,61873.01,1015.35,-0.48,66214.22,2464.09,-0.54,14440.78,1533.57,-0.65,16769.18
848500,1234.80,653.09,1.00,1,1,1,1252.67,1.76,159286.53,777.91,1.57,72697.19,114.77,-1.48,65588.02,1483.52,-0.46,67968.40,1608.77,-0.56,10943.91
870000,1238.23,663.21,1.00,1,1,1,496.51,1.24,39792.91,192.30,3.11,36973.14,964.38,0.89,48804.11,735.99,-0.33,35310.03,1569.29,-0.73,12089.11
900000,1224.90,653.44,1.00,1,1,1,550.50,-2.51,33284.16,1315.66,0.58,49215.54,97.44,-0.31,31122.32,438.29,-0.43,10085.08,1845.51,-0.78,9778.43
914700,1287.28,695.64,1.00,1,1,1,5123.13,0.59,385937.24,604.43,-0.16,65386.79,473.27,0.03,26041.86,195.01,-2.30,36115.43,2097.17,-0.62,27787.26
929100,1242.28,650.68,1.00,1,1,1,4417.84,-2.36,659592.88,1180.18,-1.99,101350.99,1002.51,-0.28,39601.53,492.24,-0.34,41314.43,1809.78,-0.31,46387.73
943900,1273.19,664.19,1.00,1,1,1,2279.42,0.41,445488.36,1321.38,-0.33,125263.84,1605.41,-2.27,149227.80,493.21,-1.75,43195.67,1160.82,-0.36,44153.09
966000,1288.47,635.08,1.00,2,2,2,1488.02,-1.09,119092.74,1989.60,-2.39,129630.09,967.94,-0.34,96904.96,936.32,-1.09,28340.30,768.54,-0.53,19112.04
981100,1218.98,613.80,1.00,2,2,2,4812.90,-2.84,350621.18,534.22,-0.40,149864.93,1251.88,-2.17,116958.25,1659.00,-0.78,54238.07,777.80,-0.45,4155.83
996000,1303.25,628.89,1.00,2,2,2,5745.85,0.18,707376.24,673.30,-1.23,33954.06,1444.27,-1.67,46238.71,2244.98,-0.19,84774.56,920.93,-0.37,10527.97
1011100,1225.70,594.75,1.00,3,3,3,5611.47,-2.73,746845.16,2785.79,-1.86,150671.96,3795.81,-0.29,251686.02,1649.36,-0.38,46179.98,923.39,-0.51,8356.48
1025900,1279.60,549.02,1.00,1,1,1,4776.19,-0.70,595747.92,7238.52,-0.22,536688.28,3692.54,-0.14,37600.68,1191.16,-0.58,36155.09,1081.18,-0.32,16381.47
1040900,1436.44,548.71,1.00,1,1,1,10455.74,-0.00,498208.93,8272.85,0.20,221753.69,3766.77,-0.05,24119.38,1753.32,-0.32,44593.82,1012.48,-0.72,27519.10
1055700,1521.40,597.12,1.00,1,1,1,6606.69,0.52,388522.33,1448.88,0.66,473359.56,2011.59,0.02,119363.77,1415.71,-0.38,23706.20,1098.10,-0.33,27897.99
1078600,1479.64,582.13,1.00,1,1,1,1937.08,-2.80,372109.11,3003.51,-2.74,193043.62,123.74,-2.33,91714.55,1842.61,-0.22,21784.03,824.71,-0.42,12480.83
1093800,1416.15,552.18,1.00,1,1,1,4618.43,-2.70,177416.80,2103.59,-2.46,74646.05,909.11,-2.52,51842.98,1611.78,0.08,37897.23,844.81,-0.36,3338.96
1108500,1430.71,542.62,1.00,1,1,1,1184.89,-0.58,362795.17,1847.42,0.16,259713.82,780.21,-2.13,23918.84,389.17,-0.45,87904.55,992.45,-0.13,17826.03
1123900,1471.07,560.90,1.00,1,1,1,2877.30,0.43,159544.59,800.88,-0.01,69271.81,1170.42,0.20,116690.99,312.26,-1.95,31177.11,772.02,-0.17,14536.86
1138700,1454.89,542.31,1.00,1,1,1,1665.26,-2.29,300389.57,494.12,0.35,25876.86,880.12,-0.30,39095.89,74.73,-1.41,16959.72,852.96,0.01,11102.13
1153700,1484.89,566.00,1.00,1,1,1,2548.06,0.67,279726.27,1020.43,-0.53,53504.91,596.24,-0.03,23046.17,601.04,0.03,39711.06,475.85,-0.13,25754.30
1168400,1481.07,527.04,1.00,1,1,1,2662.80,-1.67,326186.24,755.11,-0.27,23676.73,485.76,0.84,31590.81,491.11,0.49,18374.07,62.77,1.07,31076.41
1183700,1506.72,559.94,1.00,1,1,1,2726.37,0.91,338300.05,863.80,1.56,84144.67,243.67,-0.62,33854.54,367.05,0.57,8444.10,55.87,-2.02,7751.47
1220100,1481.34,571.70,1.00,1,1,1,768.21,2.71,82282.65,152.86,-2.38,26827.35,562.18,1.24,18487.25,350.47,1.23,6357.47,192.11,-2.62,4107.84
1235100,1501.05,554.50,1.00,1,1,1,1743.64,-0.72,166030.03,415.26,0.37,37305.86,356.08,1.20,13800.38,467.60,-2.68,50737.96,140.98,0.13,21797.58
1265300,1498.82,578.54,1.00,1,1,1,799.57,1.66,79049.05,926.91,1.12,22574.59,310.77,1.85,7215.18,319.22,2.33,16009.69,212.17,0.29,2524.18
1279900,1519.27,591.81,1.00,1,1,1,1669.68,0.58,101279.51,811.88,2.51,76781.48,1070.17,-2.88,76060.07,147.37,1.24,19383.07,118.92,-1.14,15595.08
1302600,1474.33,596.36,1.00,1,1,1,1989.69,3.04,152144.38,3235.27,-2.61,132344.00,836.05,-2.89,10326.82,367.13,-2.82,20773.91,231.71,0.80,13023.94
1316600,1416.85,531.75,1.00,1,1,1,6177.24,-2.30,375996.21,1483.76,-2.32,133270.13,160.00,-2.05,52757.88,302.93,3.07,10392.36,80.58,1.18,11406.20
1331600,1445.13,564.75,1.00,1,1,1,2897.83,0.86,604981.85,3805.35,0.48,348385.64,1023.14,-2.36,58139.07,158.32,-2.05,18709.36,79.32,1.81,3295.70
1345500,1514.41,582.51,1.00,1,1,1,5144.84,0.25,232568.22,553.64,-2.49,313065.38,717.72,0.58,124615.15,535.01,-2.07,27104.19,28.07,-2.70,6424.07
1359700,1432.79,555.28,1.00,1,1,1,6058.93,-2.82,788502.67,1704.44,-2.73,82782.66,683.20,-0.11,33088.17,225.35,-0.23,44546.81,310.62,-1.44,21359.03
1382500,1456.50,557.53,1.00,1,1,1,1044.49,0.09,310546.18,1536.65,0.08,140310.91,906.10,-2.07,58279.20,767.51,0.63,28226.67,126.73,-1.59,8165.55
1396600,1489.29,560.07,1.00,1,1,1,2332.63,0.08,91378.28,1368.31,-0.76,85333.88,1163.37,0.47,140303.82,276.79,-0.47,48693.72,266.79,-1.47,10051.45
1411800,1485.50,529.85,1.00,1,1,1,2003.61,-1.70,221457.17,1106.05,1.19,135091.10,826.36,0.67,25863.89,226.74,-2.10,24193.27,270.67,-1.82,6187.96
1425700,1501.32,589.92,1.00,2,2,2,4469.11,1.31,464788.72,2044.37,1.43,72329.33,293.69,-2.47,80578.99,677.47,-0.85,46261.62,233.20,-1.41,7897.27
1440200,1493.73,587.32,1.00,2,2,2,553.16,-2.81,330885.94,1602.62,-2.13,246117.70,447.83,1.09,50075.38,462.85,-0.71,15777.00,581.95,0.19,43710.13
1455700,1475.76,549.20,1.00,1,1,1,2719.13,-2.01,152733.09,817.01,-1.39,73435.05,1534.81,-1.66,126237.25,416.38,-1.25,15547.19,956.82,0.04,25297.81
1478600,1499.22,556.43,1.00,1,1,1,1072.01,0.30,154217.82,1728.02,-1.31,40037.65,1006.91,-1.47,25202.26,129.04,-0.55,14335.85,1022.78,0.06,3010.50
1492500,1492.29,487.79,1.00,1,1,1,4963.11,-1.67,393536.27,1265.96,-1.54,41168.53,734.70,-0.91,39210.99,383.01,-1.84,26542.27,1225.16,0.09,14784.00
1507400,1500.47,519.99,1.00,1,1,1,2229.66,1.32,481605.39,869.37,1.03,137660.10,488.75,-1.52,29180.26,550.69,-0.26,45392.46,1122.17,0.41,25686.26
1522600,1505.73,510.25,1.00,1,1,1,729.05,-1.08,184853.39,12.97,0.56,56435.49,488.57,1.74,64187.82,1452.71,0.10,62987.42,857.71,0.45,17568.42
1552600,1500.96,520.31,1.00,4,4,4,371.20,2.01,36663.57,489.47,2.34,16409.85,944.46,0.50,30339.85,1917.17,0.14,15585.76,857.90,0.95,14318.39
1583600,1484.97,531.70,1.00,4,4,4,633.44,2.52,11560.62,1741.89,0.50,62297.50,2116.45,0.28,39093.31,1909.90,0.32,11015.22,456.34,2.94,36232.20
1605400,1581.74,564.29,1.00,4,4,4,4684.02,0.32,233106.95,4884.46,0.18,150392.38,3417.38,0.24,59836.85,1787.09,0.57,22335.68,967.04,2.75,24122.26
1635800,1735.96,576.55,1.00,4,4,4,5089.08,0.08,41520.26,5463.69,0.15,19546.56,4012.60,0.18,21116.87,1527.77,0.64,9263.49,1717.69,2.76,24695.04
1650600,1825.88,601.48,1.00,4,4,4,6304.86,0.27,109899.09,2432.53,0.19,205041.23,2812.05,0.60,124804.55,1593.26,1.02,40475.54,2321.31,2.57,47784.39
1664600,1804.74,589.84,1.00,4,4,4,1723.43,-2.64,570834.36,3010.33,2.12,320831.18,1479.14,1.68,177769.79,1003.55,2.52,130001.50,2735.15,2.56,29648.67
1686300,1769.39,692.90,1.00,4,4,4,5020.98,1.90,257222.83,3134.68,2.34,30445.63,3600.55,2.50,129207.81,2739.54,2.78,82473.15,2859.28,2.65,13203.26
1701300,1725.06,672.82,1.00,4,4,4,3244.05,-2.72,415369.46,4748.30,2.78,156801.95,6657.54,3.08,275900.15,6082.57,2.92,225954.08,2893.61,2.69,8082.63
1716100,1636.88,742.54,1.00,4,4,4,7595.38,2.47,456323.88,12350.80,-2.99,576235.16,9130.14,3.13,169166.87,7700.11,2.80,123021.35,3083.11,2.68,13384.76
1730800,1364.90,617.75,1.00,4,4,4,20356.41,-2.71,1238698.60,13790.89,-3.04,107592.63,12225.55,3.04,219278.77,8013.57,2.80,21532.93,3276.42,2.71,15281.41
1746500,1219.80,700.01,1.00,4,4,4,10623.83,2.63,1054719.81,12802.27,2.82,364857.33,12408.96,2.89,120513.89,8398.38,2.92,64806.84,3527.75,2.71,16008.45
1761900,987.76,745.37,1.00,4,4,4,15353.00,2.95,406563.35,12835.90,2.50,263049.85,9743.49,2.62,258466.85,8226.86,2.93,12710.90,4197.85,2.83,53324.45
1776000,916.90,927.24,1.00,4,4,4,13842.90,1.94,1002772.67,7649.02,2.34,383591.28,8106.15,2.70,127666.53,7519.69,2.95,51661.95,4526.00,2.94,40615.15
1798600,791.87,946.45,1.00,1,1,1,5597.18,2.99,533598.77,5053.69,3.13,239496.73,4782.96,2.66,147640.62,5948.85,2.75,91760.21,3842.32,2.74,48614.80
1813600,726.90,930.02,1.00,1,1,1,4467.65,-2.89,152419.73,3406.06,-2.55,198228.71,3222.16,-3.12,167560.76,4327.39,2.67,111653.40,3425.18,2.85,38412.93
1827500,710.14,891.59,1.00,1,1,1,3016.32,-1.98,254926.01,893.59,-2.84,184462.51,2189.28,-2.82,93879.50,2647.44,2.67,120860.38,3242.87,2.91,20737.82
1842700,702.03,922.41,1.00,1,1,1,2096.87,1.83,318401.92,1423.94,2.80,58015.64,950.59,2.36,128706.21,2141.16,-2.89,116191.86,2605.44,2.96,42982.61
1857200,670.25,905.62,1.00,1,1,1,2479.16,-2.66,247706.29,1389.76,1.98,77270.78,948.49,2.71,22933.70,537.80,1.70,156574.49,2027.16,2.71,56694.38
1887600,676.95,979.54,1.00,1,1,1,2441.68,1.48,142269.24,687.71,2.61,30341.49,1462.46,-2.47,43913.93,808.15,0.37,28244.04,1464.78,2.77,18847.16
1909900,639.07,924.10,1.00,2,2,2,3010.96,-2.17,236726.21,3970.99,-2.05,182297.13,1706.59,0.84,141597.53,783.20,-0.09,16140.99,846.83,2.26,37529.64
1925200,607.60,847.32,1.00,2,2,2,5423.83,-1.96,167165.89,3955.40,0.64,505112.29,2056.56,-0.03,105471.09,863.92,-0.24,9932.99,276.79,-2.40,59176.34
1954600,780.93,1029.63,1.00,3,3,3,8556.50,0.81,467771.14,6162.78,0.50,78839.90,2671.12,-0.22,25974.78,736.40,-0.20,4523.64,355.94,-1.19,12395.22
1968800,843.89,975.25,1.00,1,1,1,5858.45,-0.71,713868.04,5347.86,-1.24,619244.19,2556.96,0.15,68645.63,1037.35,-0.75,39893.55,359.19,-0.54,16067.77
1984000,832.26,881.02,1.00,1,1,1,6246.46,-1.69,375854.67,1698.75,-1.48,244631.22,1818.83,-1.44,208614.54,1185.74,0.11,61890.05,371.42,-0.01,12801.29
2022100,852.47,885.11,1.00,1,1,1,541.25,0.20,168992.26,589.39,-3.10,48000.48,1434.00,-1.93,22802.19,1585.95,0.09,10530.25,324.08,0.29,2983.88
2037700,800.63,879.78,1.00,1,1,1,3340.42,-3.04,248683.43,1812.62,-2.72,82300.61,778.66,1.70,138045.47,1334.73,-1.30,120846.08,950.24,-0.10,42439.69
2052600,801.96,862.63,1.00,1,1,1,1154.15,-1.49,235340.41,2378.70,1.23,259055.71,255.97,-1.43,69437.53,703.80,-1.80,53074.74,1139.38,-0.40,24398.21
2066800,823.94,944.95,1.00,1,1,1,6000.45,1.31,499965.76,1832.91,0.14,156938.54,754.53,-0.81,39883.19,89.32,2.30,53409.09,1215.96,-0.27,11508.47
2081600,854.60,870.03,1.00,1,1,1,5469.49,-1.18,734598.83,3369.35,-1.50,266583.58,328.66,0.54,50920.72,694.82,2.28,40915.06,1427.83,0.05,32456.66
2095600,830.78,848.16,1.00,1,1,1,2310.11,-2.40,367558.92,971.76,3.04,261629.94,824.54,-1.58,73918.00,1271.58,-0.01,129106.07,1034.55,-0.67,67900.04
2117200,820.18,873.53,1.00,2,2,2,1273.10,1.97,138574.73,1177.84,1.74,60631.46,1534.97,2.20,104277.16,1445.52,-0.06,8473.61,833.70,-0.54,10903.56
2132400,823.39,890.86,1.00,2,2,2,1159.78,1.39,46208.28,2760.69,1.87,105239.72,1981.86,0.23,193420.95,1456.59,-0.65,55658.02,615.45,-0.29,18513.31
2146500,796.30,950.81,1.00,3,3,3,4665.46,2.00,267482.04,4649.85,-0.10,444056.93,2744.41,-0.13,79856.35,1243.74,-0.00,62486.86,621.21,-0.30,600.29
2161500,958.04,877.52,1.00,1,1,1,11837.69,-0.43,1043213.86,7082.57,-0.49,220358.51,2501.32,-0.38,46793.93,1291.71,0.03,4016.70,731.90,-0.23,8034.08
2175900,979.91,852.59,1.00,1,1,1,2303.07,-0.85,679569.98,1402.16,-1.20,422503.49,3528.53,-0.35,71658.07,1742.88,-0.07,33070.61,584.39,-0.19,10418.08
2198600,977.02,829.09,1.00,1,1,1,1043.27,-1.69,78736.25,1127.12,0.42,80897.57,758.06,-0.51,122571.82,1428.70,-0.33,22505.32,742.26,-0.69,15965.58
2213600,1018.77,869.79,1.00,1,1,1,3886.93,0.77,316398.91,1161.33,0.75,25420.22,893.14,0.07,32688.84,1717.16,-0.49,25647.25,524.48,0.05,33585.57
2228600,1002.51,852.84,1.00,1,1,1,1565.75,-2.34,363470.04,829.41,-0.53,81059.37,290.43,0.18,40352.13,382.68,-0.87,91261.74,612.04,0.04,5869.45
2244000,1040.57,857.11,1.00,1,1,1,2486.57,0.11,248271.28,734.01,-1.95,66642.78,470.69,-1.82,42156.69,154.39,-2.12,23627.73,589.61,-0.31,13424.17
2258800,994.21,832.28,1.00,1,1,1,3553.08,-2.65,400975.85,847.77,-2.54,31498.65,250.72,-1.97,15239.50,149.63,-1.05,10472.38,532.36,-0.32,3913.37
2287800,1010.04,835.97,1.00,1,1,1,560.43,0.23,141270.46,34.83,1.35,30130.41,817.10,-2.80,23252.80,61.45,2.12,7278.31,810.28,-0.35,9602.17
2310000,994.60,834.02,1.00,1,1,1,700.68,-3.02,56732.14,837.37,-3.03,38269.96,250.82,-1.80,32134.67,103.39,0.14,6288.37,268.06,-0.07,25093.33
2339800,966.78,830.96,1.00,1,1,1,939.23,-3.03,8016.65,578.02,-1.80,28224.41,443.15,1.50,23223.18,350.02,-2.49,14877.35,84.52,-0.49,6505.45
2354700,988.71,808.87,1.00,1,1,1,2089.02,-0.79,186100.49,1488.16,0.80,134613.51,351.25,0.69,21685.69,107.03,2.73,20927.21,54.09,-2.14,6963.00
2384600,1013.28,878.74,1.00,1,1,1,2477.28,1.23,129590.29,1099.40,0.97,14903.14,329.81,-0.43,12145.97,219.23,1.03,8557.02,61.45,2.12,3280.44
2406100,1020.67,855.47,1.00,1,1,1,1136.06,-1.26,160601.94,1724.24,-1.93,130413.93,407.70,1.94,31827.40,375.50,0.70,8522.74,103.39,0.14,6493.11
2421200,991.13,819.65,1.00,1,1,1,3074.68,-2.26,174643.16,1552.25,-2.80,92039.39,289.84,-0.67,44623.18,263.38,0.26,11731.10,350.02,-2.49,29360.59
2436100,976.80,839.85,1.00,1,1,1,1661.83,2.19,258913.15,2007.20,0.90,229747.34,414.73,0.71,30889.60,151.51,2.82,26783.66,107.03,2.73,20927.21
2451100,1028.35,866.73,1.00,1,1,1,3875.71,0.48,294637.49,2377.57,0.47,67118.29,400.33,1.07,9589.03,289.84,-0.67,29003.43,219.23,1.03,17057.00
2465600,1039.34,871.61,1.00,1,1,1,829.13,0.42,210253.78,1246.17,-2.35,246926.71,431.09,-1.90,57128.08,414.73,0.71,31741.73,375.50,0.70,12637.17
2480600,1002.63,840.47,1.00,1,1,1,3209.34,-2.44,267442.84,2994.59,-2.47,117700.42,1246.17,-2.35,58408.56,400.33,1.07,9589.03,263.38,0.26,11809.31
2495800,968.39,815.52,1.00,1,1,1,2786.72,-2.51,31376.84,2786.72,-2.51,15584.52,2994.59,-2.47,116151.73,431.09,-1.90,54497.18,151.51,2.82,26255.04
