@RELATION gaze_labels

%@METADATA width_px 1920
%@METADATA height_px 1080
%@METADATA width_mm 540.00
%@METADATA height_mm 254.00
%@METADATA distance_mm 620.00


@ATTRIBUTE time INTEGER
@ATTRIBUTE x NUMERIC
@ATTRIBUTE y NUMERIC
@ATTRIBUTE confidence NUMERIC
@ATTRIBUTE handlabeller1 INTEGER
@ATTRIBUTE handlabeller2 INTEGER
@ATTRIBUTE handlabeller_final INTEGER
@ATTRIBUTE speed_1 numeric
@ATTRIBUTE direction_1 numeric
@ATTRIBUTE acceleration_1 numeric
@ATTRIBUTE speed_2 numeric
@ATTRIBUTE direction_2 numeric
@ATTRIBUTE acceleration_2 numeric
@ATTRIBUTE speed_4 numeric
@ATTRIBUTE direction_4 numeric
@ATTRIBUTE acceleration_4 numeric
@ATTRIBUTE speed_8 numeric
@ATTRIBUTE direction_8 numeric
@ATTRIBUTE acceleration_8 numeric
@ATTRIBUTE speed_16 numeric
@ATTRIBUTE direction_16 numeric
@ATTRIBUTE acceleration_16 numeric

%The number after speed, direction denotes the step size that was used for the calculation.
%Acceleration was calculated between two adjacent samples of the already low pass filtered velocity

@DATA
0,655.82,874.60,1.00,1,1,1,0.00,0.00,0.00,12689.92,0.38,0.00,4251.53,0.39,0.00,3161.02,0.48,0.00,688.53,0.35,0.00
15100,833.47,946.42,1.00,1,1,1,12689.92,0.38,840392.26,4251.53,0.39,558842.94,2662.31,-2.76,457863.61,648.11,2.81,240916.70,282.19,2.83,61456.84
30000,773.75,923.18,1.00,1,1,1,4300.68,-2.77,1140290.31,2662.31,-2.76,464009.43,3161.02,0.48,390335.98,279.10,0.98,51663.05,203.92,0.81,27790.40
45000,759.52,916.93,1.00,1,1,1,1035.62,-2.73,217751.75,2128.23,0.66,316311.24,648.11,2.81,242522.81,226.24,-1.83,33216.63,739.56,0.11,39889.30
60200,824.60,962.49,1.00,1,1,1,5225.88,0.61,410836.44,1873.30,0.85,29885.49,279.10,0.98,50643.39,688.53,0.35,55151.85,1328.28,-0.87,72272.71
75000,796.75,959.03,1.00,1,1,1,1895.81,-3.02,470126.09,990.27,-2.63,191025.84,226.24,-1.83,33665.51,282.19,2.83,62702.59,2852.64,-0.63,107494.60
105400,785.56,940.60,1.00,1,1,1,709.58,-2.12,51263.29,1397.27,-2.18,21853.18,857.32,-2.49,22785.44,203.92,0.81,13620.95,3440.81,-0.65,19471.77
127500,754.76,898.89,1.00,1,1,1,2346.05,-2.21,74235.95,760.83,-2.33,29644.57,57.39,2.98,37062.78,739.56,0.11,27074.19,3827.91,-0.52,27658.41
157900,758.02,911.66,1.00,2,2,2,433.53,1.32,90546.07,1591.33,1.03,76957.90,144.76,0.51,6345.82,1328.28,-0.87,36136.35,2262.69,-0.40,52895.47
172200,791.25,959.95,1.00,2,2,2,4098.99,0.97,258396.10,1737.20,0.74,35097.91,1658.58,0.25,106241.70,2852.64,-0.63,111253.16,1894.08,-0.56,35095.64
187500,795.92,946.41,1.00,2,2,2,935.71,-1.24,308178.18,2951.28,-0.35,172721.81,3581.92,-0.51,171972.74,3440.81,-0.65,38689.00,1867.62,-0.44,15336.75
202500,875.33,929.49,1.00,2,2,2,5412.63,-0.21,332958.33,6171.30,-0.72,239485.26,7084.49,-0.63,236961.43,3827.91,-0.52,40750.06,1916.39,-0.37,9444.22
224200,965.76,796.58,1.00,3,3,3,7408.25,-0.97,236032.37,10641.14,-0.69,206359.87,7657.91,-0.67,31087.27,4523.66,-0.53,32079.97,1809.94,-0.58,19116.96
238900,1174.17,683.07,1.00,1,1,1,16144.00,-0.50,689571.60,9542.97,-0.63,83607.61,6985.08,-0.71,49730.25,4608.06,-0.54,7342.57,1962.78,-0.59,10407.72
253400,1190.14,631.34,1.00,1,1,1,3733.78,-1.27,946246.79,2405.31,-0.85,497181.39,5592.65,-0.54,120649.02,4015.32,-0.49,43263.95,1983.22,-0.66,10389.34
267800,1220.23,631.01,1.00,1,1,1,2090.10,-0.01,255566.48,1902.99,-0.07,117509.29,1945.94,-0.19,265699.42,3434.00,-0.48,40456.78,1888.80,-0.59,12084.07
282700,1245.75,627.32,1.00,1,1,1,1730.31,-0.14,29458.69,2438.10,0.43,80216.65,1453.99,0.70,102447.92,2549.77,-0.39,62059.45,2054.81,-0.60,11300.30
297700,1286.51,661.35,1.00,1,1,1,3540.12,0.70,180607.32,1841.43,1.30,125003.31,1544.85,0.98,28439.65,828.37,-0.39,114761.70,1876.21,-0.54,14219.87
320100,1264.50,693.59,1.00,1,1,1,1742.80,2.17,169300.79,1505.49,1.71,34219.76,724.72,1.21,38194.61,278.14,-0.80,26119.47,1838.86,-0.59,4363.74
335200,1278.57,717.25,1.00,1,1,1,1823.03,1.03,127107.89,670.71,-1.63,143488.77,346.89,-2.29,69998.95,246.27,-2.26,23215.48,1464.04,-0.73,29223.61
350500,1263.24,673.24,1.00,1,1,1,3045.88,-1.91,316717.56,2463.66,-1.67,117232.64,1691.00,-2.09,88411.79,276.72,-2.17,2574.80,1002.17,-0.52,34376.10
365200,1271.11,643.72,1.00,1,1,1,2078.62,-1.31,120105.95,2841.64,-2.20,97092.30,1873.77,-2.19,17398.53,412.51,2.59,33054.17,135.75,-0.56,58945.91
379700,1214.53,606.06,1.00,1,1,1,4686.93,-2.55,308697.29,1885.00,-2.65,96836.44,1102.39,-2.04,55208.96,323.01,-2.09,36674.04,10.25,-2.51,9649.36
409300,1197.99,604.18,1.00,2,2,2,562.69,-3.03,141693.54,290.57,-1.02,65004.28,757.17,2.21,53721.55,717.30,-2.45,14551.74,156.86,-2.26,4965.05
432000,1222.54,593.15,1.00,1,1,1,1185.83,-0.42,74635.05,2523.05,1.19,119187.82,508.94,1.05,31902.69,348.44,-2.79,17849.17,205.42,2.36,11911.51
447500,1233.83,693.65,1.00,1,1,1,6524.89,1.46,450271.37,1283.82,1.28,80662.43,498.97,1.73,21634.92,376.68,2.86,14629.27,244.91,-2.93,14117.47
477700,1239.25,649.38,1.00,1,1,1,1476.66,-1.45,263865.01,1420.24,-2.29,87463.81,819.21,1.74,10608.26,198.21,2.43,7092.85,192.68,-2.93,1730.39
492800,1191.37,645.32,1.00,1,1,1,3182.74,-3.06,235629.17,926.44,2.96,81505.64,451.61,-2.24,77474.93,80.52,-2.24,14374.73,143.70,-2.74,3900.01
507800,1211.81,654.31,1.00,1,1,1,1488.60,0.41,307760.32,527.08,0.76,87342.12,674.24,-2.77,24499.55,516.89,1.84,37877.74,308.36,0.04,29706.65
537800,1208.61,661.61,1.00,1,1,1,265.62,1.98,50391.58,666.73,-2.34,39785.42,627.62,-1.60,23999.90,334.90,-1.98,26884.65,1258.02,0.01,31662.07
559800,1187.60,629.49,1.00,1,1,1,1744.49,-2.15,86489.08,1893.72,-1.84,61244.76,251.04,2.12,38592.03,296.96,2.39,23518.34,2076.30,0.06,37411.91
575000,1189.66,593.75,1.00,1,1,1,2354.84,-1.51,92666.43,1475.53,1.26,221626.33,253.12,-1.30,32847.08,430.10,0.88,33474.28,2385.11,0.15,23629.97
590000,1201.11,671.95,1.00,1,1,1,5268.73,1.43,506004.68,1905.14,1.14,31548.35,732.39,1.24,63501.12,932.08,0.15,44874.40,2421.84,0.04,16809.61
604700,1213.07,645.27,1.00,1,1,1,1989.15,-1.15,478131.04,227.06,1.15,114155.03,1427.60,1.15,47674.13,3155.18,-0.03,152708.39,2236.36,-0.09,25180.46
634300,1205.26,681.11,1.00,4,4,4,1239.39,1.79,108520.74,1149.61,1.16,31169.07,1993.51,0.03,63567.46,4921.62,0.03,60179.07,2146.45,-0.03,5823.93
655700,1236.23,699.13,1.00,4,4,4,1674.48,0.53,81809.34,4304.52,-0.02,187871.71,5716.18,0.01,174012.72,5292.70,0.16,35735.60,2231.00,-0.05,4475.28
670700,1361.89,677.27,1.00,4,4,4,8503.18,-0.17,486751.46,14884.24,-0.12,707044.16,10216.96,-0.05,301253.37,5324.69,-0.06,79007.18,2085.64,-0.08,10493.15
685300,1673.79,647.61,1.00,4,4,4,21458.72,-0.09,890251.10,17489.51,-0.05,191348.53,11629.11,0.02,108097.80,4747.97,-0.02,42009.85,1944.02,-0.15,14482.50
700300,1878.81,648.98,1.00,4,4,4,13668.67,0.01,532091.49,8684.40,0.25,638801.99,9913.10,-0.09,138111.17,4964.60,-0.07,22105.60,1524.93,-0.06,29869.65
714300,1917.60,710.71,1.00,4,4,4,5207.40,1.01,837276.01,2336.02,-0.37,494714.68,3582.38,-0.08,452236.43,4829.73,-0.14,25191.08,654.11,0.35,68570.83
729500,1942.36,624.21,1.00,4,4,4,5919.41,-1.29,668695.89,2176.04,-1.65,177032.38,400.86,-2.46,255498.72,3635.71,-0.15,78609.39,409.45,0.09,18343.76
751800,1911.31,629.35,1.00,4,4,4,1411.46,2.98,298106.68,2302.16,3.04,143437.28,1950.58,-2.30,69796.22,714.62,-0.85,140041.12,497.50,0.21,4622.30
766200,1858.27,632.37,1.00,4,4,4,3689.38,3.08,159098.11,2829.76,-2.96,61800.52,2029.87,-3.03,98538.91,2122.28,-2.98,178669.98,368.26,-0.37,18996.54
780300,1832.04,614.52,1.00,4,4,4,2250.34,-2.54,166349.98,1855.88,-2.69,81527.62,3142.64,-2.87,83521.32,3755.96,-3.04,116603.94,422.92,-0.40,3963.03
795300,1809.69,608.77,1.00,4,4,4,1538.18,-2.89,63836.13,3452.37,-2.81,108319.69,3895.94,-3.03,62177.52,4221.69,3.05,58975.32,221.66,2.68,42951.16
810700,1732.85,580.22,1.00,4,4,4,5323.15,-2.79,246533.83,5605.72,-3.12,165135.78,5740.09,3.05,134931.94,3542.21,3.06,44168.61,1332.49,3.05,73258.04
832300,1602.34,603.76,1.00,4,4,4,6139.47,2.96,144722.75,7332.25,2.93,105262.74,6012.03,2.99,19907.68,3537.09,3.12,10670.30,2014.05,3.10,31801.07
861800,1366.18,657.27,1.00,4,4,4,8208.47,2.92,70943.11,6456.42,2.87,33046.77,3957.51,2.89,71719.11,3091.35,3.06,16540.62,2105.45,-3.12,5477.83
877900,1318.55,682.11,1.00,4,4,4,3336.63,2.66,313927.68,423.76,1.86,387808.80,3320.03,3.01,47993.64,3127.21,2.95,21398.26,2189.46,3.05,15816.42
907800,1360.70,675.98,1.00,4,4,4,1424.56,-0.14,157356.70,923.67,-1.92,43150.29,265.73,-2.94,102688.13,2769.35,2.91,12647.81,2216.62,3.00,3964.94
922800,1304.47,643.10,1.00,1,1,1,4342.51,-2.61,368523.90,894.74,-2.13,13100.04,335.89,2.11,23596.44,1994.41,2.91,51665.80,2072.24,3.04,11466.73
937900,1346.38,653.17,1.00,1,1,1,2854.59,0.24,471731.78,1693.47,1.57,165373.08,1067.84,3.02,59781.56,502.34,2.54,101905.81,2076.31,2.95,12777.98
959800,1304.49,705.76,1.00,1,1,1,3069.88,2.24,228251.67,1746.91,2.64,79980.92,485.05,1.82,45575.78,62.95,-3.14,20650.04,2395.23,2.82,19547.13
975300,1289.15,684.68,1.00,1,1,1,1682.13,-2.20,249843.67,1075.27,-1.83,146055.75,896.23,2.29,32921.68,656.57,2.60,38952.41,2712.62,2.77,22368.88
989800,1296.31,674.56,1.00,1,1,1,855.16,-0.96,112049.27,780.53,0.63,120780.83,404.81,-1.36,87309.83,455.86,2.17,21125.21,2724.34,2.64,23058.81
1004200,1307.36,697.99,1.00,1,1,1,1799.08,1.13,162591.31,511.16,0.51,19405.79,575.40,1.58,67718.09,998.52,2.52,41117.51,2096.59,2.51,49034.51
1019700,1309.62,682.06,1.00,2,2,2,1037.83,-1.43,175900.28,900.87,2.28,72290.24,490.43,2.55,32539.32,1577.99,2.48,37567.46,1706.75,2.48,25302.16
1035500,1288.93,719.32,1.00,2,2,2,2697.66,2.08,233257.96,1262.02,2.91,47243.28,1141.13,2.71,41829.53,2725.98,2.58,73739.75,1900.34,2.53,13140.46
1050800,1271.46,691.22,1.00,2,2,2,2162.93,-2.13,274420.64,1446.43,2.92,12158.09,3254.77,2.41,143088.21,3771.13,2.47,71963.84,1773.07,2.54,8385.97
1072400,1236.81,730.83,1.00,2,2,2,2436.53,2.29,171296.10,5098.57,2.31,185449.76,4911.09,2.66,89961.61,3862.19,2.50,7638.47,1721.54,2.53,2386.33
1087500,1145.59,829.67,1.00,3,3,3,8907.42,2.32,428615.01,9215.30,2.61,305662.40,6764.19,2.46,144877.61,3541.36,2.47,22528.84,1642.06,2.50,6375.56
1102600,996.31,870.88,1.00,1,1,1,10255.45,2.87,358754.19,8910.85,2.57,34416.00,6965.85,2.47,13500.70,3011.31,2.51,36142.27,1398.47,2.46,16588.01
1117700,919.58,975.75,1.00,1,1,1,8605.75,2.20,423288.29,5006.27,2.19,307218.69,3878.06,2.53,205778.23,2978.86,2.58,14311.89,1595.34,2.44,13319.55
1132800,908.50,993.96,1.00,1,1,1,1411.18,2.12,476864.68,1207.20,-0.35,399915.33,1531.64,2.07,171973.90,2331.66,2.54,43593.47,1603.11,2.58,15592.22
1147800,953.75,963.40,1.00,1,1,1,3639.95,-0.59,330504.97,828.32,-0.58,29677.61,775.91,-1.75,146003.04,1694.34,2.52,42558.72,1489.26,2.63,8933.14
1178700,940.28,973.09,1.00,1,1,1,536.89,2.52,135166.25,1383.52,-2.34,56350.54,573.42,-1.17,14008.69,489.73,1.99,41902.93,1462.84,2.66,1856.79
1194200,909.04,917.34,1.00,1,1,1,4122.99,-2.08,272076.09,616.85,-1.87,56892.01,352.28,2.43,58263.37,86.82,0.73,30379.00,1423.06,2.64,3224.16
1231800,930.78,941.74,1.00,1,1,1,869.19,0.84,132322.34,1377.16,1.31,53027.15,335.27,-0.86,18235.30,239.61,-1.85,8415.48,1115.75,2.51,9304.28
1245800,927.59,985.94,1.00,1,1,1,3164.85,1.64,188133.39,712.43,0.21,87624.37,743.85,1.26,68785.73,396.79,-2.26,14346.85,815.59,2.81,29426.00
1276000,961.57,948.37,1.00,1,1,1,1677.18,-0.84,152444.32,71.32,-0.06,21324.57,484.45,2.79,28808.02,421.45,-2.41,2227.94,435.22,2.55,13566.10
1290700,930.79,985.75,1.00,1,1,1,3293.76,2.26,338078.16,2165.45,3.05,152159.39,967.38,-1.82,76669.87,166.94,-2.46,17337.89,233.89,-1.81,38109.22
1305900,897.07,954.08,1.00,1,1,1,3043.06,-2.39,304443.92,2118.44,-1.85,178986.09,1125.06,-2.85,68887.25,268.20,-0.35,25121.91,417.64,-1.16,17903.69
1329000,908.12,907.84,1.00,1,1,1,2058.23,-1.34,116795.89,757.98,-1.88,58906.85,1427.12,-2.04,45494.93,542.22,-1.75,24276.42,319.50,-1.65,8781.73
1343800,888.43,926.69,1.00,1,1,1,1841.55,2.38,252802.24,754.34,-2.78,44683.26,1101.85,-0.35,128360.01,583.07,-3.08,47042.56,523.52,-1.21,18261.65
1357800,887.79,900.18,1.00,1,1,1,1893.61,-1.59,244074.94,2685.21,0.03,243341.73,111.08,0.35,72845.32,653.10,-1.91,48673.16,323.58,-0.60,22768.81
1372800,966.28,928.70,1.00,1,1,1,5567.10,0.35,433363.08,941.88,0.36,121415.18,287.96,1.61,18279.62,743.84,-0.89,45922.71,350.39,-0.74,3566.68
1387800,914.25,910.11,1.00,2,2,2,3683.49,-2.80,616703.91,2670.37,2.95,233947.63,279.03,0.46,20512.09,451.79,-0.84,19579.17,467.98,-1.09,12362.47
1402700,887.84,943.64,1.00,2,2,2,2864.49,2.24,260444.17,390.61,-2.93,155454.74,780.60,-1.69,64548.20,1136.88,-0.74,46220.59,434.92,-1.31,6790.56
1417800,902.80,907.60,1.00,2,2,2,2584.15,-1.18,357474.32,2612.70,-0.75,188919.01,818.87,-0.95,38412.84,833.25,-0.35,32164.74,622.03,-0.97,16900.65
1440500,960.02,876.23,1.00,1,1,1,2874.57,-0.50,80630.86,1640.88,-0.77,42842.03,2332.92,-0.82,67171.56,479.28,-0.98,23249.65,510.56,-0.65,9405.31
1454500,946.07,865.72,1.00,1,1,1,1247.31,-2.50,255203.77,1983.01,-0.93,32417.20,1428.78,-0.48,78331.90,617.59,-0.49,21298.61,554.41,-0.23,16019.24
1469000,993.60,830.77,1.00,1,1,1,4068.34,-0.63,316173.31,1384.72,-0.03,108033.22,698.13,0.07,62757.43,1105.37,-0.79,37773.57,514.88,-0.25,2832.38
1483600,986.35,864.49,1.00,1,1,1,2362.47,1.78,413919.70,1711.28,1.45,143605.34,622.06,0.15,6193.35,990.18,-0.43,26568.44,833.25,-0.35,22236.74
1497500,999.71,879.16,1.00,1,1,1,1426.97,0.83,138335.56,197.36,1.53,108966.52,136.52,1.85,47017.76,342.91,-0.04,49396.98,479.28,-0.98,37968.85
1520500,986.68,871.77,1.00,1,1,1,651.04,-2.63,89380.51,1070.67,-1.78,55030.47,563.92,-0.33,28305.53,756.60,0.08,18184.55,617.59,-0.49,12964.37
1535400,991.14,839.49,1.00,1,1,1,2186.50,-1.43,136742.21,1342.73,-0.50,97993.08,79.63,-1.02,33897.42,467.22,1.11,43809.92,1105.37,-0.79,36759.52
1550600,1022.13,852.36,1.00,1,1,1,2207.66,0.39,228853.77,1268.74,1.26,132381.80,879.82,0.04,55506.10,563.92,-0.33,44963.34,990.18,-0.43,25519.68
1564500,1002.51,874.62,1.00,1,1,1,2135.00,2.29,254133.52,844.19,0.65,53836.03,774.97,1.01,56005.29,79.63,-1.02,36336.09,342.91,-0.04,49396.98
1593700,1051.03,874.46,1.00,1,1,1,1661.61,-0.00,118768.69,542.76,0.68,10349.00,844.19,0.65,10218.71,879.82,0.04,28893.59,756.60,0.08,14323.45
1615300,1023.87,892.06,1.00,1,1,1,1498.23,2.57,140371.73,1498.23,2.57,80686.11,542.76,0.68,13990.32,774.97,1.01,36040.44,467.22,1.11,30220.73
