@RELATION gaze_labels

%@METADATA width_px 1920
%@METADATA height_px 1080
%@METADATA width_mm 540.00
%@METADATA height_mm 254.00
%@METADATA distance_mm 620.00


@ATTRIBUTE time INTEGER
@ATTRIBUTE x NUMERIC
@ATTRIBUTE y NUMERIC
@ATTRIBUTE confidence NUMERIC
@ATTRIBUTE handlabeller1 INTEGER
@ATTRIBUTE handlabeller2 INTEGER
@ATTRIBUTE handlabeller_final INTEGER
@ATTRIBUTE speed_1 numeric
@ATTRIBUTE direction_1 numeric
@ATTRIBUTE acceleration_1 numeric
@ATTRIBUTE speed_2 numeric
@ATTRIBUTE direction_2 numeric
@ATTRIBUTE acceleration_2 numeric
@ATTRIBUTE speed_4 numeric
@ATTRIBUTE direction_4 numeric
@ATTRIBUTE acceleration_4 numeric
@ATTRIBUTE speed_8 numeric
@ATTRIBUTE direction_8 numeric
@ATTRIBUTE acceleration_8 numeric
@ATTRIBUTE speed_16 numeric
@ATTRIBUTE direction_16 numeric
@ATTRIBUTE acceleration_16 numeric

%The number after speed, direction denotes the step size that was used for the calculation.
%Acceleration was calculated between two adjacent samples of the already low pass filtered velocity

@DATA
0,608.15,962.78,1.00,1,1,1,0.00,0.00,0.00,457.01,-2.36,0.00,258.68,-2.26,0.00,413.98,-3.07,0.00,64.95,-1.69,0.00
16200,602.91,957.55,1.00,1,1,1,457.01,-2.36,28210.26,258.68,-2.26,12430.82,492.44,-3.03,21987.85,397.01,3.13,2249.64,115.53,-2.99,7176.59
47900,600.32,953.18,1.00,1,1,1,160.29,-2.11,9599.13,492.44,-3.03,11236.69,413.98,-3.07,2558.46,85.84,1.42,13184.80,274.49,2.94,5396.85
63900,579.58,954.88,1.00,1,1,1,1300.60,3.06,77412.40,666.06,2.94,15750.95,397.01,3.13,2277.76,355.90,0.07,21713.07,2158.60,-3.14,118191.09
97900,567.72,960.00,1.00,1,1,1,379.92,2.73,27900.70,312.18,2.93,10408.39,85.84,1.42,12292.88,64.95,-1.69,10987.52,5461.02,-3.11,97183.34
112000,564.88,957.97,1.00,1,1,1,247.64,-2.52,23396.09,1121.66,-0.00,101322.38,355.90,0.07,24638.94,115.53,-2.99,8245.44,5636.14,3.14,19259.14
127900,601.37,959.97,1.00,1,1,1,2298.24,0.05,157900.09,1348.62,-0.03,14425.40,643.23,-0.19,19638.33,274.49,2.94,10759.77,6054.02,-3.11,28919.25
144000,608.02,956.76,1.00,1,1,1,458.64,-0.45,118601.93,290.78,-0.94,74045.03,313.02,-0.16,20527.19,2158.60,-3.14,117456.98,6027.12,-3.14,10539.28
159900,606.88,952.47,1.00,2,2,2,279.15,-1.83,30810.59,732.65,-3.06,57774.90,621.82,3.11,58689.83,5461.02,-3.11,207813.44,2844.25,-3.13,200207.05
176000,584.66,954.78,1.00,2,2,2,1387.69,3.04,85237.78,1444.37,2.95,47596.01,5299.95,-3.13,290606.86,5636.14,3.14,16866.70,2818.22,-3.14,2388.06
191800,561.66,961.28,1.00,2,2,2,1512.92,2.87,17625.65,9855.24,-3.14,534386.84,10167.98,-3.12,308188.63,6054.02,-3.11,29102.29,2867.69,-3.13,3432.68
208100,268.31,953.54,1.00,3,3,3,18003.05,-3.12,1016234.65,15953.34,-3.10,375036.23,10392.40,3.14,23527.11,6027.12,-3.14,10409.96,2906.67,-3.13,2392.02
240100,-208.33,931.96,1.00,1,1,1,14910.28,-3.10,97128.38,10752.81,3.13,163734.61,10383.26,-3.11,12899.08,5988.62,-3.14,1208.76,3100.06,-3.12,6051.62
256000,-246.72,959.02,1.00,1,1,1,2953.88,2.53,799039.10,1951.45,3.13,553545.20,6611.34,-3.14,237906.88,5510.35,-3.14,30082.81,2842.12,-3.13,16264.68
272000,-270.58,932.45,1.00,1,1,1,2231.95,-2.30,217927.09,430.49,-2.72,98084.67,798.96,2.81,366369.63,5204.75,-3.12,20374.94,2898.49,-3.14,3750.06
287900,-259.27,953.46,1.00,1,1,1,1500.28,1.08,233136.05,665.05,0.86,67291.75,664.74,-3.01,22841.73,3581.85,-3.12,102080.27,3201.93,-3.13,19155.41
304100,-256.67,948.64,1.00,1,1,1,337.87,-1.07,105501.31,833.40,-3.10,84922.86,105.28,1.67,41805.30,773.12,3.03,173926.58,3058.12,-3.14,9125.90
336500,-299.74,951.82,1.00,1,1,1,1333.14,3.07,47590.15,348.40,-2.65,16694.42,574.82,-2.90,18488.26,333.72,-2.94,14418.64,2929.47,-3.14,3995.45
351900,-271.37,940.83,1.00,1,1,1,1975.78,-0.37,212604.01,322.29,-2.00,14038.49,779.70,-3.08,15330.50,161.75,1.93,22477.63,2945.58,-3.12,2522.80
367900,-303.97,942.62,1.00,1,1,1,2040.15,3.09,247896.74,1486.17,3.06,88088.80,42.50,-1.37,49169.07,662.86,-3.06,39833.40,1974.19,-3.12,60712.45
383900,-318.77,944.76,1.00,1,1,1,934.72,3.00,69512.02,159.18,0.88,98928.53,223.66,2.06,16544.03,654.56,3.12,4296.05,526.26,2.97,91275.29
416000,-299.07,948.51,1.00,2,2,2,624.61,0.19,47937.60,849.34,0.30,22481.71,763.01,3.11,21172.74,336.07,-3.09,9982.18,515.71,-3.08,3636.94
431900,-279.76,956.63,1.00,3,3,3,1317.31,0.40,45183.68,2069.27,-3.08,182491.94,555.42,3.02,13503.63,687.27,3.11,22230.86,269.88,2.94,16564.65
447900,-364.97,944.71,1.00,1,1,1,5377.27,-3.00,416194.99,1919.12,-3.08,9391.20,676.67,3.13,8688.28,368.56,-3.11,20010.53,259.00,-3.10,4026.61
479900,-371.71,951.07,1.00,1,1,1,289.63,2.39,162531.65,256.12,0.35,67687.57,1278.06,-3.02,19173.96,307.55,2.86,3812.11,204.39,2.98,2259.76
496200,-353.34,948.92,1.00,1,1,1,1135.08,-0.12,84561.93,371.87,-2.51,38154.85,55.64,-1.09,79671.26,723.38,3.13,26657.17,297.34,-2.94,7924.39
512000,-381.36,944.03,1.00,1,1,1,1800.22,-2.97,183941.53,396.53,-2.44,2407.30,146.39,0.92,11223.96,497.92,-3.03,15084.33,192.76,3.08,7731.33
527900,-362.91,940.77,1.00,1,1,1,1178.57,-0.18,184643.28,659.31,0.76,66383.51,782.07,3.12,55082.84,190.72,0.19,43281.79,54.14,2.77,8947.75
544000,-366.04,958.54,1.00,1,1,1,1121.01,1.75,117045.49,1287.66,2.91,108117.54,480.20,0.15,78130.37,423.86,0.14,14510.96,697.57,0.07,46386.88
560100,-403.30,950.14,1.00,1,1,1,2372.33,-2.92,165931.89,566.15,-0.59,113572.09,414.12,0.36,7089.27,261.08,-2.70,42083.90,659.49,0.08,2471.45
575900,-351.00,948.53,1.00,1,1,1,3311.15,-0.03,356928.55,2040.88,-0.00,101269.30,751.23,0.00,24666.10,425.26,0.00,42451.60,1824.48,-0.02,74122.90
592100,-337.99,950.04,1.00,1,1,1,808.83,0.12,155162.70,1077.28,0.30,65493.75,395.99,-0.66,31092.58,351.57,0.17,6018.13,3550.01,-0.02,106525.33
608000,-317.96,958.72,1.00,1,1,1,1373.01,0.41,40450.30,1513.57,-2.81,162930.65,381.68,-0.18,11839.30,1936.78,-0.00,100087.88,3604.80,-0.02,3570.38
623800,-383.42,934.61,1.00,1,1,1,4415.26,-2.79,366241.28,527.46,-2.12,73287.91,305.99,-0.09,5166.98,2213.72,0.05,18651.52,3627.88,-0.01,2427.93
640200,-326.84,944.24,1.00,2,2,2,3499.65,0.17,480597.10,2055.14,0.21,149279.63,3124.19,-0.00,171914.71,4426.42,-0.01,135331.21,3204.29,-0.01,25840.98
656100,-318.48,948.35,1.00,2,2,2,586.02,0.46,185060.56,6592.73,0.07,287249.08,4117.48,0.11,67382.41,7345.25,-0.02,183640.69,3231.08,-0.00,1939.51
671900,-118.32,958.30,1.00,2,2,2,12683.58,0.05,768839.31,6212.62,0.08,24375.11,8495.78,0.00,280137.62,6439.67,-0.03,57406.53,2974.85,-0.02,16580.08
688100,-120.26,963.64,1.00,2,2,2,350.88,1.92,789576.00,10387.19,-0.04,264327.17,14407.25,-0.02,365159.39,7034.57,0.00,39086.61,3031.66,-0.00,4461.01
704200,216.89,944.28,1.00,2,2,2,20975.61,-0.06,1311580.74,22690.76,-0.05,764210.26,9085.71,-0.04,330727.45,5433.79,-0.01,99520.45,2873.31,-0.01,9835.81
719900,600.52,930.10,1.00,2,2,2,24451.99,-0.04,223372.67,8206.48,-0.03,922664.65,9392.62,-0.03,19594.41,5545.50,-0.01,7205.38,2738.42,0.00,8719.10
752000,608.97,932.15,1.00,0,0,0,270.85,0.24,753628.18,718.41,0.24,234135.66,3388.66,-0.02,187053.22,3729.13,-0.03,56630.36,2619.19,-0.01,3850.05
768500,634.48,938.24,1.00,0,0,0,1589.12,0.23,79895.58,1411.18,3.06,127631.82,354.03,2.89,226294.80,3627.70,-0.03,6153.75,2615.02,0.01,3455.08
800000,541.45,937.60,1.00,1,1,1,2953.15,-3.13,143352.81,1410.05,3.13,3297.35,743.11,3.02,12550.21,1742.43,-0.00,59886.96,2097.67,0.01,16426.98
815900,567.64,938.70,1.00,1,1,1,1648.44,0.04,289367.58,93.50,2.40,84402.06,1191.02,3.08,28357.65,618.67,2.94,147898.67,2002.55,0.01,5987.57
848000,538.14,940.62,1.00,1,1,1,921.07,3.08,79941.44,983.64,3.00,28279.00,231.14,2.81,30227.44,825.79,3.00,6592.20,1492.85,-0.01,15907.62
864700,520.14,945.57,1.00,1,1,1,1118.04,2.87,17056.71,449.53,2.93,32103.76,936.99,2.96,42476.42,1395.33,3.11,34928.29,1670.01,0.01,10698.68
880400,523.90,943.71,1.00,1,1,1,267.77,-0.46,88019.59,867.39,2.89,26663.75,950.65,2.97,972.39,1232.36,3.08,10734.02,1383.84,0.03,18383.17
895900,493.94,952.38,1.00,1,1,1,2012.31,2.86,146863.10,1464.89,2.98,39094.05,1708.25,-3.13,51221.07,1536.86,3.08,19648.92,594.33,0.16,51518.55
912000,478.24,951.30,1.00,1,1,1,977.58,-3.07,71077.24,2564.30,-3.05,75122.78,2250.70,3.11,34095.24,1246.00,3.06,18097.19,513.47,0.14,5065.09
928000,412.01,944.47,1.00,1,1,1,4161.40,-3.04,199034.76,2777.11,-3.13,19242.41,2145.44,3.13,7102.63,754.44,2.94,31625.28,475.08,0.13,2434.71
960200,344.39,949.58,1.00,2,2,2,2105.81,3.07,65900.95,1884.90,3.03,29106.62,1488.22,3.12,20423.93,947.37,0.11,52236.64,668.78,0.11,6028.89
976000,322.11,954.65,1.00,2,2,2,1446.54,2.92,44808.42,496.89,0.31,148492.23,284.84,1.48,97070.55,2043.16,0.03,69682.22,506.15,0.13,10338.79
991900,359.37,954.45,1.00,2,2,2,2343.79,-0.01,237046.34,2893.21,0.14,151314.43,4942.04,0.03,309183.77,1833.56,0.02,13295.12,620.40,0.09,7333.70
1008100,414.13,967.19,1.00,3,3,3,3470.16,0.23,80732.52,9366.75,0.01,401554.64,7283.91,0.01,144645.33,2334.87,0.04,31062.20,905.25,0.09,17583.14
1023900,659.09,958.13,1.00,1,1,1,15514.25,-0.04,772128.94,11729.01,-0.02,150715.08,5146.13,0.00,135364.31,2778.33,0.02,28128.68,897.55,0.07,1211.40
1040000,788.23,961.05,1.00,1,1,1,8023.61,0.02,467083.08,2339.17,-0.02,583221.46,4653.20,-0.02,31770.06,2758.31,0.01,2567.78,74.26,-0.36,51604.17
1072000,771.58,955.77,1.00,1,1,1,546.05,-2.83,267160.39,94.58,-2.41,75279.70,1055.53,0.02,112462.27,2463.75,0.01,9210.93,671.77,-3.14,23171.52
1087800,784.88,958.02,1.00,1,1,1,853.72,0.17,88389.22,887.11,3.01,52457.96,844.23,-3.12,120236.07,2373.83,0.01,5697.33,834.04,3.11,10424.74
1103900,743.52,959.46,1.00,1,1,1,2570.34,3.11,211861.40,1978.77,3.12,68415.47,847.26,3.12,2708.22,853.83,0.04,94445.61,858.37,3.06,2825.97
1120400,720.38,959.29,1.00,1,1,1,1402.32,-3.13,70951.91,818.42,-3.06,70781.56,191.55,0.98,58414.87,1548.94,-3.08,145612.74,914.61,-3.13,5625.11
1136900,716.61,957.18,1.00,1,1,1,262.22,-2.63,71486.21,1557.09,0.16,143888.50,652.87,0.08,33625.51,3177.08,-3.13,98915.40,963.29,3.09,4300.65
1167900,793.45,970.74,1.00,2,2,2,2517.17,0.17,89227.55,1685.88,0.08,5770.07,2142.25,-3.07,90165.11,3988.89,-3.13,26190.35,1189.34,-3.10,7919.24
1183900,795.60,963.42,1.00,2,2,2,477.26,-1.29,156869.09,5791.80,-3.05,467342.92,4767.48,-3.13,164499.77,4119.51,3.13,10098.24,2158.44,3.13,60767.08
1216000,516.16,943.92,1.00,1,1,1,8726.40,-3.07,275410.53,11070.51,-3.12,165396.29,8077.45,-3.11,103138.53,4235.63,-3.13,4859.22,2486.24,-3.13,10265.79
1232000,263.28,949.89,1.00,1,1,1,15809.44,3.12,447942.76,11527.49,3.12,45038.51,8889.38,3.13,54261.24,4085.02,3.12,11773.63,2483.58,3.12,4229.87
1248200,145.08,952.80,1.00,1,1,1,7298.40,3.12,525373.73,5638.93,3.03,365976.00,7367.54,3.12,94076.91,5134.60,-3.12,65891.83,2510.41,3.14,3205.37
1263900,84.47,969.54,1.00,1,1,1,4004.84,2.87,226009.02,3169.20,-3.14,160054.89,3084.17,3.05,273804.80,5502.23,-3.14,24864.87,2477.45,-3.14,2162.73
1280100,43.98,952.78,1.00,1,1,1,2705.18,-2.75,154521.71,551.98,-3.09,161615.30,1442.55,-3.14,102173.85,3781.28,3.12,106465.77,2195.82,3.14,17391.93
1296000,66.78,968.60,1.00,1,1,1,1745.20,0.61,278371.06,273.80,-0.06,51867.95,1279.07,-3.06,11946.46,1622.41,3.04,136270.03,2413.59,3.13,13768.44
1312200,52.76,952.29,1.00,1,1,1,1327.38,-2.28,188168.10,2008.63,-3.06,140748.47,184.01,2.87,68401.66,658.78,3.06,59490.33,2891.56,-3.13,29697.98
1328000,2.73,963.26,1.00,1,1,1,3241.72,2.93,181079.00,643.77,2.96,88432.83,156.63,2.96,1995.26,436.46,-2.95,16850.95,2754.17,-3.14,8714.78
1343900,32.68,955.96,1.00,1,1,1,1939.15,-0.24,325820.18,1720.00,0.13,147237.94,177.60,0.74,18826.90,352.96,0.18,49648.72,1608.46,3.08,72639.50
1359800,56.95,970.41,1.00,1,1,1,1776.47,0.54,88915.90,892.06,0.14,52075.60,423.12,-0.16,21505.63,337.09,-3.08,43319.31,366.80,0.17,123722.23
1376100,61.13,959.96,1.00,1,1,1,690.42,-1.19,122944.51,919.61,-2.75,110253.77,870.60,0.09,28960.24,370.60,2.89,7190.22,2175.72,0.04,111215.78
1392100,29.52,959.03,1.00,1,1,1,1976.55,-3.11,144168.53,851.17,0.04,108967.42,522.47,-3.01,87046.79,343.16,-0.08,44440.90,2416.63,0.00,15700.71
1408200,88.43,961.09,1.00,1,1,1,3661.26,0.03,350172.93,281.13,2.27,65071.48,851.50,3.06,22290.15,325.24,0.35,8965.42,2409.14,0.01,885.56
1424000,23.72,965.87,1.00,1,1,1,4106.61,3.07,490913.38,2571.48,3.10,151296.93,265.96,0.04,70635.30,2113.07,-0.01,114729.50,2217.88,-0.01,12588.78
1439900,6.97,964.27,1.00,1,1,1,1057.98,-3.05,193010.38,739.10,-0.27,207290.86,194.93,2.36,26651.96,4441.01,0.02,146554.67,2167.41,0.00,3782.24
1455900,46.47,959.69,1.00,2,2,2,2485.21,-0.12,220421.28,1424.03,0.11,49126.38,4223.96,0.00,272778.16,4700.02,0.02,16212.30,2452.62,0.00,17832.48
1489500,77.15,972.23,1.00,2,2,2,986.51,0.39,50282.38,6553.83,0.02,152895.89,7955.67,0.01,111081.59,4063.11,-0.00,19147.75,2509.60,0.02,2034.35
1504000,361.63,966.62,1.00,3,3,3,19623.05,-0.02,1291135.05,14945.94,0.00,578896.54,7646.87,0.02,21382.67,4074.29,-0.01,2059.20,2303.70,-0.00,14718.48
1535900,770.64,975.01,1.00,1,1,1,12824.24,0.02,214065.27,8744.58,0.01,194435.35,8421.86,-0.02,26029.58,3999.65,-0.02,2492.28,2383.27,0.01,2687.20
1551900,780.46,972.63,1.00,1,1,1,631.27,-0.24,763440.25,1151.20,-2.70,612801.16,3950.15,-0.02,279481.59,3985.67,0.01,6527.99,3181.99,0.02,49949.77
1567900,737.30,959.34,1.00,1,1,1,2822.08,-2.84,211248.47,862.37,-2.81,19236.96,791.98,-2.78,293464.37,4534.74,-0.00,34454.52,3536.24,0.02,22159.19
1600100,741.17,959.05,1.00,1,1,1,120.37,-0.07,91134.84,559.07,-2.90,9604.78,408.59,-2.95,12269.81,2474.77,0.00,63976.17,3894.61,0.01,11133.64
1616000,711.22,952.80,1.00,1,1,1,1924.28,-2.94,128318.12,322.54,0.80,53464.32,741.01,0.20,72301.48,116.22,-0.50,149268.82,3640.56,0.02,15988.15
1632000,748.31,966.46,1.00,2,2,2,2470.63,0.35,273952.80,2700.57,0.21,152473.21,314.40,0.44,27658.63,1498.60,0.03,87440.47,3680.23,0.01,2480.23
1647900,795.46,970.84,1.00,2,2,2,2977.68,0.09,54521.26,345.43,0.11,148246.21,1179.74,0.19,55256.07,2954.20,0.04,91576.06,3750.56,-0.01,6957.69
1664800,759.58,967.71,1.00,2,2,2,2131.21,-3.05,302300.13,335.90,-2.78,40002.28,3879.60,0.05,160769.90,3650.53,0.05,41210.32,2611.24,0.01,67472.74
1680000,785.37,967.03,1.00,3,3,3,1697.47,-0.03,251488.70,7595.79,0.04,520768.25,5728.78,0.02,121977.18,3159.20,0.07,32711.08,1315.57,-0.01,85257.67
1696000,996.33,978.13,1.00,1,1,1,13203.65,0.05,719513.94,11793.43,0.03,262520.11,7096.88,0.03,85618.14,3261.18,0.02,11182.60,1366.77,-0.01,3203.95
1712000,1162.61,977.64,1.00,1,1,1,10392.15,-0.00,180345.52,6610.56,0.01,324032.69,5106.50,0.04,124490.05,2780.47,-0.02,31176.41,1532.21,0.02,10747.06
1727900,1207.19,980.93,1.00,1,1,1,2811.67,0.07,477468.46,1308.75,3.06,497771.73,2648.26,-0.01,155089.85,2783.96,0.01,5631.68,1599.59,0.05,4854.51
1745400,1119.04,981.13,1.00,1,1,1,5037.58,3.14,448231.95,1260.72,-3.03,14429.24,283.89,-2.25,161828.08,2682.92,0.02,5820.31,2086.72,0.05,27837.21
1760300,1166.61,976.31,1.00,1,1,1,3209.17,-0.10,552831.25,1205.33,-0.50,157762.60,1472.60,-3.04,86627.77,1221.26,-0.06,98484.44,2253.03,0.01,12417.90
1775900,1151.28,963.47,1.00,1,1,1,1281.41,-2.44,269552.35,1690.15,-3.06,177923.35,203.64,-0.74,103625.86,92.49,-2.35,82346.47,2069.54,-0.01,11981.96
1791900,1113.39,971.77,1.00,1,1,1,2424.10,2.93,120512.53,767.66,2.76,66337.48,237.33,-2.67,22730.09,446.56,-3.10,23994.97,2182.24,0.01,7328.19
1807900,1128.47,972.58,1.00,1,1,1,943.59,0.05,208941.27,1217.86,-0.06,122587.99,101.07,1.10,20295.94,994.47,-0.03,90013.10,1854.58,-0.01,20547.88
1824500,1153.02,969.40,1.00,2,2,2,1491.66,-0.13,35503.62,807.46,-0.13,25066.89,581.53,0.18,31664.26,1243.95,-0.03,15029.20,1327.08,-0.01,31779.81
1840100,1154.25,969.24,1.00,2,2,2,79.42,-0.13,90528.17,307.42,1.88,62781.51,1817.23,0.04,79797.46,1438.54,0.01,13063.95,789.22,-0.02,34483.68
1856000,1150.04,978.61,1.00,2,2,2,646.40,1.99,43488.82,2851.06,0.09,184648.89,2707.38,0.01,56125.81,1651.58,-0.00,13455.53,580.64,-0.06,13236.88
1872000,1244.87,977.02,1.00,1,1,1,5927.92,-0.02,389410.01,5445.06,-0.04,165188.04,2557.34,-0.02,10259.69,1194.41,-0.05,28873.91,673.42,-0.09,5871.88
1888300,1325.75,971.05,1.00,1,1,1,4975.43,-0.07,61436.07,2379.62,-0.10,188433.68,2518.38,-0.03,3773.47,1413.86,0.02,14493.79,482.52,-0.07,11720.90
1920000,1358.56,966.01,1.00,1,1,1,1047.16,-0.15,124048.85,537.63,0.02,58264.97,789.91,-0.18,54908.06,1473.19,0.02,1879.53,671.53,-3.04,36265.97
1936000,1351.39,971.65,1.00,1,1,1,570.34,2.48,98064.58,816.02,-3.08,84585.44,553.70,0.05,17593.53,1402.16,-0.04,6427.97,1134.52,-3.07,28996.24
1968000,1319.47,963.44,1.00,1,1,1,1029.72,-2.89,25624.10,570.01,0.08,43312.72,401.17,0.22,5352.72,422.58,-0.18,30820.39,1701.48,-3.10,17756.87
1984200,1378.78,973.81,1.00,1,1,1,3716.06,0.17,292794.30,2214.93,0.13,101611.48,284.56,-0.05,9085.08,133.01,-2.91,33763.44,2151.47,-3.12,27907.96
2000100,1389.93,972.95,1.00,2,2,2,703.91,-0.08,191129.03,180.06,-2.53,149463.47,128.54,3.00,25958.54,2780.10,-3.08,166613.52,1473.19,0.02,227965.83
2015900,1374.09,970.54,1.00,2,2,2,1014.08,-2.99,108053.38,2478.08,-3.04,146960.06,1161.49,-3.04,65642.78,3638.39,-3.10,54408.68,1402.16,-0.04,6509.34
2032000,1311.33,964.59,1.00,2,2,2,3916.06,-3.05,180382.27,2154.76,-3.08,21031.09,6761.88,-3.07,347899.77,4917.10,-3.12,79648.79,422.58,-0.18,61257.93
2048000,1305.06,966.22,1.00,2,2,2,404.76,2.89,221159.32,11034.38,-3.08,554976.44,7540.68,-3.10,50542.91,6113.78,-3.12,74794.39,133.01,-2.91,34185.49
2064000,958.87,943.25,1.00,2,2,2,21684.39,-3.08,1331297.85,11128.05,-3.11,18468.35,8749.25,-3.12,76059.70,6761.88,-3.07,44935.86,2780.10,-3.08,165572.18
2096200,769.02,947.36,1.00,2,2,2,5897.39,3.12,491250.03,7237.54,3.12,121785.51,10071.60,-3.13,41131.29,7540.68,-3.10,25114.49,3638.39,-3.10,26697.43
2112000,611.54,950.08,1.00,1,1,1,9968.80,3.12,257693.20,8477.93,3.11,78736.30,7237.54,3.12,180226.69,8749.25,-3.12,77022.48,4917.10,-3.12,81161.11
2127900,500.41,955.91,1.00,1,1,1,6998.97,3.09,187693.20,6998.97,3.09,93550.55,8477.93,3.11,78241.11,10071.60,-3.13,83297.32,6113.78,-3.12,75264.80
