@RELATION gaze_labels

%@METADATA width_px 1920
%@METADATA height_px 1080
%@METADATA width_mm 540.00
%@METADATA height_mm 254.00
%@METADATA distance_mm 620.00


@ATTRIBUTE time INTEGER
@ATTRIBUTE x NUMERIC
@ATTRIBUTE y NUMERIC
@ATTRIBUTE confidence NUMERIC
@ATTRIBUTE handlabeller1 INTEGER
@ATTRIBUTE handlabeller2 INTEGER
@ATTRIBUTE handlabeller_final INTEGER
@ATTRIBUTE speed_1 numeric
@ATTRIBUTE direction_1 numeric
@ATTRIBUTE acceleration_1 numeric
@ATTRIBUTE speed_2 numeric
@ATTRIBUTE direction_2 numeric
@ATTRIBUTE acceleration_2 numeric
@ATTRIBUTE speed_4 numeric
@ATTRIBUTE direction_4 numeric
@ATTRIBUTE acceleration_4 numeric
@ATTRIBUTE speed_8 numeric
@ATTRIBUTE direction_8 numeric
@ATTRIBUTE acceleration_8 numeric
@ATTRIBUTE speed_16 numeric
@ATTRIBUTE direction_16 numeric
@ATTRIBUTE acceleration_16 numeric

%The number after speed, direction denotes the step size that was used for the calculation.
%Acceleration was calculated between two adjacent samples of the already low pass filtered velocity

@DATA
0,669.52,946.56,1.00,1,1,1,0.00,0.00,0.00,3700.71,0.10,0.00,914.26,0.19,0.00,1128.91,-0.01,0.00,555.38,3.06,0.00
15900,728.03,952.71,1.00,1,1,1,3700.71,0.10,232748.94,914.26,0.19,175545.71,672.34,-3.08,99584.90,234.79,0.15,56456.62,3081.88,-3.09,159243.37
31900,698.14,952.15,1.00,1,1,1,1868.80,-3.12,347806.79,672.34,-3.08,98962.50,1128.91,-0.01,112508.58,407.12,-0.12,11942.33,3772.05,-3.12,43501.19
48100,706.43,951.32,1.00,1,1,1,514.40,-0.10,146934.38,1371.05,-0.14,125552.81,234.79,0.15,55411.12,110.65,0.46,19791.79,4234.36,3.14,29440.90
64200,741.99,945.97,1.00,1,1,1,2233.52,-0.15,106826.91,845.17,0.10,36462.72,407.12,-0.12,11868.16,555.38,3.06,40544.02,4392.56,3.13,10022.85
95900,746.61,955.46,1.00,2,2,2,333.21,1.12,68054.75,244.73,2.95,34119.14,110.65,0.46,10114.42,3081.88,-3.09,79872.86,4618.18,-3.13,7765.18
112000,730.51,948.22,1.00,2,2,2,1096.84,-2.72,85063.38,1005.44,-3.14,47648.07,1905.87,3.10,124429.33,3772.05,-3.12,43231.00,4609.85,-3.14,1200.53
128000,714.34,955.26,1.00,2,2,2,1102.26,2.73,55634.31,4376.16,3.11,210730.33,7232.88,-3.09,333715.98,4234.36,3.14,29808.91,4395.17,-3.12,13991.65
144200,589.67,952.76,1.00,3,3,3,7697.25,-3.12,414292.06,13520.28,-3.08,566045.29,8997.55,-3.13,110603.14,4392.56,3.13,9960.98,2374.74,-3.14,124769.59
159800,285.10,930.70,1.00,1,1,1,19575.04,-3.07,762506.65,13683.66,-3.11,25527.20,9652.60,-3.14,42901.99,4618.18,-3.13,15779.23,3166.91,-3.11,51131.25
176000,154.73,939.51,1.00,1,1,1,8065.64,3.07,718670.32,5891.85,3.01,489005.26,7507.31,3.14,132442.08,4609.85,-3.14,1193.12,3523.11,-3.11,21996.06
191900,97.54,955.01,1.00,1,1,1,3726.88,2.88,281202.80,1470.67,2.82,280353.04,2554.11,3.05,312509.87,4395.17,-3.12,14079.64,3651.47,-3.12,8205.36
208100,109.96,954.47,1.00,1,1,1,767.23,-0.04,276458.74,356.96,-2.84,74070.18,1093.91,3.08,90185.02,4017.20,-3.13,23431.17,3990.19,-3.13,21009.33
240000,81.16,949.87,1.00,1,1,1,914.20,-2.98,52442.38,908.77,-2.93,17368.76,904.46,-2.99,8922.95,3243.82,-3.12,24278.74,4108.79,-3.11,4185.57
255800,67.62,945.15,1.00,2,2,2,907.31,-2.81,10195.78,1459.59,-3.03,35694.89,1696.01,-3.09,50679.64,3299.02,-3.10,5196.67,4082.52,-3.13,5608.68
287900,11.68,942.10,1.00,3,3,3,1745.40,-3.09,28319.63,2490.03,3.13,32868.68,3962.50,-3.05,70700.14,3132.07,-3.08,5679.37,4121.84,-3.12,1813.04
304100,-52.64,946.07,1.00,1,1,1,3977.99,3.08,139102.12,7686.07,-3.05,321876.31,5503.09,-3.08,95637.20,3631.58,-3.09,30973.66,3508.13,-3.12,37884.31
320100,-234.76,919.29,1.00,1,1,1,11504.77,-3.00,478522.39,10091.90,-3.05,150390.93,6474.30,-3.10,60992.94,3601.21,-3.08,3386.51,2519.40,-3.13,61813.75
335900,-372.35,918.14,1.00,1,1,1,8708.35,-3.13,197275.31,5272.29,3.12,309306.06,6544.04,-3.09,4577.03,3557.61,-3.12,9978.21,2296.19,-3.13,14129.23
352000,-402.90,923.29,1.00,1,1,1,1924.42,2.97,423712.74,3050.95,3.06,138676.18,3154.72,-3.14,210846.95,3781.78,-3.12,13994.97,2102.26,-3.09,13014.10
367900,-469.67,925.93,1.00,1,1,1,4202.50,3.10,145082.95,1045.26,-2.98,128982.63,1175.98,2.91,127642.99,2942.65,-3.11,52823.51,2146.34,-3.10,2915.55
383800,-435.71,917.99,1.00,1,1,1,2193.13,-0.23,400601.30,787.51,0.38,114616.43,1110.48,3.05,10745.47,1712.35,3.13,77620.66,2154.39,-3.12,2092.66
400200,-446.00,935.25,1.00,1,1,1,1225.54,2.11,193234.45,1232.09,2.84,116602.68,94.88,2.45,63022.79,1189.97,3.06,32481.37,2004.77,-3.12,9123.74
416400,-474.12,929.73,1.00,1,1,1,1769.11,-2.95,109926.54,625.95,-2.99,44488.49,566.60,3.07,30407.05,959.46,3.13,14921.78,1973.39,-3.12,1942.53
447900,-475.52,930.76,1.00,1,1,1,55.08,2.51,54997.49,232.27,-2.24,15310.65,1219.61,-3.11,20906.92,504.16,3.11,14460.19,1757.96,-3.10,6911.48
463900,-480.99,921.09,1.00,1,1,1,694.22,-2.09,43938.31,2110.88,3.12,123627.24,842.90,-3.07,23656.60,724.85,2.99,14576.43,1026.52,3.09,46363.35
480000,-543.27,931.91,1.00,1,1,1,3926.17,2.97,232926.36,1874.98,3.08,15795.99,1039.77,-3.10,12373.45,444.81,-3.07,19083.29,614.17,3.06,25662.60
496000,-541.05,924.99,1.00,1,1,1,454.36,-1.26,259771.29,117.62,-1.35,119475.41,927.72,2.92,17457.93,355.16,-3.11,5683.98,480.53,3.13,8682.38
512300,-542.43,928.21,1.00,1,1,1,214.81,1.98,41012.68,297.52,1.34,24944.80,524.32,-0.03,88690.53,428.68,-3.05,4762.49,56.16,2.31,27253.33
527900,-538.89,934.23,1.00,1,1,1,447.90,1.04,23352.78,1037.07,0.08,63241.84,254.42,0.20,18124.65,350.62,2.89,9962.06,246.77,2.96,13144.43
543900,-509.78,930.98,1.00,1,1,1,1830.98,-0.11,106146.12,467.88,-0.41,41421.51,196.03,-0.20,6704.32,38.02,3.01,19556.87,283.39,-3.08,4606.53
560000,-525.10,928.28,1.00,1,1,1,966.61,-2.97,172162.82,657.12,-2.89,66207.59,113.33,-0.04,5355.19,1.27,3.14,2283.52,224.75,3.03,4535.88
576000,-530.20,925.70,1.00,1,1,1,356.97,-2.67,39593.40,153.07,2.27,37920.46,486.29,3.10,37476.21,389.56,0.17,24425.60,233.76,-2.98,3953.45
607900,-529.83,933.88,1.00,1,1,1,256.79,1.53,16688.94,411.63,2.78,9025.91,206.03,-2.94,9111.57,181.64,-0.09,6866.44,205.64,3.09,1690.39
624000,-548.69,932.65,1.00,1,1,1,1173.99,-3.08,76332.58,451.81,-2.48,26315.30,529.02,0.26,45640.72,138.54,-3.10,19840.48,210.99,-0.16,25838.32
639900,-541.23,924.99,1.00,1,1,1,672.48,-0.80,106289.55,1415.96,0.09,113955.17,249.35,-0.12,19521.83,119.30,2.65,4466.84,72.27,-0.31,8800.87
671900,-481.13,938.58,1.00,1,1,1,1925.67,0.22,52356.92,655.84,0.21,24016.33,212.17,-0.16,1201.65,82.20,-2.68,3068.68,168.48,0.08,3282.52
688900,-509.77,931.54,1.00,1,1,1,1735.00,-2.90,215324.60,1605.30,-2.97,132989.46,154.07,1.63,16910.67,99.68,-2.37,1927.69,128.10,-0.01,2492.36
704000,-531.93,929.96,1.00,1,1,1,1471.40,-3.07,25053.15,1053.33,2.96,47025.03,993.22,-2.84,68951.73,434.81,-0.16,33189.64,65.07,-3.11,12789.94
719900,-541.91,937.30,1.00,1,1,1,778.87,2.51,63691.53,445.54,-2.35,55360.39,497.19,-2.90,31282.59,138.31,-0.30,18787.33,29.39,0.39,5862.01
736000,-541.98,919.84,1.00,1,1,1,1084.14,-1.57,103508.90,422.25,-1.44,23779.42,656.89,-0.16,70269.80,84.13,-2.58,12631.99,9.54,2.66,2253.45
751900,-540.15,923.90,1.00,1,1,1,279.88,1.15,84567.63,1288.83,0.03,82762.23,360.62,-0.72,25170.11,70.58,0.23,9601.19,57.96,0.39,4056.01
784200,-479.89,921.82,1.00,1,1,1,1866.88,-0.03,55104.91,432.32,-0.27,27413.11,650.47,0.24,16439.78,16.79,0.15,1667.31,91.98,-0.05,1446.84
800000,-520.11,918.35,1.00,1,1,1,2555.23,-3.06,279385.35,487.33,2.41,56669.78,517.12,0.24,8440.40,177.11,-0.22,10228.36,100.58,0.02,698.35
816000,-491.42,932.17,1.00,1,1,1,1990.21,0.45,279500.15,794.75,0.65,62849.35,791.01,2.97,80104.24,81.18,0.66,8784.66,182.53,-2.80,17478.52
832000,-499.94,933.84,1.00,1,1,1,542.70,2.95,152893.30,1196.64,-3.09,119012.85,209.93,1.33,52089.05,211.75,0.56,8201.75,39.53,-0.85,12517.46
847900,-529.55,930.33,1.00,1,1,1,1875.20,-3.02,86094.20,510.24,-3.01,43353.75,649.95,-3.02,47258.06,339.88,2.92,32211.65,135.52,-0.31,6516.46
865300,-516.79,931.65,1.00,1,1,1,737.20,0.10,150134.62,142.69,-2.35,23427.23,247.20,2.73,26191.53,82.60,0.65,22881.36,68.37,-1.14,5876.85
880100,-532.77,927.05,1.00,1,1,1,1123.37,-2.86,125242.33,290.72,1.30,28471.66,114.89,0.12,23699.68,283.57,-2.86,24448.94,166.98,0.17,11006.83
895900,-514.39,940.22,1.00,1,1,1,1430.63,0.62,159329.14,355.96,0.38,18517.62,109.80,-0.78,6229.66,71.71,-1.74,16475.28,53.39,0.65,7749.59
911900,-522.25,931.25,1.00,1,1,1,745.53,-2.29,135202.83,314.38,-1.32,31528.02,83.52,-1.23,3152.34,244.02,-0.34,15138.23,163.76,0.30,7191.30
944000,-510.65,925.57,1.00,1,1,1,402.32,-0.46,29127.52,279.28,-2.24,8276.41,224.19,-0.96,4538.98,122.42,-2.41,10007.35,1148.62,0.06,30863.54
959800,-530.57,920.77,1.00,1,1,1,1296.64,-2.91,102965.51,190.88,-0.34,24455.85,340.06,-0.44,11500.20,247.45,0.04,22184.86,1756.84,0.03,38547.65
992700,-501.88,922.48,1.00,1,1,1,873.52,0.06,65715.01,789.31,-0.09,18415.25,245.34,-2.79,16436.74,76.99,-2.69,9707.83,1500.33,0.02,7819.72
1007900,-492.77,917.22,1.00,1,1,1,692.24,-0.52,31748.06,661.36,-2.98,94662.79,437.03,0.19,44752.10,511.24,0.06,38365.38,1859.69,0.04,23766.17
1040000,-532.75,917.42,1.00,1,1,1,1245.55,3.14,58515.62,247.96,1.27,25013.02,345.30,2.70,23174.92,2119.45,0.04,50106.37,1503.21,0.02,11161.95
1056000,-489.27,928.62,1.00,2,2,2,2806.52,0.25,251476.12,561.45,1.22,19630.88,792.60,0.31,66866.90,3579.87,0.05,91311.65,1628.28,0.03,7847.74
1072000,-526.59,934.30,1.00,2,2,2,2359.21,2.99,316376.11,1799.48,0.14,100749.03,5633.01,0.06,304402.29,3029.36,0.04,34431.58,1622.49,0.03,509.95
1087900,-432.44,936.74,1.00,3,3,3,5923.09,0.03,519242.41,11005.40,0.01,580158.93,8303.20,0.04,168083.51,3484.35,0.07,29060.48,1746.54,0.03,7812.92
1104300,-171.13,937.92,1.00,1,1,1,15933.74,0.00,610537.82,14756.62,0.03,229151.70,6340.29,0.02,120050.12,3248.47,0.05,15015.40,1767.84,0.04,1525.61
1120100,42.54,950.05,1.00,1,1,1,13544.94,0.06,158784.00,3175.71,0.04,732989.42,6168.82,0.04,13360.36,3146.33,0.03,7647.09,1676.94,0.04,5784.48
1151900,-20.09,944.04,1.00,1,1,1,1978.42,-3.05,488115.00,513.96,0.25,84112.24,1645.06,0.03,142259.38,3486.95,0.04,10810.95,1572.49,0.05,3332.92
1168900,66.85,956.18,1.00,1,1,1,5164.05,0.14,420066.62,131.80,-0.23,23619.90,307.40,-2.90,114495.05,3105.72,0.02,22748.38,1510.68,0.06,3678.94
1199900,-13.93,942.60,1.00,1,1,1,2642.62,-2.97,251806.18,1158.41,-2.89,41190.57,655.42,0.27,31057.22,1414.69,0.04,54555.94,1859.01,0.05,11238.85
1216000,13.94,942.87,1.00,1,1,1,1731.52,0.01,270885.94,1467.94,0.33,162980.82,108.54,-1.87,44680.11,188.16,-2.92,99380.87,1795.19,0.05,4081.96
1231900,30.48,957.91,1.00,1,1,1,1405.69,0.74,72849.74,1588.13,0.10,23365.03,1070.71,0.05,69946.99,39.16,2.46,10477.10,1679.14,0.02,7976.88
1247900,64.35,947.98,1.00,1,1,1,2205.73,-0.28,118781.64,839.36,-0.46,61663.24,22.90,2.84,68267.49,712.45,-3.02,42851.14,1279.11,0.03,25034.72
1263900,54.51,945.92,1.00,1,1,1,628.01,-2.93,173443.49,1447.15,-3.05,137882.44,863.31,-2.96,52694.04,128.48,0.25,52499.50,541.23,0.09,46208.10
1283900,12.46,943.32,1.00,1,1,1,2106.76,-3.08,74410.20,2409.72,3.12,49228.58,1542.76,-3.10,35011.83,299.92,0.25,8571.95,128.15,-2.98,33452.58
1296700,-24.51,947.60,1.00,1,1,1,2907.19,3.03,71244.03,1670.84,3.12,57726.05,817.57,3.13,56842.43,340.56,-2.83,50014.70,156.67,0.20,22247.94
1311900,-34.32,944.19,1.00,1,1,1,683.17,-2.81,152035.82,845.69,-0.04,165556.33,585.38,0.24,91597.75,546.80,3.13,16440.17,328.43,3.12,31743.96
1328100,2.03,946.66,1.00,2,2,2,2248.85,0.07,179844.17,1886.12,0.11,65155.72,121.37,-0.53,31162.67,335.92,3.01,13359.60,114.02,2.82,13698.41
1359900,55.71,953.73,1.00,1,1,1,1702.70,0.13,17610.59,389.19,-2.93,71493.45,127.19,0.43,3594.30,66.29,-3.14,8500.26,60.87,2.39,2011.85
1376000,-16.20,942.75,1.00,1,1,1,4518.19,-2.99,386374.05,1642.98,-3.08,78252.65,64.46,1.70,7760.04,323.09,0.11,24163.17,205.48,-2.93,11028.39
1408000,-23.19,949.24,1.00,1,1,1,298.30,2.39,135599.68,419.36,0.52,63324.15,683.25,-2.95,21562.23,88.10,1.48,9908.87,30.20,0.90,7174.30
1423900,1.21,952.78,1.00,1,1,1,1550.20,0.14,110236.93,817.48,-0.23,36881.40,552.12,0.25,77667.84,297.50,3.01,19297.88,1248.38,0.02,77308.85
1439800,2.12,943.32,1.00,1,1,1,597.84,-1.47,106138.02,793.60,0.03,13106.58,205.83,2.40,43190.87,379.25,3.12,5655.40,1402.48,0.02,9697.28
1455900,26.59,953.48,1.00,1,1,1,1645.67,0.39,118528.16,1147.99,2.74,117894.35,722.89,3.14,36529.54,80.62,2.89,18722.75,1581.36,0.02,11110.58
1473100,-33.03,958.34,1.00,1,1,1,3477.87,3.06,290602.22,2234.42,-3.13,73769.85,179.85,1.66,42386.55,727.50,0.06,46776.00,1437.75,0.02,8352.30
1488000,-45.13,952.88,1.00,2,2,2,890.87,-2.72,183380.10,1114.42,-0.10,224443.98,852.75,-3.00,59143.71,2996.41,0.01,152370.35,1345.86,0.01,6277.32
1503900,1.11,954.80,1.00,2,2,2,2910.81,0.04,235984.54,599.33,-0.39,35498.63,1635.26,-0.03,155920.35,2991.52,0.02,2755.53,1214.34,-0.01,8366.52
1519900,-27.42,945.67,1.00,2,2,2,1872.40,-2.83,296395.56,2138.80,-0.00,99980.03,5954.30,0.00,270049.19,2974.18,0.01,2136.50,1650.03,0.02,27350.25
1536000,69.77,954.79,1.00,1,1,1,6063.11,0.09,490818.93,9492.85,0.02,456810.52,5400.14,-0.01,34650.82,3051.45,-0.01,6526.29,1700.10,0.00,3644.08
1568600,434.78,955.21,1.00,1,1,1,11196.75,0.00,159194.19,7585.75,-0.01,58962.09,6030.35,0.03,20116.15,3169.15,-0.01,3648.40,1661.07,-0.01,1372.89
1583900,433.11,952.01,1.00,1,1,1,236.25,-2.05,739079.12,646.86,0.13,453973.96,4166.70,-0.01,122261.40,2809.01,-0.01,23544.11,4031.07,0.03,155048.01
1599900,454.85,957.88,1.00,1,1,1,1407.36,0.26,98555.80,951.24,3.12,99613.79,388.71,-2.90,284024.81,3376.52,0.01,35764.70,4259.30,0.02,14409.79
1615900,402.68,952.52,1.00,1,1,1,3277.97,-3.04,292030.30,1399.52,-2.95,31821.59,435.78,-3.09,5697.54,2566.60,-0.01,50852.72,4349.99,0.01,6067.96
1631900,410.89,949.30,1.00,1,1,1,551.48,-0.37,236047.61,103.04,-0.64,91905.70,108.60,-0.97,31291.81,155.10,-0.40,151469.53,4105.39,0.02,15340.60
1647800,405.30,950.54,1.00,1,1,1,360.10,2.92,57168.23,1498.19,0.06,89382.49,570.04,-0.07,32078.03,5066.47,0.03,309807.34,3977.67,0.02,8046.87
1663900,458.75,952.13,1.00,2,2,2,3321.24,0.03,228037.11,1052.00,-0.02,28353.83,658.23,-0.04,5591.80,5544.65,0.03,29796.13,4049.37,0.02,4584.56
1679900,439.07,949.94,1.00,2,2,2,1237.88,-3.03,284759.87,229.79,-2.47,77391.97,9417.82,0.03,547597.90,5639.24,0.03,5912.63,3632.06,0.01,26236.18
1695900,452.99,947.57,1.00,2,2,2,882.34,-0.17,131257.99,14933.00,0.04,944929.18,9933.71,0.03,32245.28,4949.34,0.03,43155.68,2845.38,0.03,49273.83
1728600,1165.83,976.15,1.00,3,3,3,21817.14,0.04,640818.07,16679.66,0.04,53427.86,9696.82,0.03,7283.16,5022.54,0.03,2263.95,2754.39,0.03,2792.31
1743900,1253.02,978.39,1.00,1,1,1,5700.08,0.03,1053453.95,1555.40,-0.05,988968.99,7814.29,0.04,123073.93,4654.05,0.03,24114.53,2401.20,0.02,23202.37
1759900,1214.45,973.63,1.00,1,1,1,2428.50,-3.02,507534.79,1070.68,-3.06,163775.10,605.39,0.03,450556.51,4590.76,0.02,4324.69,2673.99,0.02,17087.88
1791800,1201.90,974.18,1.00,1,1,1,393.77,3.10,63988.47,84.86,1.56,33902.21,606.67,-3.06,37984.52,4995.73,0.04,12866.26,2640.57,0.02,1053.91
1809000,1214.48,977.80,1.00,1,1,1,760.74,0.28,66333.78,79.32,0.09,6436.15,512.89,-2.99,5898.71,419.96,-0.00,266054.00,2534.75,0.02,6162.43
1824200,1204.46,974.40,1.00,1,1,1,695.69,-2.81,95791.56,1352.86,-2.89,94156.68,785.90,0.07,85380.35,743.80,-3.06,76495.15,2431.25,0.02,6874.84
1840000,1173.84,967.43,1.00,1,1,1,1987.74,-2.92,82134.36,1505.83,0.07,180201.42,185.55,-0.15,38377.01,16.88,-0.76,47789.45,2486.28,0.03,3692.92
1856000,1252.23,977.75,1.00,1,1,1,4941.71,0.13,432708.28,1657.55,0.16,13215.05,916.68,-3.05,68608.33,95.05,-0.54,4918.12,2324.77,0.02,10108.22
1871900,1226.01,976.02,1.00,1,1,1,1652.51,-3.08,414565.72,3331.44,-3.06,313534.70,532.88,0.10,91165.63,276.13,-2.93,22133.03,47.41,-0.38,143469.05
1887900,1146.30,969.21,1.00,1,1,1,5000.11,-3.06,209254.57,217.05,-2.72,195464.17,499.51,-2.87,64302.56,74.54,-2.25,13946.04,157.93,-2.99,12525.91
1920300,1216.41,971.76,1.00,1,1,1,2165.27,0.04,221097.97,1401.63,-0.03,49384.76,631.76,-3.01,4740.18,144.07,0.13,6318.60,71.93,-2.84,2699.68
1936000,1213.69,967.19,1.00,1,1,1,338.89,-2.11,150714.25,1284.26,-3.09,170924.41,643.93,-0.06,80891.50,647.21,-2.99,50399.21,29.02,-0.68,5820.71
1951900,1175.89,969.56,1.00,1,1,1,2382.20,3.08,141372.31,501.80,-3.07,49217.72,347.91,-3.07,62254.15,292.62,-3.03,22325.49,204.21,-2.95,14081.23
1967900,1197.72,966.08,1.00,1,1,1,1381.87,-0.16,235004.87,579.88,0.03,67593.63,839.26,-3.08,30712.38,370.03,0.04,41388.35,153.15,-2.96,3196.67
1983800,1194.38,970.16,1.00,1,1,1,332.15,2.26,103458.61,1173.62,-3.09,110276.66,44.52,0.37,55458.32,162.35,-2.95,33393.55,466.89,-3.11,19882.24
2000100,1159.99,963.98,1.00,1,1,1,2143.43,-2.96,122879.64,309.76,3.10,53128.40,117.49,0.60,4590.70,38.68,2.82,7976.66,909.63,-3.06,27218.27
2032700,1179.25,970.85,1.00,1,1,1,627.11,0.34,84783.95,962.65,0.16,38878.43,38.03,-1.85,4560.84,140.20,-2.97,3299.43,718.06,-3.13,6073.09
2048000,1205.51,971.37,1.00,1,1,1,1716.72,0.02,74482.42,472.66,-0.25,36684.71,609.82,0.10,40843.01,243.83,3.14,7082.63,570.76,-3.10,9695.26
2063900,1193.54,967.24,1.00,1,1,1,796.10,-2.81,156368.86,118.84,-0.70,23240.67,326.95,-2.94,58853.92,965.30,-3.10,45397.96,733.59,-3.12,10273.31
2079900,1208.40,968.92,1.00,1,1,1,934.74,0.11,107530.08,823.18,-3.10,57158.23,588.96,-3.03,16544.02,1126.64,-3.10,10083.88,733.82,-3.14,945.34
2112300,1153.73,965.74,1.00,3,3,3,1690.34,-3.08,80992.81,1035.29,-3.08,6568.98,1760.88,-3.11,36263.81,1148.86,3.13,1983.00,602.95,3.13,4059.16
2128000,1158.68,966.10,1.00,1,1,1,316.56,0.07,127826.05,2714.38,-3.11,106996.19,2569.42,-3.09,51631.01,1503.96,-3.10,22995.25,524.55,3.10,5108.04
2159900,1024.57,962.29,1.00,1,1,1,4205.93,-3.11,141761.64,4109.96,-3.09,43859.14,1976.71,3.10,19822.22,1248.03,-3.14,8188.03,788.64,-3.13,8360.02
2175900,962.13,955.01,1.00,1,1,1,3928.91,-3.03,28204.90,936.14,2.80,204069.58,2404.99,-3.12,28254.92,1360.43,-3.13,7050.14,475.21,3.09,19737.59
2192100,996.12,972.26,1.00,1,1,1,2352.92,0.47,382109.26,186.52,1.43,56627.62,486.64,3.01,118893.13,1123.33,3.10,15197.91,726.59,-3.12,15767.38
2209400,962.98,961.20,1.00,1,1,1,2019.53,-2.82,252059.20,197.05,-1.98,21964.80,479.10,0.38,53963.48,837.03,3.08,16583.05,756.81,-3.14,1938.49
2224100,993.61,966.47,1.00,1,1,1,2114.28,0.17,280405.10,919.42,0.19,70974.27,54.35,3.04,35911.40,548.59,3.07,19630.11,710.75,-3.12,3291.49
2240000,990.61,966.49,1.00,1,1,1,188.52,3.13,144659.22,195.20,1.72,58656.45,1220.38,0.16,80063.05,438.72,0.30,61038.86,728.62,-3.11,1222.68
2255800,992.68,972.59,1.00,1,1,1,407.41,1.24,31633.17,1508.71,0.15,96355.12,612.43,3.12,115547.92,207.31,-2.89,40879.03,962.80,-3.12,14845.14
2272000,1038.38,973.50,1.00,1,1,1,2821.78,0.02,167329.58,1196.53,-3.01,166987.13,402.08,0.20,62258.15,206.52,0.35,25516.21,883.23,-3.12,4915.67
2288000,954.49,967.48,1.00,1,1,1,5256.72,-3.07,504752.57,710.15,-3.05,30503.51,362.35,-2.84,47704.81,51.05,-2.37,15876.05,436.40,-3.08,27969.79
2303900,1015.82,971.48,1.00,1,1,1,3865.30,0.07,573708.97,498.26,-0.12,75602.97,795.96,-3.08,28437.32,75.82,-0.57,6335.73,231.15,3.14,12976.44
2320200,970.42,965.58,1.00,1,1,1,2808.53,-3.01,409232.63,881.58,-3.09,84382.97,545.68,-0.16,81805.27,789.61,-3.02,52111.81,189.35,-3.11,2609.80
2336000,987.55,970.14,1.00,2,2,2,1121.96,0.26,248330.99,594.63,-0.19,92776.24,310.93,-2.60,51189.18,934.88,-3.04,9264.16,197.68,-3.12,573.89
2351900,988.91,961.94,1.00,3,3,3,522.66,-1.41,80626.09,449.89,-0.67,17802.45,1228.87,-3.07,60536.60,347.73,-2.88,37359.60,306.61,-3.06,6929.80
2367800,998.77,961.27,1.00,1,1,1,621.46,-0.07,44877.87,3013.56,-3.13,212192.41,1045.24,-3.02,12179.79,817.34,-3.00,29804.46,235.42,-3.12,4609.40
2384000,892.19,960.34,1.00,1,1,1,6579.28,-3.13,444386.06,1936.52,-3.13,66485.23,1038.98,-3.05,2206.48,182.48,2.98,39841.59,534.48,-3.05,18523.76
2417000,903.51,959.91,1.00,1,1,1,343.08,-0.04,209757.55,313.67,-0.39,67538.41,1244.72,-3.08,6297.86,511.57,-3.02,10312.34,1463.78,-3.03,28164.46
2431900,906.11,954.69,1.00,1,1,1,391.53,-1.11,25273.43,206.68,-2.30,28831.60,526.24,0.20,118622.18,520.38,-3.11,3045.35,1579.83,-3.01,8359.55
2447900,899.26,955.14,1.00,1,1,1,429.28,3.08,44509.04,809.01,0.41,62540.21,36.32,0.11,30629.55,452.31,3.09,4941.05,2051.07,-3.07,30391.31
2479900,941.66,970.31,1.00,1,1,1,1407.44,0.34,56543.02,181.86,0.62,19755.78,54.23,1.68,2035.17,349.29,-3.10,3388.86,2210.84,-3.11,5641.92
2495900,906.35,960.22,1.00,1,1,1,2295.20,-2.86,231298.53,1175.78,-2.84,84357.91,228.25,0.47,13444.99,1946.45,-3.03,99890.70,511.57,-3.02,106377.06
2512000,905.65,959.01,1.00,2,2,2,87.10,-2.09,138726.55,277.57,0.37,90241.99,1394.33,-3.03,100009.07,2690.54,-3.02,46253.31,520.38,-3.11,2818.36
2544500,918.94,965.07,1.00,2,2,2,449.44,0.43,16085.53,1562.94,-3.13,56177.68,3901.94,-3.03,77157.33,3163.60,-3.09,15805.12,452.31,3.09,2432.52
2559900,830.79,958.03,1.00,3,3,3,5742.00,-3.06,400410.14,10357.20,-3.02,571739.06,5388.99,-3.01,96802.30,4465.85,-3.10,84636.83,349.29,-3.10,7041.78
2575900,596.07,926.11,1.00,1,1,1,14805.50,-3.01,567367.42,11136.24,-2.98,54756.69,8303.44,-3.07,183979.60,3901.94,-3.03,39745.01,1946.45,-3.03,99890.70
2591900,478.84,902.16,1.00,1,1,1,7477.91,-2.94,460048.72,6320.75,3.13,313364.56,8316.62,-3.12,24121.89,5388.99,-3.01,93172.21,2690.54,-3.02,46542.40
2607900,393.81,927.97,1.00,1,1,1,5553.79,2.85,231504.14,5781.18,2.91,91780.97,6320.75,3.13,125651.94,8303.44,-3.07,183979.60,3163.60,-3.09,32104.14
2623800,299.52,945.21,1.00,1,1,1,6028.78,2.96,51054.77,6028.78,2.96,25607.41,5781.18,2.91,92358.21,8316.62,-3.12,24273.60,4465.85,-3.10,81975.29
