@RELATION gaze_labels

%@METADATA width_px 1920
%@METADATA height_px 1080
%@METADATA width_mm 540.00
%@METADATA height_mm 254.00
%@METADATA distance_mm 620.00


@ATTRIBUTE time INTEGER
@ATTRIBUTE x NUMERIC
@ATTRIBUTE y NUMERIC
@ATTRIBUTE confidence NUMERIC
@ATTRIBUTE handlabeller1 INTEGER
@ATTRIBUTE handlabeller2 INTEGER
@ATTRIBUTE handlabeller_final INTEGER
@ATTRIBUTE speed_1 numeric
@ATTRIBUTE direction_1 numeric
@ATTRIBUTE acceleration_1 numeric
@ATTRIBUTE speed_2 numeric
@ATTRIBUTE direction_2 numeric
@ATTRIBUTE acceleration_2 numeric
@ATTRIBUTE speed_4 numeric
@ATTRIBUTE direction_4 numeric
@ATTRIBUTE acceleration_4 numeric
@ATTRIBUTE speed_8 numeric
@ATTRIBUTE direction_8 numeric
@ATTRIBUTE acceleration_8 numeric
@ATTRIBUTE speed_16 numeric
@ATTRIBUTE direction_16 numeric
@ATTRIBUTE acceleration_16 numeric

%The number after speed, direction denotes the step size that was used for the calculation.
%Acceleration was calculated between two adjacent samples of the already low pass filtered velocity

@DATA
0,1370.62,987.73,1.00,1,1,1,0.00,0.00,0.00,2032.38,0.20,0.00,1209.47,0.21,0.00,361.61,0.16,0.00,4080.08,-3.09,0.00
16000,1402.47,994.25,1.00,1,1,1,2032.38,0.20,127023.54,1209.47,0.21,51437.00,512.54,-2.48,105334.18,96.29,0.28,16643.05,6357.49,-3.11,142486.65
32100,1408.59,995.81,1.00,1,1,1,392.05,0.25,101917.53,512.54,-2.48,104679.93,361.61,0.16,52661.70,536.10,-3.06,39177.59,7299.90,-3.10,58662.47
50600,1388.49,983.35,1.00,1,1,1,1278.43,-2.59,89540.73,210.33,-2.80,17276.81,96.29,0.28,14393.99,3241.13,-3.10,146255.85,8100.76,-3.12,44200.53
79900,1399.13,992.42,1.00,2,2,2,477.11,0.71,59780.82,551.89,0.55,25905.76,536.10,-3.06,21527.62,4080.08,-3.09,28712.38,9169.87,-3.12,36488.98
96000,1409.87,996.42,1.00,2,2,2,711.85,0.36,19267.09,1036.45,-3.14,95387.24,3241.13,-3.10,168057.96,6357.49,-3.11,141601.64,9721.42,-3.12,34313.88
111900,1365.96,992.21,1.00,2,2,2,2774.01,-3.05,218026.90,8530.84,-3.06,471559.92,9605.46,-3.08,400348.48,7299.90,-3.10,59400.36,8628.28,-3.12,68795.10
128000,1137.80,974.01,1.00,2,2,2,14216.45,-3.06,710737.01,18122.79,-3.08,595967.00,14420.99,-3.11,299591.66,8100.76,-3.12,50789.42,7075.45,-3.13,96508.39
144100,783.55,955.77,1.00,2,2,2,22032.56,-3.09,486459.24,20324.02,-3.12,147234.24,15707.81,-3.10,80082.76,9169.87,-3.12,66405.42,5091.08,-3.12,123317.30
160000,487.52,963.18,1.00,3,3,3,18623.66,3.12,235483.51,13287.40,-3.13,442577.13,13817.69,-3.12,120943.50,9721.42,-3.12,34745.50,5445.51,-3.10,22621.53
176100,358.38,950.52,1.00,1,1,1,8059.63,-3.04,662759.27,7657.87,-3.12,349685.40,8830.24,3.13,310347.27,8628.28,-3.12,67940.50,5452.54,-3.11,2502.69
193800,228.73,958.26,1.00,1,1,1,7337.81,3.08,79558.53,5864.36,3.10,104081.03,5963.56,-3.14,162088.00,7075.45,-3.13,87784.46,5557.15,-3.13,7341.36
224100,77.16,962.85,1.00,1,1,1,5004.62,3.11,77227.34,4725.08,3.13,38057.18,3891.71,3.11,68648.22,5921.07,-3.13,38119.09,5576.62,-3.12,1441.78
240000,10.45,960.43,1.00,1,1,1,4198.80,-3.11,54174.19,1912.34,-3.14,176917.29,3057.11,-3.13,53173.04,4699.39,-3.10,77530.41,5640.92,-3.12,4230.51
271900,-14.25,962.64,1.00,2,2,2,777.13,3.05,107495.91,1858.12,-3.10,2664.31,3500.71,-3.09,14526.87,3941.61,-3.13,24121.73,5668.74,-3.12,1187.81
304200,-108.76,956.02,1.00,1,1,1,2933.40,-3.07,67168.87,5078.57,-3.08,99738.78,3652.70,-3.06,6345.69,3466.57,-3.14,14718.88,5041.17,-3.13,19523.25
320100,-258.52,946.85,1.00,1,1,1,9436.52,-3.08,409011.21,7282.55,-3.03,139765.65,4009.83,-3.09,23556.98,2634.29,-3.12,52471.67,3867.18,-3.13,73841.02
336000,-338.92,930.29,1.00,1,1,1,5162.22,-2.94,275946.58,2396.02,-3.11,308051.18,4175.16,3.14,17972.96,2302.33,-3.11,20888.06,2942.18,-3.13,58183.32
352000,-334.92,944.48,1.00,1,1,1,921.24,1.30,352830.11,1390.48,2.52,96267.82,1600.60,3.10,161054.71,2709.19,-3.12,25443.36,2636.03,-3.13,19137.32
368000,-375.14,956.13,1.00,2,2,2,2617.03,2.86,172994.50,1084.75,2.99,40481.84,736.62,2.81,57447.14,2550.66,3.14,10860.39,2077.41,3.13,34999.69
400200,-386.62,952.31,1.00,1,1,1,375.62,-2.82,71972.20,428.49,-2.81,22706.12,1414.84,3.06,22541.90,1355.57,-3.10,37194.68,1655.65,3.14,13101.88
416000,-394.62,949.52,1.00,1,1,1,536.27,-2.81,10175.28,1924.64,3.12,96712.79,1256.91,3.12,11169.24,815.56,2.93,37955.59,1446.58,-3.11,13717.96
431900,-447.62,953.34,1.00,1,1,1,3341.98,3.07,179710.31,2543.03,3.04,40779.33,1066.15,-2.96,19164.50,1044.60,3.14,18849.20,1491.68,-3.13,3349.87
448100,-475.80,958.08,1.00,1,1,1,1764.02,2.97,98435.86,461.80,-1.98,151026.65,927.69,3.05,19074.35,401.35,2.99,40155.47,1304.37,3.11,12088.67
464000,-453.46,939.71,1.00,1,1,1,1818.84,-0.69,217725.02,703.42,-0.14,58974.89,605.26,-2.92,25032.48,325.13,2.83,6056.91,771.83,3.13,33501.11
479900,-453.64,954.99,1.00,1,1,1,961.11,1.58,160157.06,1009.22,2.98,107708.34,689.57,0.16,81392.74,270.50,-3.05,8335.29,126.18,0.95,53446.14
496300,-485.66,944.82,1.00,1,1,1,2048.06,-2.83,152624.85,733.92,0.43,101800.09,582.84,0.75,23604.22,40.76,0.80,18463.30,792.61,0.08,43798.93
512000,-432.27,964.89,1.00,1,1,1,3632.96,0.36,361735.92,1978.02,0.33,79639.31,406.68,-0.34,34130.33,82.55,2.35,5824.57,1224.11,0.03,27615.30
528100,-426.15,965.20,1.00,1,1,1,380.44,0.05,203260.73,591.01,-1.40,133748.41,682.15,0.29,26472.70,203.82,2.77,8236.83,1296.45,0.03,4496.94
544000,-429.09,946.25,1.00,1,1,1,1206.47,-1.72,84078.13,613.97,-2.71,46212.24,648.02,3.11,82607.73,942.63,0.04,71218.01,1174.21,0.09,8927.56
560000,-443.96,957.06,1.00,1,1,1,1149.57,2.51,125708.98,1219.96,2.79,55976.25,707.27,-2.88,12975.45,2451.91,0.05,94334.56,1443.32,0.04,17224.55
592100,-484.15,966.54,1.00,2,2,2,1286.15,2.91,15536.05,777.61,-2.96,21034.83,1399.67,0.12,65490.88,2681.66,0.01,7760.55,1580.91,0.02,4416.42
608100,-480.78,950.49,1.00,2,2,2,1025.29,-1.36,122222.26,5202.32,-0.04,372754.11,3641.99,0.02,140933.37,2579.59,-0.00,6659.51,1668.12,0.06,6953.02
624100,-317.81,959.88,1.00,3,3,3,10203.02,0.06,631371.52,8080.24,0.03,182210.41,6019.20,0.00,148619.66,2330.69,0.09,21114.45,1701.48,0.06,2154.19
655900,-94.74,962.77,1.00,1,1,1,7015.12,0.01,100948.06,6570.08,0.03,47500.75,5848.55,0.03,7060.67,2575.84,0.04,8788.80,1756.69,0.06,1736.28
672000,-3.22,968.47,1.00,1,1,1,5695.92,0.06,84179.90,2525.70,0.01,251228.53,3266.25,0.08,160909.95,3220.22,0.00,40446.57,1526.02,0.01,15205.56
688000,-13.68,963.85,1.00,1,1,1,714.65,-2.73,398194.77,1750.52,2.94,265758.77,984.59,0.14,142779.55,3524.35,0.04,20506.07,2847.95,0.02,82629.96
703900,-57.91,979.71,1.00,1,1,1,2955.75,2.80,156420.94,632.70,2.75,71388.00,274.34,-3.10,79115.52,2462.25,0.07,67001.87,4062.87,0.03,76425.91
719900,-32.34,971.53,1.00,1,1,1,1678.17,-0.31,289579.86,1216.40,-0.31,115490.12,627.80,0.16,56300.82,895.04,0.10,98008.68,4532.71,0.02,29459.14
736000,-20.76,967.71,1.00,1,1,1,757.52,-0.32,57186.03,1817.35,-0.02,45950.50,1461.95,0.04,52289.25,84.88,0.03,50335.57,4708.79,0.00,11535.47
752000,25.98,970.29,1.00,1,1,1,2925.75,0.06,139851.80,1833.94,0.28,33762.79,807.71,0.06,40907.92,3184.74,0.04,193741.61,4706.46,0.01,2383.47
768000,35.71,983.69,1.00,2,2,2,1034.54,0.94,150614.75,234.46,2.53,124399.58,442.42,0.04,22844.63,6233.82,-0.00,190975.62,4353.05,0.02,22343.59
784500,19.74,974.67,1.00,2,2,2,1111.55,-2.63,127097.64,982.85,-2.65,54595.78,5746.73,0.03,321474.95,6974.22,0.01,45161.99,3442.45,0.02,55229.31
800300,7.67,968.81,1.00,2,2,2,849.40,-2.69,17027.14,11870.98,0.02,807217.60,11014.95,-0.01,333976.56,6382.26,0.01,37494.67,3213.90,0.02,14492.27
816000,393.63,980.44,1.00,1,1,1,24594.91,0.03,1616068.05,23123.09,0.01,716714.48,13238.85,0.01,142168.01,6037.76,-0.01,22327.90,3114.41,0.02,6354.43
832000,740.63,976.43,1.00,1,1,1,21688.79,-0.01,191341.13,14582.20,-0.00,534010.70,12378.31,0.00,53797.35,6482.37,0.01,28125.24,4186.20,0.01,67005.79
848100,861.72,979.27,1.00,1,1,1,7523.17,0.02,880290.51,1740.95,-0.08,797967.22,6334.69,-0.04,375993.10,5727.33,0.00,46911.48,4524.33,0.01,21020.83
864000,796.16,971.94,1.00,1,1,1,4148.94,-3.03,733446.76,2014.19,-2.94,233792.64,1959.30,0.10,276723.88,6007.59,0.02,18637.89,4553.81,0.02,1961.78
880000,798.81,966.23,1.00,1,1,1,393.40,-1.14,268112.02,2226.23,0.24,264994.90,245.98,-3.02,137826.64,3059.45,-0.00,184352.37,4368.81,0.02,11569.82
896000,865.44,988.54,1.00,1,1,1,4391.86,0.32,272875.91,928.79,0.24,81091.54,947.91,0.18,74597.79,2547.24,0.04,32772.26,4446.37,0.01,5678.11
928100,842.18,976.91,1.00,1,1,1,809.94,-2.68,161840.11,130.05,-0.54,26207.97,888.65,0.15,1996.52,2738.94,0.02,6111.44,4459.40,0.01,540.27
944000,870.80,985.34,1.00,2,2,2,1876.18,0.29,168380.33,856.30,0.05,47280.75,2942.93,0.01,129980.98,3224.62,0.03,30588.31,4419.40,0.01,2553.36
976000,883.14,979.06,1.00,2,2,2,432.72,-0.47,49672.52,5781.25,0.02,153918.28,5228.01,0.03,71430.63,3156.93,0.05,2747.87,3178.97,0.01,38767.29
991900,1147.65,991.65,1.00,3,3,3,16654.45,0.05,1023892.35,9590.96,0.02,239604.39,5131.76,0.01,8397.16,2967.33,0.01,14305.76,1908.73,0.01,79900.20
1024000,1343.39,989.68,1.00,1,1,1,6098.04,-0.01,329357.62,4486.49,-0.01,159178.20,5888.98,0.03,23875.53,3320.96,0.02,11072.24,1607.49,0.03,9414.71
1040000,1363.44,989.08,1.00,1,1,1,1253.53,-0.03,302800.87,330.62,0.30,260792.07,2996.54,0.00,180921.13,2993.60,-0.01,20984.65,1847.47,0.03,14998.84
1055900,1353.48,992.76,1.00,1,1,1,667.83,2.79,119406.43,776.84,0.12,28626.01,467.14,-0.11,159282.31,3312.02,0.01,20409.96,1795.01,0.02,3342.35
1072200,1388.27,992.05,1.00,1,1,1,2135.27,-0.02,170240.83,642.05,-0.31,20125.34,235.88,-2.70,41715.86,1273.09,-0.03,125227.56,1479.05,-0.02,19772.32
1088000,1373.12,986.52,1.00,1,1,1,1021.11,-2.79,196784.53,1246.26,-2.90,115538.75,148.09,-0.81,19988.30,226.42,0.12,66448.32,1624.07,0.01,9438.04
1104000,1349.77,982.66,1.00,1,1,1,1479.01,-2.98,31996.27,409.59,-3.09,52980.03,470.92,-2.95,35314.19,163.36,-0.03,4314.09,1610.12,-0.00,1377.43
1120000,1360.03,985.89,1.00,1,1,1,671.92,0.30,134147.41,58.66,0.97,27971.41,94.33,1.21,32884.25,170.04,-0.56,5534.92,1644.52,0.01,2794.97
1152000,1351.36,984.99,1.00,1,1,1,272.16,-3.04,29380.70,364.90,0.46,9847.72,470.80,0.16,13513.97,348.22,-2.92,15122.79,240.46,-0.10,43935.00
1168000,1375.76,993.59,1.00,1,1,1,1616.61,0.34,117645.94,1120.43,0.10,49313.71,193.21,-0.41,20307.55,263.31,-2.97,5401.37,1505.15,-3.05,108849.85
1183900,1386.94,988.47,1.00,1,1,1,773.15,-0.43,74775.50,428.96,-1.67,80329.58,197.28,-2.83,22967.09,71.02,0.08,21012.29,2089.69,-3.07,36864.67
1200700,1374.31,979.64,1.00,1,1,1,917.27,-2.53,87427.36,1484.08,-2.99,85492.51,659.41,-2.82,27508.63,17.32,-3.01,5256.67,2006.26,-3.08,5070.11
1216400,1339.27,981.09,1.00,1,1,1,2233.73,3.10,102189.31,1232.76,3.13,21610.68,429.53,-2.96,15374.23,1052.05,-3.14,65915.61,2182.96,-3.09,11369.74
1232000,1335.73,980.22,1.00,2,2,2,233.83,-2.90,128864.19,662.89,0.11,121287.17,278.71,2.80,15011.55,3453.10,-3.04,154350.44,2170.96,-3.10,1877.86
1247800,1359.95,983.45,1.00,2,2,2,1546.65,0.13,112611.94,691.11,0.24,5705.69,1926.62,3.11,105281.27,4615.87,-3.07,73985.04,2203.22,-3.10,2147.84
1264500,1357.55,985.56,1.00,2,2,2,191.64,2.42,100535.73,4438.37,3.13,306051.67,6265.11,-3.07,260672.57,4174.09,-3.10,27502.31,2177.53,-3.09,1762.47
1280100,1216.60,984.64,1.00,2,2,2,9035.33,-3.14,570063.41,13432.86,-3.06,578332.86,8772.73,-3.08,160850.49,4032.08,-3.11,9129.51,2129.50,-3.09,3088.68
1296000,935.86,950.54,1.00,1,1,1,17786.11,-3.02,557860.05,13148.79,-3.06,18011.09,7316.50,-3.09,91775.20,4080.93,-3.11,3423.14,2385.01,-3.11,16158.29
1312200,796.07,948.56,1.00,1,1,1,8630.24,-3.13,571039.47,3319.93,3.10,608770.80,5716.90,-3.09,98750.71,4245.87,-3.10,10764.34,2172.86,-3.11,13101.04
1344000,776.61,956.42,1.00,1,1,1,659.73,2.76,252394.99,773.42,2.82,81330.07,2348.69,3.08,106773.49,4134.65,-3.09,3578.70,2325.37,-3.11,4796.03
1359900,761.05,960.16,1.00,1,1,1,1007.06,2.91,23121.89,903.22,2.93,10005.23,1205.20,3.10,71946.45,2993.26,-3.08,71829.58,2185.91,-3.11,8802.55
1376000,748.34,962.44,1.00,1,1,1,801.44,2.96,13183.09,1676.42,-3.06,52885.83,972.69,-3.10,15654.79,1545.03,3.07,91726.37,2305.41,-3.10,7617.48
1407900,680.84,953.65,1.00,1,1,1,2133.95,-3.01,43609.73,1049.66,-2.95,20175.18,286.37,-2.94,21677.89,247.71,2.64,41480.27,2280.66,-3.09,957.66
1424000,698.88,952.86,1.00,1,1,1,1121.50,-0.04,201516.96,1793.56,0.03,176071.32,741.89,3.04,29659.47,492.70,3.12,18385.81,2296.70,-3.11,2485.68
1440100,738.57,955.46,1.00,1,1,1,2470.22,0.07,84526.99,578.14,2.11,132724.38,1273.36,0.17,124065.82,355.59,3.07,8621.46,1851.96,-3.09,27698.07
1456000,689.32,968.70,1.00,1,1,1,3207.00,2.88,352345.31,805.59,0.49,64011.67,126.04,0.63,73082.19,532.76,-3.03,12210.29,948.01,3.09,57450.42
1472000,761.29,967.47,1.00,1,1,1,4498.26,-0.02,478055.61,600.57,-0.60,46735.53,465.49,2.86,34475.87,178.50,-0.07,44320.10,544.08,3.06,25285.23
1488500,705.43,957.68,1.00,1,1,1,3436.80,-2.97,478768.34,1589.87,-3.07,126867.00,356.15,-2.43,24427.80,92.90,1.68,13038.43,148.20,2.84,24295.69
1504500,709.75,963.73,1.00,1,1,1,464.63,0.95,236382.02,1063.07,-3.02,33123.02,933.40,-2.88,39557.78,426.44,3.07,26237.28,566.32,0.04,44227.34
1520100,672.07,953.76,1.00,1,1,1,2498.72,-2.88,184090.26,416.74,-2.06,57388.03,165.73,2.41,54708.42,288.87,-3.06,9432.86,826.04,0.09,16822.00
1535900,703.64,952.16,1.00,1,1,1,2000.91,-0.05,281429.47,869.86,0.40,77357.26,408.90,-2.97,21020.46,903.07,-3.10,38893.37,1120.11,0.10,18620.20
1552000,697.58,964.68,1.00,3,3,3,864.38,2.02,157307.36,647.36,2.79,87703.10,336.25,2.69,14745.09,227.51,0.36,69634.88,1107.00,0.10,902.28
1567900,684.20,959.32,1.00,3,3,3,906.04,-2.76,75967.09,1031.34,3.13,29689.68,911.40,3.00,37727.80,1493.10,0.01,80621.75,860.74,0.10,15497.99
1600300,647.77,965.45,1.00,2,2,2,1140.39,2.97,18454.98,1100.66,3.09,2526.61,483.42,0.12,42725.03,2186.63,0.10,21931.15,1145.76,0.04,9028.02
1616000,631.35,962.31,1.00,2,2,2,1065.00,-2.95,25332.52,2792.49,0.04,247721.56,2993.04,0.03,159997.06,1958.31,0.11,14714.44,730.55,0.05,26450.91
1631900,735.93,969.27,1.00,1,1,1,6592.01,0.07,481137.59,9122.30,0.01,398213.19,5306.01,0.06,145627.99,2089.74,0.06,11112.85,887.98,0.06,9920.87
1648100,924.15,966.25,1.00,1,1,1,11619.86,-0.02,313543.21,7780.67,0.06,86346.63,5515.24,0.06,13100.89,1883.96,0.07,12868.61,840.69,0.06,2923.61
1664000,985.23,984.36,1.00,1,1,1,4007.15,0.29,496139.88,1960.00,0.29,370509.24,4074.78,0.05,90716.05,2586.18,0.04,44364.18,918.40,0.06,4891.79
1680100,984.18,984.39,1.00,1,1,1,65.18,3.11,252731.10,439.08,-0.19,98471.32,784.81,0.24,205489.03,2200.80,0.04,23937.34,899.65,0.10,2520.55
1696600,999.28,981.60,1.00,1,1,1,930.37,-0.18,60296.63,67.51,-1.31,25074.73,424.66,-0.09,24709.03,1434.16,0.02,46534.11,2089.74,0.06,72209.00
1728000,985.03,981.27,1.00,1,1,1,454.02,-3.12,43882.98,417.50,-0.02,12869.98,70.19,-1.73,13851.41,315.19,0.26,35989.50,1883.96,0.07,6639.22
1744000,1019.06,981.28,1.00,1,1,1,2127.48,0.00,161337.81,83.35,-2.06,28853.88,112.59,-2.53,5066.55,137.27,-2.54,27929.58,2586.18,0.04,44086.90
1776000,983.14,977.74,1.00,1,1,1,1128.21,-3.04,101629.97,479.08,-2.91,13399.32,76.53,-3.00,1774.86,41.96,-0.61,4914.81,2200.80,0.04,12043.48
1808400,989.01,974.32,1.00,1,1,1,209.70,-0.53,40246.37,123.91,2.71,12008.15,571.50,-2.95,15280.95,112.59,-2.53,4101.97,1434.16,0.02,23697.93
1823900,977.76,980.25,1.00,1,1,1,820.44,2.66,66450.83,761.76,-2.99,42712.79,94.03,0.33,42888.30,76.53,-3.00,3664.23,315.19,0.26,72907.76
1839900,965.28,970.76,1.00,1,1,1,980.07,-2.49,61095.50,389.20,-0.01,71743.40,761.76,-2.99,53400.64,571.50,-2.95,30943.93,137.27,-2.54,27929.58
1856000,990.25,980.19,1.00,1,1,1,1658.01,0.36,162257.93,1658.01,0.36,80876.23,389.20,-0.01,71297.79,94.03,0.33,41289.98,41.96,-0.61,9768.56
