@RELATION gaze_labels

%@METADATA width_px 1920
%@METADATA height_px 1080
%@METADATA width_mm 540.00
%@METADATA height_mm 254.00
%@METADATA distance_mm 620.00


@ATTRIBUTE time INTEGER
@ATTRIBUTE x NUMERIC
@ATTRIBUTE y NUMERIC
@ATTRIBUTE confidence NUMERIC
@ATTRIBUTE handlabeller1 INTEGER
@ATTRIBUTE handlabeller2 INTEGER
@ATTRIBUTE handlabeller_final INTEGER
@ATTRIBUTE speed_1 numeric
@ATTRIBUTE direction_1 numeric
@ATTRIBUTE acceleration_1 numeric
@ATTRIBUTE speed_2 numeric
@ATTRIBUTE direction_2 numeric
@ATTRIBUTE acceleration_2 numeric
@ATTRIBUTE speed_4 numeric
@ATTRIBUTE direction_4 numeric
@ATTRIBUTE acceleration_4 numeric
@ATTRIBUTE speed_8 numeric
@ATTRIBUTE direction_8 numeric
@ATTRIBUTE acceleration_8 numeric
@ATTRIBUTE speed_16 numeric
@ATTRIBUTE direction_16 numeric
@ATTRIBUTE acceleration_16 numeric

%The number after speed, direction denotes the step size that was used for the calculation.
%Acceleration was calculated between two adjacent samples of the already low pass filtered velocity

@DATA
0,-6.38,525.62,1.00,4,4,4,0.00,0.00,0.00,30372.33,0.15,0.00,19677.10,0.21,0.00,11248.15,0.32,0.00,4566.11,0.46,0.00
15000,443.94,594.68,1.00,4,4,4,30372.33,0.15,2024821.69,19677.10,0.21,718958.28,11528.44,0.39,571678.20,5822.03,0.58,387943.99,1334.95,1.17,243877.77
37300,711.64,677.75,1.00,4,4,4,12569.00,0.30,808898.55,11528.44,0.39,384536.91,11248.15,0.32,35170.28,2784.71,1.24,178963.74,1684.74,3.00,107828.29
52400,843.33,757.15,1.00,4,4,4,10183.47,0.54,239972.84,4813.20,0.71,472183.73,5822.03,0.58,385374.83,2444.08,2.52,208524.23,2580.93,-2.90,79088.76
82900,878.17,820.72,1.00,4,4,4,2376.91,1.07,269388.83,2273.98,1.52,119478.90,2784.71,1.24,130848.90,4566.11,0.46,200396.23,3638.34,-2.73,38570.67
98200,848.44,861.17,1.00,4,4,4,3280.64,2.20,204916.57,3804.11,2.63,226163.98,2444.08,2.52,205798.43,1334.95,1.17,239095.85,3529.63,-2.59,33702.89
112400,780.14,875.35,1.00,4,4,4,4912.87,2.94,232827.61,5271.17,3.13,185297.94,4143.32,3.11,176510.33,1684.74,3.00,169335.98,3252.67,-2.45,38200.06
127600,693.49,863.59,1.00,4,4,4,5752.66,-3.01,130450.69,4959.80,-2.89,93541.68,5202.65,-2.89,110584.51,2580.93,-2.90,78568.44,2722.57,-2.32,42865.67
149200,603.59,829.03,1.00,4,4,4,4458.95,-2.77,80845.35,5424.08,-2.68,54486.10,4542.57,-2.68,55339.00,3638.34,-2.73,54463.22,1149.73,0.00,167183.36
163200,520.93,776.93,1.00,4,4,4,6979.29,-2.58,196107.08,4355.18,-2.49,99474.56,3581.16,-2.51,85530.26,3529.63,-2.59,36832.44,413.98,-2.95,111315.56
192900,452.00,713.95,1.00,4,4,4,3143.62,-2.40,132149.23,2676.89,-2.32,59753.46,3767.91,-2.40,14716.64,3252.67,-2.45,18264.00,1423.16,-2.87,34043.74
229400,399.85,647.54,1.00,1,1,1,2313.59,-2.24,25786.80,3307.42,-2.30,17403.68,2836.60,-2.27,28028.69,2722.57,-2.32,17850.91,2067.29,-2.81,17844.22
244900,337.78,585.37,1.00,1,1,1,5667.34,-2.36,218141.64,3080.28,-2.20,24255.16,2443.78,-2.09,39655.87,2268.57,-2.25,31825.70,2406.75,-2.77,22779.88
275100,316.63,534.00,1.00,1,1,1,1839.66,-1.96,133478.73,1719.32,-1.62,62943.82,1862.79,-1.83,26342.18,1707.37,-2.36,19869.69,2305.68,-2.72,5357.27
290100,334.10,507.75,1.00,1,1,1,2101.81,-0.98,124329.12,1734.41,-0.44,127722.83,837.25,-1.19,86537.22,1454.35,-2.42,18089.44,2153.84,-2.67,12126.70
304800,363.19,511.95,1.00,1,1,1,1999.86,0.14,149199.17,1126.92,0.62,104960.74,597.39,1.65,96462.39,1466.31,-2.62,20547.08,1944.19,-2.65,14668.35
319800,361.30,527.24,1.00,1,1,1,1027.00,1.69,148616.11,2526.02,2.28,190164.87,1152.95,2.48,58224.27,1013.98,-2.93,39037.51,1710.12,-2.65,15605.28
334800,313.96,569.56,1.00,2,2,2,4233.46,2.41,235047.34,2466.14,2.83,91468.64,2216.95,2.92,84772.42,979.26,2.96,25899.74,1430.96,-2.68,18902.19
357500,272.68,555.36,1.00,2,2,2,1922.79,-2.81,162880.63,2676.20,-2.88,63773.04,2493.32,2.97,13266.39,1242.74,2.81,13667.05,1224.84,-2.76,10309.09
371700,218.47,544.39,1.00,3,3,3,3895.46,-2.94,141213.80,2596.55,-3.14,47916.93,1643.46,-3.06,69680.57,1572.08,2.88,24152.49,1004.30,-2.90,19047.93
386500,197.38,555.31,1.00,1,1,1,1604.37,2.66,191240.89,907.81,2.78,120111.36,1424.26,3.06,22693.53,1629.10,2.96,9640.06,733.13,-3.11,21736.62
416100,180.79,558.70,1.00,1,1,1,572.29,2.94,35992.47,683.70,2.84,7763.35,999.18,2.80,17607.16,1367.04,3.13,12041.95,694.08,2.92,6332.77
431100,168.24,564.28,1.00,1,1,1,915.45,2.72,25151.23,1133.94,2.83,30023.30,924.66,2.94,10320.65,1203.71,3.02,14105.86,768.83,2.83,6614.88
446400,148.07,569.18,1.00,1,1,1,1356.85,2.90,31673.88,1220.54,3.01,14977.62,1057.80,2.94,8706.67,733.32,2.85,32520.38,940.84,2.90,11961.79
468300,123.21,570.14,1.00,1,1,1,1135.65,3.10,15173.06,1005.16,3.04,9947.29,963.37,2.96,4430.15,525.00,2.88,9553.06,886.78,2.96,3507.67
482800,111.66,572.84,1.00,1,1,1,818.15,2.91,25295.96,646.70,2.84,27075.63,488.39,2.93,32786.39,422.88,2.83,7255.95,736.20,3.11,13327.23
497900,104.92,575.78,1.00,2,2,2,487.04,2.73,23208.18,110.88,1.98,38484.15,136.05,2.41,24943.62,355.45,2.88,4696.55,577.30,3.04,10958.37
526600,109.75,577.30,1.00,1,1,1,176.35,0.31,21976.22,201.36,0.16,8777.59,142.08,0.47,7987.21,387.53,2.98,1709.84,343.06,2.91,8430.02
548900,115.05,577.46,1.00,1,1,1,237.92,0.03,3736.20,332.37,0.06,5999.40,90.01,0.39,2371.97,263.28,2.96,5578.23,185.80,2.93,7055.52
562900,121.79,578.02,1.00,1,1,1,483.11,0.08,17560.20,62.87,2.54,27416.86,289.10,3.06,26546.65,210.44,3.05,4034.00,18.97,1.39,13288.67
592500,112.80,579.02,1.00,1,1,1,305.78,3.03,26533.67,793.23,3.11,25040.29,391.44,3.12,3508.69,82.80,-2.98,4454.54,175.45,-0.01,5855.48
607500,86.43,579.12,1.00,1,1,1,1757.67,3.14,96932.66,672.89,-3.12,8357.69,486.41,-3.11,6573.99,47.09,-1.27,6720.63,343.67,-0.06,11242.81
645100,77.41,578.41,1.00,1,1,1,240.74,-3.06,40368.82,232.57,-2.91,11919.69,279.91,-2.90,5855.44,166.72,-0.37,3786.26,554.64,-0.06,5610.76
660200,74.49,576.34,1.00,1,1,1,236.80,-2.52,8446.70,471.42,-0.36,44846.99,326.41,-0.35,38438.60,389.72,-0.22,14979.97,709.39,-0.07,10254.08
674700,90.46,573.49,1.00,1,1,1,1118.72,-0.18,89350.26,1244.02,-0.17,54226.44,1036.04,-0.17,49459.02,713.54,-0.14,22555.13,828.03,-0.08,8212.05
690800,112.01,569.91,1.00,1,1,1,1356.90,-0.16,14823.03,1584.17,-0.11,21706.44,1781.66,-0.11,46553.74,1055.91,-0.09,21385.22,924.24,-0.09,5986.55
705800,139.42,567.95,1.00,2,2,2,1831.63,-0.07,33129.86,2333.43,-0.08,50137.11,1778.48,-0.07,4520.35,1574.01,-0.08,34552.81,956.17,-0.09,2152.49
720800,181.80,564.39,1.00,2,2,2,2835.32,-0.08,66940.04,1916.28,-0.05,28112.39,1811.09,-0.05,3597.95,1858.45,-0.07,19021.39,905.72,-0.10,3406.42
750100,224.20,563.73,1.00,1,1,1,1447.46,-0.02,47601.60,1509.73,-0.02,13968.72,1981.43,-0.05,5814.86,1958.55,-0.07,3421.79,898.94,-0.11,345.35
772600,259.98,562.67,1.00,1,1,1,1590.90,-0.03,6444.12,2060.29,-0.05,24579.96,1917.47,-0.04,2931.65,1980.66,-0.06,1140.86,971.11,-0.10,3245.62
786700,299.51,559.84,1.00,1,1,1,2810.51,-0.07,86727.35,2632.11,-0.06,40596.49,2162.17,-0.06,17594.76,1845.15,-0.06,9618.23,1014.96,-0.09,3112.51
802200,337.74,557.78,1.00,1,1,1,2470.02,-0.05,22175.42,2286.36,-0.07,22378.96,2215.35,-0.07,3819.61,1459.91,-0.07,24855.03,866.62,-0.10,9578.74
816800,368.14,554.73,1.00,1,1,1,2092.60,-0.10,26825.63,1799.02,-0.09,33461.01,1661.07,-0.08,37988.65,1097.14,-0.09,24933.83,765.15,-0.11,6972.91
831800,390.77,552.94,1.00,1,1,1,1513.45,-0.08,38687.08,1025.62,-0.11,51582.81,903.70,-0.12,50596.01,870.67,-0.10,15112.81,709.62,-0.10,3723.13
846400,398.32,551.46,1.00,1,1,1,526.96,-0.19,67923.40,196.13,-0.37,57384.50,226.92,-0.30,46676.16,453.62,-0.14,28606.79,590.28,-0.10,8174.41
868900,397.55,550.30,1.00,1,1,1,62.12,-2.15,24606.07,248.40,-2.97,19043.96,128.22,-2.91,15277.46,50.48,-1.64,20131.74,513.06,-0.08,3459.15
897900,385.72,549.28,1.00,1,1,1,409.59,-3.06,12903.76,389.78,3.12,5282.55,436.96,-3.13,10798.12,282.53,-2.98,9506.65,516.52,-0.06,485.42
912000,380.76,550.61,1.00,1,1,1,364.28,2.88,9987.79,772.97,3.06,27297.45,628.77,-3.13,13604.49,399.85,-3.06,8520.84,540.05,-0.02,2138.20
927600,362.84,551.22,1.00,2,2,2,1148.95,3.11,51171.63,823.69,-3.12,6405.37,768.99,-3.11,9020.80,408.81,-3.10,1291.28,600.29,0.03,4300.28
964900,337.19,549.58,1.00,1,1,1,689.00,-3.08,12548.84,771.14,-3.05,2049.06,666.80,-3.09,2781.39,314.50,3.14,2561.28,702.18,0.07,2809.35
980000,322.61,547.46,1.00,1,1,1,976.09,-3.00,19515.77,385.95,-2.97,25666.65,385.30,-3.08,18646.48,34.00,1.93,20140.02,826.91,0.09,8379.03
994100,326.09,547.66,1.00,1,1,1,247.28,0.06,86710.38,83.19,0.38,33167.55,96.36,0.14,34143.82,265.61,0.20,19371.89,940.10,0.10,8048.34
1023500,325.97,548.80,1.00,1,1,1,39.01,1.68,8575.94,413.52,0.16,11319.62,773.67,0.11,23039.52,735.02,0.12,16009.97,1030.18,0.11,3072.74
1038500,344.21,550.60,1.00,1,1,1,1222.09,0.10,81529.36,1609.44,0.10,79803.47,1210.03,0.12,29091.33,1525.96,0.11,52735.84,1123.02,0.12,6201.43
1059600,383.80,554.43,1.00,2,2,2,1884.81,0.10,31408.90,2182.23,0.11,27157.80,2330.90,0.10,53129.38,2118.72,0.10,28092.62,1326.44,0.12,9641.26
1074900,423.20,559.00,1.00,2,2,2,2592.63,0.12,46343.81,3165.75,0.11,64284.80,3105.91,0.10,50654.69,2482.38,0.10,23779.57,1425.51,0.11,6490.81
1090800,481.98,565.20,1.00,3,3,3,3717.32,0.11,70763.69,4219.23,0.10,66274.70,3888.45,0.10,49217.04,2935.06,0.10,28474.11,1594.63,0.10,10652.27
1105100,549.95,572.03,1.00,1,1,1,4777.32,0.10,74139.94,4658.14,0.10,30728.70,4190.40,0.09,21264.71,2763.56,0.10,12010.49,1940.23,0.10,24167.61
1120100,617.81,578.51,1.00,1,1,1,4544.55,0.10,15598.54,4161.72,0.08,33317.39,3547.52,0.09,42859.62,2844.27,0.10,5389.28,2064.46,0.11,8292.67
1135100,674.36,582.58,1.00,1,1,1,3779.45,0.07,51409.52,2670.52,0.09,99413.56,2484.86,0.10,70851.14,2763.00,0.10,5422.22,2184.97,0.11,8036.10
1157200,716.53,586.96,1.00,1,1,1,1918.40,0.10,84298.36,1514.22,0.12,52405.16,2071.04,0.10,18730.67,2593.93,0.10,7651.13,2364.92,0.10,8144.84
1186900,752.25,591.81,1.00,1,1,1,1213.79,0.14,23779.47,1573.11,0.13,2020.99,1705.01,0.11,12350.78,2352.15,0.10,8146.48,2400.98,0.10,1217.77
1201800,786.14,595.74,1.00,1,1,1,2289.56,0.12,72232.11,2041.19,0.11,31465.44,1738.54,0.11,2250.94,2013.36,0.11,22755.81,2408.14,0.10,520.67
1216300,811.89,598.44,1.00,1,1,1,1786.03,0.10,34760.55,1989.82,0.10,3768.57,2168.96,0.11,29684.30,1903.26,0.11,7608.95,2244.37,0.10,11297.47
1231200,844.34,601.67,1.00,1,1,1,2188.16,0.10,26997.67,2295.05,0.12,20614.45,1943.23,0.12,15177.99,1873.58,0.11,1991.95,2114.87,0.11,8698.76
1246100,879.81,606.46,1.00,1,1,1,2402.65,0.13,15378.51,1907.34,0.14,26164.31,2141.39,0.11,13344.91,2054.53,0.11,12181.78,1902.25,0.11,14269.90
1268800,915.38,611.46,1.00,2,2,2,1582.24,0.14,36144.76,2020.29,0.11,5535.76,1996.80,0.11,6369.67,2028.13,0.10,1245.28,1672.33,0.10,10128.82
1283900,955.73,614.76,1.00,2,2,2,2680.94,0.08,73192.07,2075.00,0.09,4182.26,1984.11,0.10,1775.45,1834.00,0.11,12871.72,1463.39,0.10,13837.44
1312300,1005.25,619.89,1.00,1,1,1,1753.00,0.10,32715.46,1960.72,0.10,4026.46,2087.69,0.09,3752.46,1738.13,0.11,3398.29,1401.33,0.11,2186.01
1342200,1069.52,625.66,1.00,1,1,1,2158.10,0.09,13577.03,2098.21,0.08,4658.13,1647.02,0.10,14758.29,1547.27,0.11,6391.40,1398.00,0.11,112.34
1365000,1115.43,629.23,1.00,1,1,1,2019.76,0.08,6168.24,1300.73,0.11,35025.99,1522.74,0.11,5505.84,1374.98,0.10,7585.22,1308.92,0.11,3932.28
1395000,1137.78,633.20,1.00,1,1,1,756.72,0.18,42296.63,847.96,0.19,15366.79,1039.15,0.12,16122.35,1094.01,0.09,9370.46,1394.66,0.12,2882.27
1409700,1152.63,636.48,1.00,1,1,1,1034.71,0.22,19074.41,576.18,0.16,18570.94,452.75,0.14,39905.49,951.88,0.09,9668.58,1465.54,0.13,4877.54
1424800,1154.74,635.87,1.00,1,1,1,145.51,-0.28,60248.21,156.48,-2.57,47830.30,166.67,-0.11,19498.87,708.17,0.10,16156.73,1464.19,0.13,505.14
1439300,1148.73,633.99,1.00,1,1,1,434.43,-2.84,38719.18,198.36,-2.57,2889.46,115.87,-0.38,4312.01,553.81,0.16,10903.21,1519.68,0.14,3860.06
1461000,1148.71,631.97,1.00,1,1,1,92.97,-1.58,19141.98,305.50,-0.03,22230.60,289.85,0.03,8700.53,834.06,0.16,12915.84,1589.66,0.15,3321.96
1475200,1159.69,633.70,1.00,1,1,1,782.96,0.16,56587.00,872.77,0.18,40614.29,646.59,0.17,25479.27,1119.85,0.16,20126.55,1670.64,0.16,5833.69
1490000,1173.63,636.39,1.00,2,2,2,959.20,0.19,12076.05,923.81,0.22,4289.13,1437.09,0.19,53435.16,1365.00,0.17,16587.96,1644.10,0.18,2561.86
1520300,1200.37,642.70,1.00,3,3,3,906.78,0.23,2140.15,1802.47,0.20,29013.20,2012.70,0.19,18998.96,1690.20,0.18,10739.20,1607.70,0.19,1432.83
1534800,1252.83,652.14,1.00,3,3,3,3675.96,0.18,191096.97,3661.59,0.17,128271.42,2222.50,0.19,14469.00,2218.59,0.19,36459.59,1572.79,0.20,2493.59
1550100,1307.83,661.67,1.00,1,1,1,3648.01,0.17,2371.82,2728.53,0.18,60988.66,2969.13,0.18,48804.67,2503.87,0.19,18657.36,1433.06,0.20,9150.92
1572000,1352.72,670.15,1.00,1,1,1,2086.29,0.19,71336.30,2400.84,0.19,15036.12,3083.29,0.19,5241.01,2625.00,0.20,5574.82,1213.12,0.21,10046.45
1586400,1393.39,678.22,1.00,1,1,1,2879.29,0.20,55092.66,3530.83,0.19,78472.49,3058.82,0.20,2717.23,2910.26,0.20,19812.09,1064.29,0.21,10336.28
1601500,1454.94,690.16,1.00,1,1,1,4152.18,0.19,84303.03,3855.02,0.20,21523.56,3181.05,0.21,8541.46,2346.50,0.21,37380.22,876.46,0.21,12439.71
1616400,1506.75,701.14,1.00,1,1,1,3554.17,0.21,40385.61,2836.92,0.23,68630.65,2846.06,0.22,22588.50,1766.99,0.23,39006.35,537.41,0.21,22754.71
1631400,1537.56,709.37,1.00,1,1,1,2126.23,0.26,95669.66,1826.02,0.26,67603.16,1614.54,0.26,82266.65,1056.78,0.26,47402.20,269.04,0.23,17903.77
1646000,1558.93,715.22,1.00,1,1,1,1517.61,0.27,41693.84,630.89,0.36,82152.59,486.01,0.46,78288.91,415.71,0.34,44073.50,18.68,0.66,17269.18
1668400,1559.43,717.55,1.00,1,1,1,106.06,1.36,65713.02,641.66,3.13,55853.12,499.34,-3.11,42984.82,464.99,-3.04,39037.35,316.39,-2.97,14867.78
1682500,1535.51,715.45,1.00,1,1,1,1702.47,-3.05,123152.17,1419.48,-2.99,56225.78,1371.76,-2.99,62294.79,1170.51,-2.96,50193.05,639.41,-2.96,22910.00
1713000,1496.84,708.01,1.00,2,2,2,1291.22,-2.95,14372.94,1974.35,-2.94,18390.48,2340.95,-2.94,31869.94,1773.91,-2.95,19789.47,892.23,-2.95,8290.62
1727400,1448.64,697.81,1.00,2,2,2,3421.50,-2.93,147961.01,3747.33,-2.92,123212.82,2293.73,-2.92,4596.80,2198.38,-2.95,29486.32,1069.58,-2.95,12316.89
1742300,1389.81,683.51,1.00,2,2,2,4063.04,-2.90,43708.44,2572.10,-2.91,78881.25,3056.93,-2.93,51231.13,2593.71,-2.94,26573.72,1332.80,-2.96,17668.23
1779000,1319.41,667.56,1.00,1,1,1,1966.89,-2.92,57128.76,2669.71,-2.94,3294.46,3012.30,-2.93,1248.04,2666.62,-2.93,2056.57,1582.78,-2.96,6813.28
1794500,1253.31,655.44,1.00,1,1,1,4335.73,-2.96,153028.52,3742.30,-2.96,69288.30,2820.71,-2.94,12384.02,2832.76,-2.93,10740.89,1656.47,-2.96,4757.26
1810200,1204.66,646.02,1.00,1,1,1,3156.53,-2.95,75146.90,3082.62,-2.93,42316.66,3260.71,-2.94,28042.89,2464.78,-2.93,23438.40,1817.01,-2.97,10231.34
1824600,1162.54,636.21,1.00,1,1,1,3003.15,-2.91,13291.55,2750.64,-2.92,23182.81,2528.27,-2.93,50949.77,2151.94,-2.94,21796.06,1998.06,-2.97,12579.80
1839600,1125.75,628.30,1.00,1,1,1,2508.41,-2.93,33125.95,1970.36,-2.92,52021.49,1787.23,-2.92,49412.49,2108.16,-2.96,3885.93,2061.16,-2.97,4207.32
1854500,1105.10,623.11,1.00,1,1,1,1429.25,-2.89,72561.67,1031.91,-2.92,62982.93,1332.95,-2.95,30616.19,1521.72,-2.97,39398.18,2154.40,-2.97,6301.04
1877100,1088.02,619.73,1.00,1,1,1,770.52,-2.95,29245.43,824.03,-3.00,9841.22,1067.09,-3.00,12106.51,1374.81,-3.00,6669.77,2121.65,-2.98,1605.54
1891800,1074.65,618.89,1.00,1,1,1,910.81,-3.08,12155.40,1121.62,-3.10,21162.27,791.61,-3.08,19355.49,1345.59,-3.03,3679.49,1911.91,-2.99,14344.13
1906600,1054.96,618.30,1.00,1,1,1,1331.29,-3.11,28515.75,768.19,3.14,24062.74,1015.84,-3.12,15312.82,1429.26,-3.04,5766.42,1847.17,-3.00,4639.10
1936500,1040.32,619.02,1.00,2,2,2,490.35,3.09,28206.58,946.53,-3.13,5983.95,1364.56,-3.10,11676.35,1514.63,-3.06,2947.42,1512.73,-3.01,11191.80
1951500,1012.46,617.74,1.00,3,3,3,1858.75,-3.10,91427.24,2257.83,-3.08,87555.17,1725.50,-3.06,24406.99,1765.72,-3.06,16744.93,1342.53,-3.02,11377.83
1966400,972.94,614.78,1.00,1,1,1,2660.06,-3.07,53954.81,2666.87,-3.03,28487.77,2410.57,-3.05,46020.57,1686.24,-3.06,5344.64,1097.50,-3.03,16477.64
1988800,913.58,606.91,1.00,1,1,1,2673.12,-3.01,6786.64,2538.02,-3.02,5849.38,2609.72,-3.04,8973.38,1637.56,-3.05,2189.62,931.99,-3.04,7408.30
2002700,881.45,603.91,1.00,1,1,1,2321.43,-3.05,26225.62,2536.25,-3.04,3129.22,1988.24,-3.03,44725.51,1506.80,-3.05,9450.73,857.40,-3.06,5424.58
2017800,840.41,599.49,1.00,1,1,1,2734.11,-3.03,27430.46,1531.62,-3.04,66533.33,1539.74,-3.04,29751.90,1315.07,-3.04,12700.55,842.76,-3.06,970.88
2046400,814.89,596.89,1.00,1,1,1,896.75,-3.04,64244.09,894.71,-3.05,22276.46,889.37,-3.04,22740.42,899.11,-3.04,14545.28,822.66,-3.06,704.26
2062600,800.49,595.82,1.00,1,1,1,891.33,-3.07,1558.11,361.93,-3.07,32893.01,419.29,-3.07,29034.54,512.37,-3.05,23881.76,759.85,-3.06,3883.36
2099600,795.69,595.44,1.00,1,1,1,130.14,-3.06,20572.84,15.80,1.76,9743.20,14.41,1.93,11226.33,308.65,-3.06,5506.66,747.46,-3.05,384.86
2113600,800.34,596.61,1.00,1,1,1,342.55,0.25,33668.30,428.65,0.15,30685.18,223.92,0.13,16260.10,108.30,-3.03,14316.91,621.59,-3.04,8999.92
2143700,814.39,598.20,1.00,1,1,1,469.79,0.11,4595.44,444.64,0.10,872.23,389.80,0.13,5511.06,6.33,2.59,3435.09,485.98,-3.03,4508.75
2165600,823.35,598.90,1.00,1,1,1,410.23,0.08,2806.90,343.05,0.10,4640.09,259.89,0.04,6088.15,84.87,0.11,4105.92,308.61,-3.04,8099.71
2180200,826.85,599.50,1.00,1,1,1,243.02,0.17,11628.41,86.20,-2.48,28674.62,12.95,-2.03,18238.66,135.90,0.10,3497.21,207.19,-3.02,6949.46
2194600,821.38,597.36,1.00,1,1,1,407.75,-2.77,44976.37,440.61,-2.98,25516.74,157.56,-2.98,10444.09,95.09,0.03,2878.50,79.65,-3.00,8859.38
2209700,814.01,597.43,1.00,1,1,1,487.80,3.13,12440.58,239.87,3.14,13760.44,207.85,-2.96,3335.76,12.83,-0.79,5757.02,2.48,-1.85,5209.84
2224700,814.16,597.40,1.00,1,1,1,9.99,-0.24,33168.81,21.64,-0.19,17411.36,80.78,-3.10,8557.92,55.31,-2.83,4140.93,46.45,0.09,3160.90
2239800,814.65,597.31,1.00,1,1,1,33.23,-0.17,1541.32,24.58,-0.24,209.41,22.02,-0.33,6730.36,81.91,-2.85,1763.70,71.81,0.19,1721.82
2270500,815.25,597.13,1.00,1,1,1,20.38,-0.29,430.39,22.44,-0.41,147.65,23.96,-0.48,130.22,44.33,-2.91,1231.18,68.02,0.34,368.89
2292000,815.73,596.84,1.00,1,1,1,25.82,-0.54,367.68,25.21,-0.78,429.66,19.33,-0.84,414.88,10.11,-1.09,2227.92,12.83,-0.79,2963.45
2307100,815.91,596.48,1.00,1,1,1,26.86,-1.11,983.82,23.79,-1.59,1272.30,17.92,-1.59,912.49,3.42,-0.58,484.75,55.31,-2.83,4113.50
2322200,815.71,596.13,1.00,1,1,1,26.65,-2.06,1620.36,29.05,-2.47,1528.60,20.82,-2.56,1205.64,15.59,1.12,1085.11,81.91,-2.85,1763.70
2337100,815.22,595.94,1.00,1,1,1,35.33,-2.78,1551.90,34.72,3.11,1519.20,24.93,2.69,1535.08,53.75,1.04,2566.06,44.33,-2.91,2536.73
2352000,814.68,596.16,1.00,1,1,1,39.32,2.75,1858.23,45.78,2.07,2747.63,53.05,1.60,3152.47,20.82,-2.56,4900.76,10.11,-1.09,3214.79
2366900,814.57,597.13,1.00,1,1,1,65.77,1.69,3890.17,108.55,1.28,5575.75,123.65,1.11,5432.64,24.93,2.69,1535.08,3.42,-0.58,491.26
2382300,815.62,599.31,1.00,1,1,1,157.20,1.12,6999.31,205.47,0.96,7030.74,108.55,1.28,1638.07,53.05,1.60,3050.12,15.59,1.12,1063.97
2403500,818.90,603.28,1.00,1,1,1,242.77,0.88,4599.39,242.77,0.88,1935.26,205.47,0.96,5107.24,123.65,1.11,3818.23,53.75,1.04,1803.51
