@RELATION gaze_labels

%@METADATA width_px 1920
%@METADATA height_px 1080
%@METADATA width_mm 540.00
%@METADATA height_mm 254.00
%@METADATA distance_mm 620.00


@ATTRIBUTE time INTEGER
@ATTRIBUTE x NUMERIC
@ATTRIBUTE y NUMERIC
@ATTRIBUTE confidence NUMERIC
@ATTRIBUTE handlabeller1 INTEGER
@ATTRIBUTE handlabeller2 INTEGER
@ATTRIBUTE handlabeller_final INTEGER
@ATTRIBUTE speed_1 numeric
@ATTRIBUTE direction_1 numeric
@ATTRIBUTE acceleration_1 numeric
@ATTRIBUTE speed_2 numeric
@ATTRIBUTE direction_2 numeric
@ATTRIBUTE acceleration_2 numeric
@ATTRIBUTE speed_4 numeric
@ATTRIBUTE direction_4 numeric
@ATTRIBUTE acceleration_4 numeric
@ATTRIBUTE speed_8 numeric
@ATTRIBUTE direction_8 numeric
@ATTRIBUTE acceleration_8 numeric
@ATTRIBUTE speed_16 numeric
@ATTRIBUTE direction_16 numeric
@ATTRIBUTE acceleration_16 numeric

%The number after speed, direction denotes the step size that was used for the calculation.
%Acceleration was calculated between two adjacent samples of the already low pass filtered velocity

@DATA
0,309.52,537.83,1.00,4,4,4,0.00,0.00,0.00,20553.99,0.31,0.00,17652.84,0.35,0.00,7401.75,0.50,0.00,1103.73,1.61,0.00
22500,750.19,678.13,1.00,4,4,4,20553.99,0.31,913510.60,17652.84,0.35,134737.74,5215.14,0.63,565192.77,1586.35,1.90,324282.88,3305.04,-3.13,153502.71
37500,930.36,767.57,1.00,4,4,4,13409.78,0.46,505266.54,5215.14,0.63,847789.15,7401.75,0.50,155268.99,3986.26,3.07,244322.41,4347.89,-2.96,82039.61
67200,938.35,815.74,1.00,4,4,4,1644.32,1.41,421502.72,2391.08,2.50,213820.61,1586.35,1.90,245668.85,6592.34,-3.04,93156.87,4955.94,-2.86,25830.68
82400,844.09,831.47,1.00,4,4,4,6287.40,2.98,427468.94,4603.16,3.11,195596.20,3986.26,3.07,241107.64,1103.73,1.61,444669.13,4278.25,-2.76,54946.24
118800,700.93,822.73,1.00,4,4,4,3940.11,-3.08,71490.55,5807.83,-3.02,39050.26,6592.34,-3.04,76009.87,3305.04,-3.13,94884.92,4142.77,-2.66,12124.50
133800,547.59,796.73,1.00,4,4,4,10368.66,-2.97,430988.47,10265.36,-2.93,301274.37,6868.93,-2.93,49369.70,4347.89,-2.96,82039.61,3104.57,-2.55,73550.19
147800,409.96,759.82,1.00,4,4,4,10178.18,-2.88,70334.99,8834.86,-2.83,122848.64,8146.09,-2.83,105453.38,4955.94,-2.86,54797.95,2122.67,-2.45,72425.52
162900,303.01,717.51,1.00,4,4,4,7617.10,-2.76,182296.74,6287.51,-2.69,181426.19,5144.14,-2.71,206159.22,4278.25,-2.76,55310.12,518.27,2.73,128584.65
179100,232.63,674.47,1.00,4,4,4,5092.14,-2.59,169308.58,2923.98,-2.47,215482.53,3547.32,-2.51,111169.40,4142.77,-2.66,27242.70,1991.98,-2.98,97594.24
208800,197.55,634.50,1.00,1,1,1,1790.73,-2.29,115277.70,1884.28,-2.08,46648.14,2222.61,-2.20,53661.45,3104.57,-2.55,37146.56,2553.39,-2.89,20031.79
224100,191.14,600.52,1.00,1,1,1,2259.83,-1.76,75853.21,1797.76,-1.61,56027.07,1686.05,-1.97,45144.15,2122.67,-2.45,66271.72,2695.71,-2.83,14257.93
246300,194.61,567.15,1.00,1,1,1,1511.44,-1.47,41402.00,1482.95,-1.80,19582.76,1273.27,-1.78,22494.95,1265.53,-2.44,38614.51,2199.33,-2.75,23955.97
261400,178.67,546.63,1.00,1,1,1,1720.49,-2.23,80816.20,745.24,-2.29,59451.09,569.93,-2.02,48502.20,819.50,-2.22,33321.05,1727.12,-2.61,36170.99
276400,179.83,550.27,1.00,1,1,1,254.52,1.26,130766.70,654.52,1.78,83428.28,759.35,2.31,73721.52,483.08,-1.93,25311.91,1027.50,-2.34,52262.22
291500,174.52,565.89,1.00,1,1,1,1092.90,1.90,59690.16,1762.97,1.88,73730.64,634.35,2.01,16263.29,198.56,-1.44,21329.70,642.34,-1.76,39912.53
306500,163.69,600.82,1.00,1,1,1,2437.79,1.87,89707.92,647.43,2.24,78531.89,362.81,1.79,19342.81,248.37,0.27,22653.81,616.58,-0.88,36094.82
321500,162.53,581.17,1.00,1,1,1,1311.92,-1.63,246317.39,793.13,-1.19,95075.06,329.90,0.40,29746.05,779.63,0.27,35417.54,785.58,-0.47,21987.62
343100,174.47,573.86,1.00,3,3,3,647.98,-0.55,53593.53,914.42,-0.21,37484.53,867.99,-0.36,30942.00,953.12,0.15,9352.71,900.99,-0.27,9301.48
357300,194.54,574.29,1.00,1,1,1,1413.56,0.02,65927.82,1259.00,0.05,31265.81,1532.25,-0.04,53359.66,1234.76,0.01,22623.96,913.25,-0.16,7250.40
385600,227.91,576.53,1.00,2,2,2,1181.91,0.07,8448.03,2064.96,0.02,28537.58,1671.16,-0.00,5473.36,1532.27,-0.13,12466.21,896.55,-0.05,3550.17
400000,282.70,575.86,1.00,3,3,3,3804.93,-0.01,182526.62,2016.72,-0.03,7301.28,1883.02,-0.03,15276.29,1679.44,-0.06,12448.90,944.51,0.04,6301.92
436600,330.72,573.65,1.00,1,1,1,1313.56,-0.05,68101.50,1737.97,-0.09,8175.77,2110.68,-0.05,6257.11,1665.04,-0.05,826.08,952.04,0.02,451.07
451900,372.56,568.10,1.00,1,1,1,2758.65,-0.13,95052.54,2219.98,-0.07,31595.67,1800.04,-0.08,20632.34,1568.38,-0.06,6589.06,1024.07,-0.02,5384.11
480800,428.62,567.04,1.00,1,1,1,1940.12,-0.02,29730.52,1873.15,-0.07,12002.07,1662.33,-0.10,4964.34,1467.13,-0.09,3811.47,1161.79,-0.10,5655.65
496100,455.18,562.71,1.00,1,1,1,1758.73,-0.16,20893.75,1020.03,-0.18,56716.53,1205.94,-0.12,29886.88,1115.37,-0.10,23010.30,1351.84,-0.03,13861.68
518900,466.86,560.08,1.00,1,1,1,524.98,-0.22,54171.21,435.52,-0.40,26422.41,567.80,-0.34,29120.52,971.20,-0.13,6414.00,1419.19,0.00,3356.04
533400,470.15,556.40,1.00,1,1,1,340.64,-0.84,21871.52,219.86,-2.00,34034.08,139.89,-0.67,30195.34,784.71,-0.07,13257.78,1444.14,0.00,1726.86
547400,464.25,554.38,1.00,1,1,1,444.81,-2.81,46930.13,271.76,3.07,20304.63,69.96,-1.89,9527.16,677.26,-0.02,8167.85,1460.95,0.00,1207.70
562000,462.40,556.98,1.00,1,1,1,218.64,2.19,29831.15,78.43,0.96,21859.90,213.94,0.28,17819.97,926.80,0.07,17720.91,1379.33,0.01,5687.55
576600,465.57,556.25,1.00,1,1,1,223.09,-0.22,28285.68,666.90,0.15,42164.53,836.77,0.20,42729.78,1116.81,0.09,13144.17,1429.15,0.03,3732.47
592000,482.19,559.88,1.00,1,1,1,1104.50,0.21,58922.18,1458.01,0.17,51388.84,1738.93,0.12,58900.63,1298.45,0.11,11844.71,1447.24,0.06,2803.67
613300,518.34,565.14,1.00,2,2,2,1714.93,0.14,29013.19,2608.40,0.11,54236.18,1923.04,0.12,8648.26,1470.15,0.11,8067.66,1458.24,0.08,1331.22
629000,578.09,570.73,1.00,2,2,2,3822.46,0.09,134499.21,2302.20,0.09,19866.02,2088.53,0.09,10927.49,1685.73,0.10,13761.87,1490.82,0.09,2689.86
658600,622.22,574.35,1.00,1,1,1,1495.89,0.08,78605.68,1649.43,0.07,22105.36,1988.17,0.08,3477.03,1881.32,0.11,6618.30,1490.22,0.10,552.27
672700,650.02,575.44,1.00,1,1,1,1972.86,0.04,34231.07,1591.03,0.07,4152.58,1641.46,0.09,24599.05,2088.42,0.10,14693.41,1612.09,0.11,8712.17
694400,679.05,578.23,1.00,1,1,1,1344.00,0.10,29292.03,1632.81,0.11,3816.77,1829.15,0.10,8699.13,2199.66,0.10,5128.05,1773.71,0.12,7452.50
708800,708.59,582.05,1.00,1,1,1,2068.58,0.13,50462.23,2118.81,0.13,33792.32,2088.72,0.12,18268.76,2028.29,0.11,11907.18,1832.04,0.11,4129.69
724000,741.27,586.08,1.00,1,1,1,2166.41,0.12,6490.17,2637.43,0.13,34119.80,2490.81,0.13,26480.51,1844.52,0.11,12114.35,1988.36,0.11,10287.99
738800,787.09,591.97,1.00,1,1,1,3121.20,0.13,64519.58,2862.83,0.13,15248.87,2545.28,0.12,3773.65,1906.38,0.12,4311.61,2009.52,0.11,1503.22
753600,825.30,597.05,1.00,1,1,1,2604.47,0.13,34923.91,2452.53,0.12,27776.04,1857.05,0.12,46501.88,2088.70,0.12,12324.97,1988.02,0.11,1471.16
768600,859.64,600.74,1.00,2,2,2,2303.00,0.11,20515.04,1287.90,0.12,77644.71,1760.12,0.12,6467.81,1968.46,0.12,8032.92,1751.38,0.11,15776.55
805900,892.21,604.78,1.00,3,3,3,879.74,0.12,38162.44,1367.84,0.12,2157.14,1800.20,0.12,1079.46,2089.05,0.12,3233.26,1627.89,0.11,3311.00
821200,931.06,609.49,1.00,1,1,1,2557.79,0.12,109677.04,2687.42,0.12,86247.32,1615.78,0.12,12057.01,1936.23,0.12,9996.21,1444.59,0.11,11984.34
836100,972.76,614.67,1.00,1,1,1,2820.54,0.12,17643.01,1904.36,0.11,52579.24,2342.76,0.11,48791.17,1800.72,0.11,9096.81,1344.27,0.11,6733.50
866400,1016.60,619.07,1.00,1,1,1,1454.02,0.10,45127.14,2109.99,0.11,6789.68,2128.49,0.11,7077.86,1518.51,0.11,9318.15,1278.05,0.11,2185.52
880800,1066.53,624.89,1.00,1,1,1,3490.48,0.12,141442.38,2462.84,0.11,24504.16,1801.35,0.11,22720.10,1405.14,0.10,7944.20,1245.13,0.11,2286.83
896700,1090.77,627.26,1.00,1,1,1,1532.32,0.10,123183.29,1360.57,0.11,69325.38,1379.19,0.10,26577.78,964.41,0.09,27733.32,1157.18,0.10,5540.27
912100,1108.86,629.51,1.00,1,1,1,1183.46,0.12,22765.45,513.72,0.04,55099.88,379.60,-0.01,65111.23,607.67,0.06,23212.68,986.99,0.10,11067.71
934600,1110.22,628.13,1.00,1,1,1,86.11,-0.79,50350.49,463.27,-2.85,43087.89,347.75,-2.89,32034.86,423.73,0.04,8181.48,767.34,0.10,9762.58
949100,1092.45,624.55,1.00,1,1,1,1250.36,-2.94,89635.25,1453.95,-2.98,68735.99,751.20,-2.94,27897.74,211.41,-0.01,14686.80,601.04,0.09,11470.06
963900,1068.17,621.34,1.00,1,1,1,1655.00,-3.01,28106.01,1110.15,-2.99,23244.37,683.89,-2.97,4770.79,195.84,-0.03,1081.26,290.08,0.08,21013.06
979100,1059.52,619.56,1.00,1,1,1,580.73,-2.94,70826.75,76.86,-0.00,78037.50,18.33,-0.02,46178.91,45.53,-0.92,11230.59,98.47,-3.00,25553.20
993600,1070.45,621.33,1.00,1,1,1,763.56,0.16,92689.59,1165.44,0.15,75136.20,791.39,0.11,53323.96,115.08,-2.86,9541.08,499.69,-3.03,27676.30
1008600,1093.54,624.54,1.00,1,1,1,1554.06,0.14,52727.97,1480.86,0.11,21217.53,796.59,0.10,700.22,209.39,-3.01,6478.50,878.37,-3.03,25245.41
1024400,1115.77,626.48,1.00,1,1,1,1412.29,0.09,10149.55,508.78,0.01,61799.11,293.25,0.09,31856.57,384.73,-3.05,11119.63,1122.81,-3.03,15471.13
1046000,1112.57,624.67,1.00,1,1,1,170.27,-2.63,72630.84,413.06,-3.01,42592.69,373.29,-3.02,30855.34,808.00,-3.06,19598.33,1380.85,-3.03,11946.68
1076200,1094.57,623.62,1.00,1,1,1,597.14,-3.08,14920.33,1101.36,-3.06,22823.80,1251.37,-3.04,29081.38,1320.50,-3.05,16974.61,1480.32,-3.04,3296.23
1091200,1062.94,620.71,1.00,2,2,2,2116.94,-3.05,101351.04,2685.09,-3.05,105587.64,2233.50,-3.06,65496.14,1809.99,-3.04,32644.15,1562.69,-3.04,5494.74
1106500,1013.53,616.38,1.00,2,2,2,3242.11,-3.05,73544.09,3933.62,-3.06,81606.78,3527.39,-3.05,84574.71,2160.19,-3.04,22892.36,1525.27,-3.04,2447.59
1121300,944.97,610.62,1.00,2,2,2,4648.50,-3.06,95030.42,4375.29,-3.05,29869.26,3589.36,-3.05,4314.67,2589.67,-3.05,29028.69,1510.84,-3.04,1015.15
1136600,882.36,604.57,1.00,3,3,3,4111.17,-3.05,35300.62,3306.47,-3.04,69924.99,3092.87,-3.04,32490.10,2678.18,-3.04,5818.62,1570.72,-3.04,3921.08
1157900,824.59,598.28,1.00,1,1,1,2728.56,-3.03,64939.92,2319.68,-3.03,46354.86,2923.92,-3.04,7943.66,2757.18,-3.04,3727.96,1771.60,-3.05,9432.06
1186500,767.37,591.38,1.00,1,1,1,2015.22,-3.02,24959.10,2603.53,-3.04,9947.23,2171.54,-3.03,26309.87,2453.61,-3.04,10616.58,2011.22,-3.05,8384.07
1201600,711.46,586.19,1.00,1,1,1,3718.50,-3.05,112907.94,2027.52,-3.04,38150.94,2168.76,-3.03,505.49,2082.82,-3.03,24559.11,2226.56,-3.05,14267.73
1237800,663.90,580.73,1.00,1,1,1,1322.33,-3.03,66205.79,1793.36,-3.02,6525.22,1916.45,-3.03,6971.83,1767.07,-3.04,8725.14,2455.99,-3.05,6337.75
1252200,621.35,575.42,1.00,1,1,1,2977.57,-3.02,114955.25,1786.79,-3.02,482.19,1368.14,-3.03,38079.55,1739.05,-3.05,2218.72,2279.12,-3.06,12290.33
1281700,586.00,571.52,1.00,1,1,1,1205.59,-3.03,60074.13,878.15,-3.04,30812.41,1262.49,-3.05,3708.09,1863.37,-3.06,4297.51,1989.06,-3.06,9838.98
1296100,582.99,571.64,1.00,2,2,2,209.59,3.10,69369.27,646.92,-3.14,16786.72,1244.83,-3.08,3056.18,1879.89,-3.06,1199.78,1617.28,-3.07,25823.51
1318900,561.94,571.41,1.00,3,3,3,923.30,-3.13,31320.05,1670.81,-3.11,44929.12,1791.67,-3.10,24024.13,2203.24,-3.07,14191.10,1190.52,-3.07,18720.14
1334000,519.70,569.42,1.00,1,1,1,2800.11,-3.09,124350.50,3179.33,-3.10,99915.22,2588.90,-3.09,52838.23,1788.07,-3.08,27556.23,734.09,-3.09,30249.67
1349600,464.44,566.92,1.00,1,1,1,3546.39,-3.10,47840.58,3730.22,-3.08,35491.16,3460.61,-3.08,55914.20,1447.52,-3.11,21992.69,205.71,3.07,34007.91
1364500,406.15,562.36,1.00,1,1,1,3923.72,-3.06,26626.41,3749.32,-3.06,4071.72,2383.73,-3.08,72280.56,1078.62,-3.14,24858.56,333.07,0.18,35898.48
1379600,352.30,558.21,1.00,1,1,1,3577.22,-3.06,22948.88,1452.55,-3.09,152163.49,1161.56,-3.12,81018.36,453.93,3.05,41620.48,780.63,0.13,29686.13
1408600,342.17,559.17,1.00,1,1,1,350.58,3.05,111459.30,355.80,0.35,61911.54,211.02,0.51,46621.34,521.94,0.23,33217.78,1131.09,0.12,12090.12
1431300,369.57,564.54,1.00,1,1,1,1229.75,0.19,69121.82,2129.76,0.15,78544.33,1824.19,0.13,71800.22,1534.63,0.12,44811.57,1448.68,0.11,13995.21
1446100,421.20,570.73,1.00,2,2,2,3513.56,0.12,154661.81,4468.63,0.10,158320.72,3745.75,0.11,129896.44,2648.86,0.10,75328.91,1427.20,0.11,1533.06
1460200,498.07,577.35,1.00,2,2,2,5472.35,0.09,139311.27,5802.74,0.09,94671.91,4499.04,0.09,53568.64,3153.80,0.10,35834.98,1487.03,0.10,4309.83
1475600,591.68,586.20,1.00,3,3,3,6105.34,0.09,41224.45,4518.50,0.09,83392.77,5360.30,0.09,55987.47,3915.02,0.09,49446.57,1495.34,0.09,891.35
1505500,701.91,596.02,1.00,1,1,1,3701.22,0.09,80409.88,5066.40,0.08,18373.59,4252.96,0.08,37035.28,4232.13,0.08,10643.42,1443.42,0.08,1785.49
1520000,815.85,604.84,1.00,1,1,1,7881.74,0.08,288344.00,4023.12,0.08,71961.94,4032.64,0.08,15246.56,3598.95,0.08,43690.87,1392.36,0.08,3547.03
1557800,911.66,612.59,1.00,1,1,1,2542.97,0.08,141238.07,3158.40,0.08,22876.41,3988.93,0.07,1313.54,3060.05,0.08,14261.58,1329.11,0.07,1678.01
1572500,981.17,617.66,1.00,1,1,1,4741.05,0.07,149540.69,3927.45,0.07,52373.29,2283.09,0.07,116052.79,2296.45,0.07,51977.71,1174.14,0.07,10556.14
1586800,1025.30,620.23,1.00,1,1,1,3091.30,0.06,115433.92,1293.35,0.04,184250.70,1531.32,0.04,52693.53,1359.96,0.04,65561.56,1043.33,0.06,9167.12
1618900,1041.14,620.09,1.00,1,1,1,493.21,-0.01,80978.38,86.64,-0.81,38573.69,119.58,-0.66,44928.64,227.14,-0.20,35538.59,1006.38,0.06,1156.48
1633900,1028.10,617.26,1.00,2,2,2,888.93,-2.93,91619.85,1791.66,-2.99,122822.22,1177.68,-2.99,84171.42,947.87,-2.97,77499.77,3060.05,0.08,136917.97
1648700,988.35,612.05,1.00,2,2,2,2708.93,-3.01,123282.02,2728.33,-3.02,63456.98,2814.01,-3.02,110634.57,1674.26,-3.02,49220.22,2296.45,0.07,51626.51
1671200,927.07,605.06,1.00,3,3,3,2741.24,-3.03,2488.81,3625.18,-3.03,39891.69,3760.34,-3.03,42094.57,2084.37,-3.03,18272.73,1359.96,0.04,41668.01
1686300,852.85,597.24,1.00,1,1,1,4942.40,-3.04,145786.96,5061.19,-3.04,95125.00,3317.44,-3.04,29396.43,2164.71,-3.05,5640.82,227.14,-0.20,75548.93
1700800,778.03,589.93,1.00,1,1,1,5184.98,-3.04,16937.10,3054.67,-3.05,138402.91,3117.58,-3.05,13985.74,3760.34,-3.03,110074.86,947.87,-2.97,80172.17
1730300,719.02,584.88,1.00,1,1,1,2007.65,-3.06,107714.10,1828.27,-3.07,41613.92,1574.67,-3.09,52369.62,3317.44,-3.04,15046.99,1674.26,-3.02,24693.53
1745400,696.68,584.31,1.00,1,1,1,1479.72,-3.12,35616.41,623.42,0.33,161325.78,1828.27,-3.07,16874.01,3117.58,-3.05,13430.01,2084.37,-3.03,27227.58
1760200,736.66,590.90,1.00,1,1,1,2737.70,0.16,284345.27,2737.70,0.16,143599.12,623.42,0.33,164595.90,1574.67,-3.09,104385.39,2164.71,-3.05,5755.16
