@RELATION gaze_labels

%@METADATA width_px 1920
%@METADATA height_px 1080
%@METADATA width_mm 540.00
%@METADATA height_mm 254.00
%@METADATA distance_mm 620.00


@ATTRIBUTE time INTEGER
@ATTRIBUTE x NUMERIC
@ATTRIBUTE y NUMERIC
@ATTRIBUTE confidence NUMERIC
@ATTRIBUTE handlabeller1 INTEGER
@ATTRIBUTE handlabeller2 INTEGER
@ATTRIBUTE handlabeller_final INTEGER
@ATTRIBUTE speed_1 numeric
@ATTRIBUTE direction_1 numeric
@ATTRIBUTE acceleration_1 numeric
@ATTRIBUTE speed_2 numeric
@ATTRIBUTE direction_2 numeric
@ATTRIBUTE acceleration_2 numeric
@ATTRIBUTE speed_4 numeric
@ATTRIBUTE direction_4 numeric
@ATTRIBUTE acceleration_4 numeric
@ATTRIBUTE speed_8 numeric
@ATTRIBUTE direction_8 numeric
@ATTRIBUTE acceleration_8 numeric
@ATTRIBUTE speed_16 numeric
@ATTRIBUTE direction_16 numeric
@ATTRIBUTE acceleration_16 numeric

%The number after speed, direction denotes the step size that was used for the calculation.
%Acceleration was calculated between two adjacent samples of the already low pass filtered velocity

@DATA
0,236.70,627.27,1.00,1,1,1,0.00,0.00,0.00,3109.19,3.11,0.00,1518.38,-3.13,0.00,454.84,-2.90,0.00,252.91,-2.60,0.00
14400,191.95,628.60,1.00,1,1,1,3109.19,3.11,215916.17,1518.38,-3.13,110651.94,195.06,-2.26,97285.45,287.42,-0.66,46711.55,151.49,-1.90,11644.59
36900,180.68,626.60,1.00,1,1,1,508.78,-2.97,116140.28,195.06,-2.26,62262.69,454.84,-2.90,14267.85,507.95,-0.44,10486.32,173.35,-2.21,2459.91
53000,187.18,622.78,1.00,1,1,1,468.30,-0.53,56938.08,451.48,-0.41,33457.10,287.42,-0.66,41779.27,326.77,-0.55,11600.78,285.40,-2.73,9883.62
83300,199.90,618.27,1.00,1,1,1,445.46,-0.34,2975.70,563.48,-0.36,3795.03,507.95,-0.44,7786.87,252.91,-2.60,16383.18,442.68,-2.92,5658.32
98100,210.98,613.89,1.00,1,1,1,805.36,-0.38,24361.08,596.22,-0.47,5008.94,326.77,-0.55,12619.77,151.49,-1.90,11329.87,453.06,-2.99,2210.21
113200,215.77,610.16,1.00,1,1,1,402.01,-0.66,28772.79,147.34,-1.37,34225.25,155.47,-1.48,17603.36,173.35,-2.21,3665.43,337.15,-2.99,7676.58
143300,212.34,607.37,1.00,1,1,1,147.08,-2.46,15219.34,297.65,-2.84,10609.00,346.10,-2.82,11432.47,285.40,-2.73,5286.59,105.92,-2.66,7960.39
165200,200.99,605.58,1.00,1,1,1,524.65,-2.99,18462.29,760.36,-3.05,21602.57,627.53,-3.03,13653.23,442.68,-2.92,7828.63,95.03,-1.36,5549.11
181000,183.80,604.72,1.00,1,1,1,1089.50,-3.09,36104.53,1197.56,-3.11,27944.06,992.17,-3.10,23335.23,453.06,-2.99,2070.32,370.69,-0.28,21302.49
196000,164.12,604.55,1.00,1,1,1,1311.91,-3.13,15198.65,1294.98,3.14,6946.67,1045.96,-3.13,3904.19,337.15,-2.99,7727.75,622.86,-0.17,17187.36
210100,146.11,604.78,1.00,1,1,1,1277.11,3.13,3145.32,882.91,3.14,29224.55,617.29,-3.13,30402.07,105.92,-2.66,16993.46,800.05,-0.13,12769.12
224600,138.87,604.57,1.00,1,1,1,499.90,-3.11,53650.00,52.78,-0.38,64289.68,31.84,-1.91,41858.07,299.72,-0.16,26873.18,1014.30,-0.10,14853.20
239700,147.57,604.20,1.00,1,1,1,576.53,-0.04,71242.24,535.10,-0.09,32097.78,644.44,-0.09,43251.69,842.32,-0.07,36071.55,1177.79,-0.09,10892.49
270500,163.33,602.31,1.00,1,1,1,515.33,-0.12,2411.57,983.15,-0.08,14549.58,1275.63,-0.06,20517.76,1437.56,-0.05,19337.11,1221.65,-0.08,1435.46
291600,198.43,600.08,1.00,2,2,2,1666.85,-0.06,54629.56,2231.02,-0.04,59196.57,1905.53,-0.05,29859.01,1921.61,-0.04,22942.28,1298.94,-0.08,3663.34
306100,242.67,598.80,1.00,2,2,2,3052.80,-0.03,95733.54,3580.85,-0.03,93127.97,3111.42,-0.04,83183.41,2399.43,-0.05,32953.11,1283.03,-0.09,1205.26
320200,300.79,596.92,1.00,1,1,1,4123.90,-0.03,75969.32,4199.81,-0.03,43899.31,3506.91,-0.03,28053.67,2749.13,-0.05,24805.20,1296.29,-0.09,942.08
334900,363.56,594.91,1.00,1,1,1,4272.63,-0.03,10118.23,3449.94,-0.04,51031.81,3804.29,-0.04,20299.76,2914.79,-0.05,11297.98,1253.19,-0.09,2932.43
357300,428.69,592.10,1.00,1,1,1,2910.13,-0.04,60850.83,3491.62,-0.05,2691.02,3785.91,-0.05,1417.49,2712.78,-0.06,9075.46,1287.66,-0.08,1569.61
371300,490.50,588.53,1.00,1,1,1,4422.23,-0.06,108071.57,4225.33,-0.06,52470.33,2756.46,-0.07,73646.27,2142.78,-0.08,40829.23,1318.40,-0.07,2315.14
385700,548.48,584.96,1.00,1,1,1,4033.92,-0.06,26989.14,2139.31,-0.09,144981.15,2062.86,-0.10,48421.41,1687.54,-0.10,31694.01,1429.45,-0.06,7844.45
414600,582.78,580.42,1.00,1,1,1,1197.12,-0.13,98303.08,878.31,-0.19,43916.24,1021.62,-0.17,36223.57,1110.02,-0.12,20029.21,1671.43,-0.03,8469.19
437300,592.96,576.28,1.00,1,1,1,484.31,-0.39,32536.34,183.04,-1.09,34243.54,286.78,-0.53,33471.86,740.20,-0.16,16356.31,1776.49,-0.02,4780.92
467400,587.25,571.86,1.00,1,1,1,239.98,-2.48,21239.30,479.80,-2.89,18326.83,269.78,-2.76,16611.89,426.46,-0.20,10446.40,1722.32,-0.01,1928.59
481800,572.26,571.04,1.00,1,1,1,1042.36,-3.09,59436.11,649.73,-3.10,14277.97,455.23,-3.04,14533.36,344.71,-0.12,6054.32,1689.95,0.01,2814.66
511800,558.43,570.69,1.00,1,1,1,461.37,-3.12,19378.04,441.32,3.09,7149.89,281.96,3.06,6182.87,572.03,0.05,7979.38,1615.37,0.03,2658.83
526700,552.48,572.11,1.00,1,1,1,410.58,2.91,8311.23,186.60,0.46,40971.11,461.60,0.18,49501.85,901.88,0.10,22282.09,1591.89,0.04,2499.50
548300,564.52,573.74,1.00,1,1,1,562.48,0.13,44303.80,1562.65,0.10,64349.03,1806.27,0.12,62298.74,1301.92,0.12,18534.41,1514.02,0.06,3782.34
563200,609.24,577.74,1.00,2,2,2,3013.19,0.09,164523.11,3866.25,0.10,154604.97,2768.43,0.10,64641.35,1711.24,0.11,27474.11,1441.44,0.08,5174.21
577200,675.67,585.16,1.00,2,2,2,4774.60,0.11,125953.85,4312.71,0.11,31901.59,3014.06,0.10,17582.42,2242.02,0.11,37912.83,1450.79,0.09,1810.44
591700,731.47,590.66,1.00,2,2,2,3866.92,0.10,62714.07,2475.21,0.09,126754.38,3061.56,0.10,3472.46,2589.94,0.11,24002.92,1481.92,0.11,2486.03
622900,788.29,595.67,1.00,1,1,1,1828.47,0.09,65341.21,2301.28,0.10,5605.99,2586.29,0.11,15240.98,2900.01,0.11,9942.42,1613.96,0.11,4252.65
638600,838.85,601.53,1.00,1,1,1,3241.52,0.12,90103.77,2723.92,0.13,27223.72,2450.26,0.12,8740.44,2839.54,0.11,3852.60,1619.64,0.11,368.63
660000,888.55,608.40,1.00,1,1,1,2344.48,0.14,42014.45,2644.53,0.13,3803.20,2772.16,0.12,15043.15,2461.34,0.10,17674.83,1834.18,0.11,10026.72
674700,933.47,614.18,1.00,1,1,1,3081.41,0.13,50160.58,2833.54,0.11,13769.30,2581.27,0.11,13016.13,2078.97,0.11,26013.66,1817.42,0.11,1309.74
689300,971.10,617.22,1.00,1,1,1,2585.55,0.08,35174.94,2503.32,0.09,22946.71,2285.16,0.10,20407.52,1977.98,0.11,6947.04,1914.37,0.11,6640.49
703400,1005.06,620.29,1.00,1,1,1,2418.23,0.09,11990.68,1738.87,0.09,54216.77,1619.37,0.09,47233.27,1521.73,0.11,32358.69,1815.24,0.11,7031.11
718700,1022.03,621.63,1.00,1,1,1,1112.84,0.08,85329.28,957.05,0.10,51113.29,1189.88,0.10,28080.40,1403.40,0.11,7750.13,1501.57,0.10,20514.13
741700,1041.53,623.98,1.00,2,2,2,853.76,0.12,11400.49,759.76,0.12,8608.93,683.42,0.12,22031.23,1114.30,0.10,12579.06,1293.43,0.10,9049.95
756200,1050.32,625.05,1.00,2,2,2,610.66,0.12,16766.14,443.36,0.15,21845.69,769.32,0.13,5954.24,1061.76,0.11,3650.32,1123.40,0.09,11734.00
785300,1060.65,626.80,1.00,1,1,1,360.18,0.17,8639.89,777.49,0.14,11484.26,760.44,0.11,523.57,940.67,0.10,4164.03,922.01,0.08,6925.32
800300,1084.29,629.67,1.00,1,1,1,1587.60,0.12,81861.86,1026.60,0.10,16739.83,972.60,0.11,14144.02,742.57,0.08,13246.26,796.51,0.07,8386.86
837300,1113.77,632.13,1.00,1,1,1,799.42,0.08,21333.47,1138.38,0.10,3022.89,1196.80,0.09,6085.01,600.27,0.07,3856.59,726.78,0.08,1889.12
852300,1143.21,635.38,1.00,1,1,1,1974.83,0.11,78393.14,1489.02,0.08,23411.64,721.46,0.04,31845.68,455.84,0.02,9740.22,752.20,0.11,2148.36
867600,1158.74,635.81,1.00,1,1,1,1014.98,0.03,63191.76,255.49,-0.25,81703.02,397.74,-0.05,21377.35,385.49,-0.02,4738.40,786.93,0.13,2438.86
897600,1154.43,632.53,1.00,1,1,1,180.33,-2.49,38873.18,369.40,-2.83,20033.17,235.36,-2.64,20360.53,275.66,-0.08,3714.09,859.71,0.14,2481.32
911600,1143.29,630.75,1.00,1,1,1,806.01,-2.98,46621.07,937.42,-2.93,40826.69,452.48,-2.86,16364.96,276.99,-0.01,1371.01,960.49,0.16,7306.57
926500,1127.92,626.93,1.00,1,1,1,1062.51,-2.90,18010.34,552.06,-2.89,25944.92,404.17,-2.90,3450.33,388.15,0.12,7922.51,1094.07,0.18,9019.67
948500,1123.55,625.70,1.00,1,1,1,206.43,-2.87,38918.46,32.04,-0.56,26119.24,141.40,0.13,24768.05,606.14,0.17,9982.88,1297.97,0.19,9279.17
962600,1128.91,626.32,1.00,1,1,1,382.03,0.12,41613.85,1037.49,0.21,71967.76,1091.14,0.21,67398.83,1008.44,0.20,28581.49,1451.22,0.20,10910.13
977000,1152.46,631.91,1.00,1,1,1,1681.38,0.23,90466.75,2453.81,0.22,98362.14,2080.11,0.20,68681.20,1386.10,0.21,26243.55,1640.19,0.20,13155.17
990900,1196.65,641.58,1.00,1,1,1,3254.20,0.22,113190.62,3087.42,0.20,45760.88,2167.58,0.21,6310.62,1854.42,0.22,33710.75,1612.27,0.21,2216.30
1006500,1241.71,650.10,1.00,2,2,2,2939.40,0.19,20949.47,2008.68,0.20,69153.26,2402.83,0.22,15151.22,2339.21,0.22,31077.45,1462.34,0.22,9632.63
1041800,1296.92,661.56,1.00,1,1,1,1597.49,0.20,38029.84,2004.13,0.23,1940.31,2468.18,0.23,1974.95,2774.06,0.23,12319.35,1417.40,0.23,1311.06
1057100,1340.43,673.30,1.00,1,1,1,2945.17,0.26,88478.75,3272.41,0.26,83026.40,2513.40,0.24,3275.61,2957.24,0.22,11980.46,1126.63,0.24,19022.59
1071000,1389.29,686.02,1.00,1,1,1,3632.67,0.25,49505.05,3231.25,0.24,5416.98,3498.27,0.24,70860.73,2772.34,0.23,13308.99,900.14,0.25,16336.07
1093000,1453.12,700.82,1.00,1,1,1,2978.10,0.23,30023.09,3676.35,0.23,20330.40,3638.48,0.23,6614.01,2197.66,0.23,26128.57,586.89,0.27,14256.17
1108200,1522.55,716.76,1.00,1,1,1,4686.98,0.23,112427.44,4137.86,0.22,30426.53,3139.27,0.22,32858.31,1830.91,0.24,24168.73,301.35,0.36,18939.45
1122300,1571.46,727.16,1.00,1,1,1,3546.18,0.21,81043.43,2455.08,0.22,119346.64,1835.51,0.22,92465.06,896.72,0.27,66306.21,71.39,2.63,24926.09
1137400,1592.51,732.42,1.00,1,1,1,1436.87,0.25,139790.49,372.41,0.25,137942.33,381.82,0.25,96285.18,81.23,0.91,55174.11,441.38,-3.06,25464.13
1168400,1588.08,731.48,1.00,1,1,1,146.21,-2.93,51064.33,901.35,-2.94,41075.21,923.27,-2.98,42064.11,878.10,-2.98,30294.66,790.39,-3.02,11281.38
1184600,1550.79,724.07,1.00,1,1,1,2346.39,-2.95,135814.78,2064.19,-2.96,71801.15,2015.17,-2.96,67420.19,1793.66,-2.96,56540.92,1226.50,-3.00,26943.10
1220700,1481.81,712.46,1.00,2,2,2,1937.85,-2.97,11451.52,3042.12,-2.96,27089.41,2968.81,-2.95,26425.00,2581.15,-2.95,21816.38,1475.59,-2.99,6912.56
1235800,1397.48,696.62,1.00,2,2,2,5682.58,-2.96,248030.58,4009.01,-2.94,64248.21,3524.32,-2.95,36790.40,3149.11,-2.95,37613.77,1684.78,-2.98,13866.90
1266200,1303.03,676.24,1.00,3,3,3,3178.27,-2.93,82464.02,4075.93,-2.94,2203.89,4765.56,-2.95,40839.25,3722.45,-2.96,18864.73,1878.20,-2.98,6372.53
1280600,1218.54,660.22,1.00,1,1,1,5971.99,-2.95,194156.92,5944.51,-2.95,129793.21,4635.00,-2.95,9088.69,3900.36,-2.96,12379.70,1995.23,-2.97,8195.81
1295400,1132.65,643.05,1.00,1,1,1,5917.92,-2.94,5405.48,5461.86,-2.95,32671.42,4824.31,-2.96,13497.50,4211.14,-2.96,21000.35,1995.80,-2.96,678.57
1310900,1055.94,629.41,1.00,1,1,1,5027.01,-2.97,57967.37,3957.35,-2.97,97249.06,4439.42,-2.97,24894.47,3723.72,-2.97,31477.24,1898.18,-2.96,6299.58
1333100,985.54,618.20,1.00,1,1,1,3210.79,-2.98,81877.01,3596.05,-2.98,16330.16,3593.43,-2.98,38191.83,3256.23,-2.98,21120.02,2011.47,-2.96,5103.29
1347600,925.63,608.46,1.00,1,1,1,4185.91,-2.98,67254.75,3123.85,-2.99,32635.30,2687.69,-3.00,62600.26,2271.10,-2.98,67945.73,1975.43,-2.96,2488.31
1362300,895.35,604.55,1.00,1,1,1,2076.99,-3.01,143615.53,1548.82,-3.05,107526.98,1474.88,-3.03,82601.58,1239.31,-2.99,70207.60,1943.21,-2.96,2198.11
1376800,880.59,604.41,1.00,1,1,1,1018.21,-3.13,73982.27,190.34,0.78,117243.42,198.66,0.51,114460.76,435.59,-3.05,55502.93,1740.60,-2.97,13987.00
1391900,899.36,608.51,1.00,1,1,1,1272.55,0.22,150916.26,1877.68,0.18,114195.21,1115.51,0.19,61533.01,28.75,1.86,28541.49,1597.03,-2.98,9630.64
1406700,935.87,614.21,1.00,1,1,1,2496.62,0.15,83024.88,1876.99,0.15,3795.80,1369.31,0.17,17226.10,263.24,0.25,17952.92,1418.65,-2.99,12067.31
1429200,968.64,618.66,1.00,1,1,1,1469.56,0.14,45678.18,1079.25,0.17,35478.72,1056.69,0.16,13909.96,334.49,0.21,3224.41,1147.68,-3.00,12058.90
1459100,991.65,623.55,1.00,1,1,1,786.80,0.21,22990.16,365.13,0.21,23903.98,317.26,0.14,24733.61,234.19,0.20,3354.93,965.26,-3.00,6103.04
1473400,984.41,622.07,1.00,1,1,1,516.57,-2.94,91143.99,1074.66,-2.95,100680.01,370.90,-2.98,48119.74,196.90,-3.05,30099.40,784.12,-3.02,12695.83
1487800,961.36,617.71,1.00,1,1,1,1628.92,-2.95,77251.70,1458.48,-2.96,26668.90,1341.54,-2.98,67406.09,697.34,-3.00,34776.26,656.29,-3.03,8900.81
1503300,941.51,614.26,1.00,1,1,1,1300.22,-2.97,21252.72,1592.71,-3.00,9612.22,1711.96,-3.00,23960.83,1069.25,-3.00,23994.54,663.62,-3.03,483.28
1518400,913.09,611.02,1.00,2,2,2,1894.30,-3.03,39812.58,1915.55,-3.03,21523.79,1909.19,-3.00,13064.51,1521.10,-2.99,29945.72,731.17,-3.03,4473.34
1540800,870.16,605.92,1.00,2,2,2,1929.88,-3.02,1636.36,2168.82,-3.00,11479.00,1698.86,-3.00,9389.79,1480.98,-3.00,1953.14,925.44,-3.03,8673.17
1555700,832.96,599.88,1.00,3,3,3,2529.26,-2.98,40725.00,1517.79,-2.98,43768.79,1650.80,-2.99,3652.37,1434.32,-3.01,3234.57,1183.47,-3.04,17327.48
1585500,803.17,595.16,1.00,1,1,1,1012.07,-2.98,50912.86,1219.97,-2.97,10015.52,1307.23,-3.00,11534.38,1516.08,-3.01,2745.54,1506.52,-3.04,10844.98
1600500,779.13,590.44,1.00,1,1,1,1633.62,-2.95,41557.00,1097.96,-3.02,8917.78,1103.30,-3.01,13646.78,1560.50,-3.01,3017.40,1872.67,-3.05,24413.37
1630400,754.27,588.96,1.00,1,1,1,832.96,-3.08,27285.06,1005.89,-3.06,3386.53,1334.45,-3.02,7732.37,1612.51,-3.02,1821.40,2084.25,-3.06,7111.20
1653100,726.41,585.89,1.00,1,1,1,1234.40,-3.03,17825.60,1615.36,-3.01,26945.61,1471.88,-3.04,6300.31,1644.45,-3.05,2252.52,2157.48,-3.07,3381.69
1668200,693.70,581.24,1.00,1,1,1,2188.55,-3.00,63282.14,2289.14,-3.03,44687.44,2014.30,-3.05,35928.92,1986.81,-3.07,22779.85,2146.91,-3.08,1297.02
1683100,658.14,578.51,1.00,1,1,1,2393.48,-3.07,16975.50,2510.88,-3.08,16414.32,2526.64,-3.08,34634.17,2225.77,-3.09,16263.50,2152.15,-3.08,773.15
1698700,617.27,576.29,1.00,2,2,2,2623.31,-3.09,15159.09,2768.79,-3.11,17579.00,2888.68,-3.10,23596.88,2829.90,-3.09,38747.44,2093.06,-3.09,3848.15
1713000,575.39,576.09,1.00,2,2,2,2929.27,-3.14,23441.42,3279.34,-3.12,35746.57,3266.77,-3.11,26580.08,3099.13,-3.10,18936.70,1842.07,-3.09,17572.84
1728300,520.23,574.27,1.00,2,2,2,3607.15,-3.11,44707.87,3761.45,-3.12,31534.27,3768.42,-3.12,32849.37,2882.65,-3.12,14327.81,1703.87,-3.10,9048.61
1743100,462.21,573.12,1.00,3,3,3,3921.14,-3.12,21482.98,4251.00,-3.12,33169.02,3606.33,-3.12,10954.08,2841.39,-3.12,3014.49,1517.88,-3.10,12581.48
1758300,392.72,572.09,1.00,1,1,1,4572.21,-3.13,42854.58,3482.60,-3.13,50560.24,2878.67,-3.13,47884.38,2632.57,-3.13,13762.29,1422.77,-3.10,6257.48
1780800,330.92,571.33,1.00,1,1,1,2746.51,-3.13,81142.97,2094.50,-3.13,61693.86,2532.92,-3.13,15370.04,2041.99,-3.13,26248.24,1300.04,-3.11,5464.85
1810800,282.76,570.87,1.00,1,1,1,1605.50,-3.13,38034.24,1737.32,-3.13,11907.56,1812.05,-3.13,24029.73,1460.22,-3.13,19393.62,1375.08,-3.12,2560.68
1825800,252.75,570.69,1.00,1,1,1,2000.96,-3.14,26367.73,1317.80,-3.14,27973.66,860.98,-3.14,63406.64,907.15,-3.13,36873.09,2841.39,-3.12,97754.55
1840800,243.23,570.77,1.00,1,1,1,634.69,3.13,91091.20,21.00,0.41,89138.28,39.22,2.94,54840.79,331.10,3.14,38406.24,2632.57,-3.13,13945.79
1870600,253.61,571.07,1.00,1,1,1,348.51,0.03,32988.11,695.57,0.02,22692.29,724.60,0.02,25600.77,34.62,0.20,12249.34,2041.99,-3.13,19818.30
1893100,279.60,571.51,1.00,1,1,1,1155.27,0.02,35857.40,1564.87,0.02,38635.80,1153.57,0.02,19066.10,11.39,2.32,1851.05,1460.22,-3.13,25858.16
1908200,312.44,572.00,1.00,1,1,1,2175.20,0.01,67545.79,1952.01,0.02,25638.84,1009.30,0.02,9554.20,724.60,0.02,48489.48,907.15,-3.13,36628.90
1923100,338.15,572.41,1.00,1,1,1,1725.83,0.02,30159.56,543.03,0.02,94563.89,27.52,0.33,65984.24,1153.57,0.02,28791.09,331.10,3.14,38664.00
1953000,336.76,572.54,1.00,1,1,1,46.70,3.05,59272.41,1260.70,-3.14,60323.17,543.03,0.02,17287.21,1009.30,0.02,4825.03,34.62,0.20,12208.37
1968000,281.55,572.18,1.00,1,1,1,3681.07,-3.14,242307.90,3681.07,-3.14,161358.71,1260.70,-3.14,120244.18,27.52,0.33,65544.35,11.39,2.32,2776.58
