@RELATION gaze_labels

%@METADATA width_px 1920
%@METADATA height_px 1080
%@METADATA width_mm 540.00
%@METADATA height_mm 254.00
%@METADATA distance_mm 620.00


@ATTRIBUTE time INTEGER
@ATTRIBUTE x NUMERIC
@ATTRIBUTE y NUMERIC
@ATTRIBUTE confidence NUMERIC
@ATTRIBUTE handlabeller1 INTEGER
@ATTRIBUTE handlabeller2 INTEGER
@ATTRIBUTE handlabeller_final INTEGER
@ATTRIBUTE speed_1 numeric
@ATTRIBUTE direction_1 numeric
@ATTRIBUTE acceleration_1 numeric
@ATTRIBUTE speed_2 numeric
@ATTRIBUTE direction_2 numeric
@ATTRIBUTE acceleration_2 numeric
@ATTRIBUTE speed_4 numeric
@ATTRIBUTE direction_4 numeric
@ATTRIBUTE acceleration_4 numeric
@ATTRIBUTE speed_8 numeric
@ATTRIBUTE direction_8 numeric
@ATTRIBUTE acceleration_8 numeric
@ATTRIBUTE speed_16 numeric
@ATTRIBUTE direction_16 numeric
@ATTRIBUTE acceleration_16 numeric

%The number after speed, direction denotes the step size that was used for the calculation.
%Acceleration was calculated between two adjacent samples of the already low pass filtered velocity

@DATA
0,28.77,503.97,1.00,4,4,4,0.00,0.00,0.00,20154.62,0.20,0.00,12045.36,0.36,0.00,8608.39,0.59,0.00,4476.21,0.77,0.00
14900,322.87,564.66,1.00,4,4,4,20154.62,0.20,1352659.33,12045.36,0.36,567431.44,6410.10,0.68,424196.43,5754.19,0.88,235717.78,2550.88,1.12,150777.09
44000,525.31,689.28,1.00,4,4,4,8169.00,0.55,439305.22,6410.10,0.68,217200.23,8608.39,0.59,79386.23,4723.33,1.16,61219.92,1051.00,2.01,70711.79
81000,651.16,832.53,1.00,4,4,4,5153.64,0.85,96724.96,6407.86,0.96,48268.88,5754.19,0.88,94924.19,3676.31,1.55,51917.79,1862.23,-2.80,55365.07
95800,714.60,961.94,1.00,4,4,4,9737.93,1.12,334586.46,5298.82,1.24,130713.35,4723.33,1.16,120371.59,4476.21,0.77,214162.59,3292.28,-2.47,111577.62
125700,728.80,1056.31,1.00,4,4,4,3191.44,1.42,226218.03,3238.33,1.63,87767.76,3676.31,1.55,64246.09,2550.88,1.12,75136.41,4357.88,-2.31,40910.96
139800,705.92,1104.17,1.00,4,4,4,3762.32,2.02,149732.37,2971.20,2.57,200162.62,1916.51,2.50,212317.59,1051.00,2.01,145937.11,4743.26,-2.18,49194.48
154400,657.01,1102.31,1.00,4,4,4,3352.98,-3.10,268666.53,3447.37,-2.73,209405.35,3477.26,-2.75,205864.29,1862.23,-2.80,140308.73,4536.94,-2.10,29963.89
175900,591.93,1054.24,1.00,4,4,4,3763.17,-2.51,99241.27,5242.79,-2.37,109221.41,4404.44,-2.38,78646.65,3292.28,-2.47,76806.92,774.67,0.04,232461.69
191000,519.35,968.63,1.00,4,4,4,7432.73,-2.27,256108.55,5416.78,-2.21,58633.52,5653.56,-2.22,98632.92,4357.88,-2.31,81009.12,80.26,-2.51,55811.60
221000,446.63,857.85,1.00,4,4,4,4417.24,-2.15,103194.89,6074.98,-2.11,28587.25,6342.06,-2.17,24723.76,4743.26,-2.18,23121.41,858.37,-2.68,25976.59
235600,379.79,736.39,1.00,1,1,1,9495.31,-2.07,349519.37,7505.78,-2.14,98968.73,5276.23,-2.12,76415.10,4536.94,-2.10,29963.89,1650.24,-2.55,55177.17
257100,300.19,629.87,1.00,1,1,1,6185.07,-2.21,161690.11,4583.25,-2.12,136051.14,5247.90,-2.01,25742.68,3990.76,-2.09,25465.21,2225.52,-2.46,28062.34
287000,256.65,535.56,1.00,1,1,1,3474.07,-2.00,96274.05,3568.44,-1.79,56206.76,3527.68,-1.90,59687.14,3044.77,-2.05,31952.19,2643.63,-2.39,15043.21
301900,265.73,473.76,1.00,1,1,1,4192.22,-1.42,153851.79,2566.71,-1.16,143090.35,1557.87,-1.70,135859.16,2306.57,-2.10,50213.32,2508.09,-2.31,16773.70
316600,287.29,466.04,1.00,1,1,1,1557.67,-0.34,253217.10,1558.55,1.13,257052.47,787.49,0.29,136963.29,1563.78,-2.24,53827.29,2320.22,-2.22,18779.02
331300,285.17,515.25,1.00,1,1,1,3351.20,1.61,285369.46,2833.92,1.40,94913.67,1387.37,1.45,87837.71,1005.84,-2.43,41115.78,1858.16,-2.11,35036.04
346300,301.37,549.02,1.00,1,1,1,2496.57,1.12,109578.12,1369.10,1.74,107085.46,1550.35,2.08,61780.32,651.92,3.12,45547.46,1410.30,-1.96,34388.02
367900,276.78,564.66,1.00,1,1,1,1348.85,2.58,124663.80,1768.76,3.04,89127.95,1413.24,2.91,55608.87,688.38,2.39,22054.01,982.60,-1.61,27400.77
382900,236.97,555.67,1.00,1,1,1,2720.88,-2.92,134148.47,2916.79,-2.82,99733.24,1911.55,-3.05,48290.30,677.99,2.23,7691.00,736.43,-0.86,44488.70
398100,193.24,536.73,1.00,1,1,1,3135.29,-2.73,45005.03,2167.06,-2.86,49703.90,1140.30,-2.85,54278.14,182.03,1.59,35691.89,1035.70,-0.19,42624.15
412900,174.59,537.35,1.00,1,1,1,1260.71,3.11,139698.02,74.23,1.29,149193.32,209.78,-2.12,67159.19,293.69,0.02,23314.12,1455.57,0.10,37099.28
443500,194.19,539.96,1.00,1,1,1,646.06,0.13,62120.79,1196.70,0.09,38287.60,938.13,0.09,35195.26,1004.42,-0.04,23254.93,1632.22,0.23,8660.44
458300,228.71,542.18,1.00,1,1,1,2337.17,0.06,114403.89,1728.23,0.06,36039.82,1786.92,0.07,57377.63,1831.70,0.04,56352.67,1659.74,0.24,2068.52
495900,284.60,545.21,1.00,2,2,2,1488.57,0.05,22574.47,2293.66,0.07,15042.92,2920.61,0.07,30151.30,2612.07,0.08,20950.83,1789.86,0.14,5757.79
511200,349.78,550.10,1.00,2,2,2,4272.59,0.07,181993.75,4963.04,0.08,174515.14,3608.71,0.08,44989.55,3138.10,0.08,34393.33,1855.58,0.08,7673.33
526500,435.94,557.85,1.00,1,1,1,5653.77,0.09,90401.69,5936.02,0.09,63625.85,5336.14,0.08,112906.38,3587.83,0.08,29400.83,2054.80,0.06,13371.20
541100,526.57,565.88,1.00,1,1,1,6231.81,0.09,39595.51,5723.15,0.08,14928.58,5385.59,0.08,3410.25,3380.53,0.08,14198.74,2193.89,0.07,9712.03
556000,604.22,571.52,1.00,1,1,1,5225.09,0.07,67840.18,4822.20,0.08,60494.31,4423.15,0.08,64607.80,3866.29,0.08,32616.82,2397.25,0.10,14214.33
570300,666.97,576.55,1.00,1,1,1,4402.48,0.08,57579.66,3381.06,0.08,100779.02,3146.45,0.07,89292.71,3698.57,0.09,11873.50,2664.11,0.10,18664.08
592800,728.28,581.00,1.00,1,1,1,2731.93,0.07,74255.71,2196.34,0.07,52659.91,2768.93,0.08,16794.54,3250.85,0.09,19918.95,2936.25,0.10,12096.66
621800,779.81,584.46,1.00,1,1,1,1780.80,0.07,32800.15,2253.47,0.08,2175.40,2463.20,0.10,10643.61,2587.00,0.10,22897.39,3072.15,0.10,4688.75
636500,826.42,589.06,1.00,1,1,1,3186.77,0.10,95778.92,2936.67,0.13,47169.10,2200.29,0.12,18313.00,2166.38,0.11,28711.72,3323.12,0.10,17085.90
651000,864.85,595.41,1.00,1,1,1,2686.24,0.16,36943.81,2129.25,0.18,56343.74,1905.72,0.15,20773.30,2158.88,0.13,2323.22,3029.78,0.11,20234.96
666700,889.71,600.44,1.00,1,1,1,1615.46,0.20,68369.82,1087.33,0.20,66396.07,1439.36,0.20,30071.36,2307.40,0.14,9517.50,2675.53,0.11,22566.12
687700,903.97,603.30,1.00,2,2,2,692.49,0.20,43951.44,859.83,0.23,10930.67,1794.10,0.18,16909.98,2734.52,0.14,20338.85,2142.69,0.11,25377.96
702600,919.76,607.50,1.00,2,2,2,1096.67,0.26,27365.69,2664.72,0.18,121253.37,2406.59,0.15,41398.52,2811.65,0.14,5176.66,1420.40,0.12,48485.53
717500,982.13,617.34,1.00,3,3,3,4237.43,0.16,211318.10,3662.78,0.13,67599.85,3399.19,0.13,66725.45,2461.35,0.13,23526.01,783.82,0.14,42748.65
746900,1080.56,629.23,1.00,1,1,1,3372.41,0.12,29791.16,3819.30,0.11,6095.10,3913.70,0.12,17551.71,2180.21,0.13,9565.57,117.62,0.45,22876.99
769900,1181.03,639.51,1.00,1,1,1,4390.90,0.10,44386.54,4205.68,0.10,16845.37,2918.45,0.11,43296.83,1726.54,0.13,19728.72,565.37,-3.14,29282.06
785100,1240.35,645.87,1.00,1,1,1,3925.45,0.11,30652.35,1874.12,0.10,153392.33,1961.05,0.10,62994.51,808.60,0.14,60392.22,1139.74,-3.10,37854.03
815100,1265.27,648.37,1.00,1,1,1,834.79,0.10,103022.61,21.35,-0.05,61767.09,129.43,-3.10,69675.93,350.76,-3.07,38628.76,1625.85,-3.08,16219.30
829300,1241.30,645.83,1.00,1,1,1,1697.92,-3.04,178359.73,3262.49,-3.04,231240.56,1854.82,-3.04,121522.21,1962.33,-3.04,113500.31,1964.88,-3.07,23898.98
844000,1171.45,639.06,1.00,2,2,2,4773.88,-3.04,209256.33,3449.36,-3.04,12740.14,4294.45,-3.04,165961.67,3707.48,-3.04,118719.50,2261.34,-3.07,20173.09
881300,1062.87,627.45,1.00,2,2,2,2927.41,-3.04,49513.18,4868.00,-3.04,38034.00,5963.39,-3.04,44744.17,4923.01,-3.05,32588.47,2234.20,-3.06,776.57
896000,919.69,612.67,1.00,3,3,3,9792.12,-3.04,466989.12,10502.62,-3.04,383312.16,6976.85,-3.04,68959.50,6409.37,-3.05,101116.70,2429.15,-3.06,13293.93
910100,761.92,597.15,1.00,1,1,1,11243.41,-3.04,102988.73,10745.59,-3.05,18228.54,9942.88,-3.05,210374.67,6534.86,-3.05,8924.69,2851.16,-3.05,29937.27
925100,608.33,583.80,1.00,1,1,1,10277.98,-3.05,64879.59,9406.08,-3.06,89427.30,9299.98,-3.05,43038.15,6496.32,-3.05,2632.38,3241.77,-3.05,26042.27
940100,480.77,573.09,1.00,1,1,1,8534.19,-3.06,116266.35,7902.75,-3.06,100271.45,7228.83,-3.06,138101.76,6122.11,-3.05,24962.10,3349.18,-3.05,7162.10
955200,371.22,564.83,1.00,1,1,1,7275.64,-3.07,83466.36,5444.28,-3.06,162815.05,5906.43,-3.06,87583.01,5084.80,-3.06,68708.45,3634.31,-3.05,18884.46
976700,282.11,557.61,1.00,1,1,1,4158.11,-3.06,145008.38,4232.63,-3.06,56356.95,3348.77,-3.06,118961.23,3880.95,-3.06,56001.26,3555.80,-3.05,3651.46
991100,219.74,552.79,1.00,1,1,1,4343.91,-3.06,12952.62,1621.39,-3.06,181336.15,1985.01,-3.06,94706.10,2729.48,-3.06,79966.26,3036.90,-3.05,36037.18
1021100,210.34,551.92,1.00,1,1,1,314.62,-3.05,134311.28,175.93,-3.10,48186.44,880.13,-3.08,36832.94,1697.93,-3.07,34387.17,2604.92,-3.06,14401.42
1035700,211.90,552.46,1.00,1,1,1,113.03,0.34,29123.62,222.83,0.21,27213.23,67.56,0.28,64815.01,989.62,-3.07,48516.31,1650.61,-3.06,65368.30
1051000,216.85,553.33,1.00,1,1,1,328.66,0.17,14238.42,422.01,0.13,13116.98,307.94,0.16,15749.67,441.57,-3.07,35820.16,817.45,-3.07,54457.96
1066100,224.62,554.17,1.00,1,1,1,517.05,0.11,12606.89,377.49,0.13,2948.61,215.34,0.09,6243.19,227.45,0.13,44290.34,97.15,-3.10,47705.19
1087800,230.62,555.19,1.00,2,2,2,280.65,0.17,10942.95,44.30,-0.26,15528.89,48.02,-0.14,7786.13,735.54,0.10,23420.80,520.54,0.08,28463.00
1102200,226.16,553.77,1.00,2,2,2,325.01,-2.83,41955.02,362.64,-2.93,27958.07,376.44,0.11,22924.23,1064.57,0.10,22852.81,1061.87,0.07,37594.18
1117700,220.03,552.89,1.00,1,1,1,399.97,-3.00,6185.02,646.58,0.13,65056.13,1090.34,0.09,46064.65,1439.00,0.09,24168.87,1564.87,0.07,32451.69
1147000,254.89,557.48,1.00,1,1,1,1200.19,0.13,54612.31,1947.47,0.10,44408.97,1577.03,0.10,16613.29,1771.82,0.08,11365.39,1929.70,0.07,12451.67
1168300,318.04,563.10,1.00,1,1,1,2976.35,0.09,83471.28,2214.67,0.09,12611.10,2184.28,0.09,28516.18,2235.18,0.07,21763.35,2156.61,0.07,10653.15
1212400,399.14,570.58,1.00,2,2,2,1846.79,0.09,25614.03,2346.42,0.08,3023.24,2731.04,0.08,12416.97,2635.81,0.07,9085.44,2268.29,0.07,2532.51
1242300,491.09,577.26,1.00,3,3,3,3083.59,0.07,41393.94,3377.19,0.07,34503.42,3068.59,0.07,11320.12,3050.73,0.07,13878.58,2347.16,0.07,2638.41
1264700,575.37,582.32,1.00,1,1,1,3769.24,0.06,30668.00,4529.52,0.06,51481.27,4070.28,0.06,44753.31,3440.55,0.07,17411.15,2299.39,0.07,2164.86
1278900,656.62,586.41,1.00,1,1,1,5728.99,0.05,138047.03,5316.47,0.05,55485.49,4693.16,0.05,43923.30,3343.57,0.06,6869.84,2419.76,0.07,8484.84
1293800,729.91,589.64,1.00,1,1,1,4923.38,0.04,54112.47,4898.42,0.04,28075.70,4881.28,0.05,12628.35,3723.81,0.06,25528.67,2493.63,0.08,5083.44
1308100,799.51,592.74,1.00,1,1,1,4872.42,0.04,3568.17,4443.16,0.06,32040.48,3806.75,0.05,75143.80,3669.92,0.06,3803.18,2728.77,0.08,16456.09
1322700,858.12,596.75,1.00,1,1,1,4023.34,0.07,58595.81,2933.73,0.06,103406.72,3288.60,0.06,35553.11,3052.80,0.06,42302.54,2927.00,0.09,13579.67
1344600,906.38,599.58,1.00,1,1,1,2207.39,0.06,82930.62,2359.32,0.07,26241.51,2643.88,0.07,29458.62,2671.71,0.07,17451.90,2788.80,0.09,6326.41
1358600,942.61,602.72,1.00,1,1,1,2597.55,0.09,28274.33,2280.46,0.08,5775.46,1746.09,0.09,64217.23,2309.19,0.09,26141.16,2779.89,0.09,680.12
1373700,972.54,604.77,1.00,2,2,2,1986.64,0.07,40549.84,1260.06,0.12,67758.94,1670.49,0.12,5888.50,2314.73,0.11,2426.41,2637.48,0.09,9437.66
1403800,999.13,609.68,1.00,3,3,3,898.65,0.18,36500.86,1280.39,0.17,1931.37,1544.70,0.15,4511.29,2316.39,0.12,850.33,2329.53,0.09,10235.30
1418900,1029.62,614.30,1.00,1,1,1,2041.84,0.15,75763.78,1889.80,0.17,40366.95,2055.05,0.15,33798.90,2156.72,0.14,10806.34,2014.80,0.10,20859.20
1441200,1068.75,621.88,1.00,1,1,1,1787.51,0.19,11934.32,3006.73,0.15,50170.14,3017.76,0.14,43185.20,1927.59,0.14,10275.24,1779.52,0.11,10572.45
1455700,1139.08,630.43,1.00,1,1,1,4886.15,0.12,214179.11,4489.42,0.13,102381.27,2611.54,0.15,28027.85,1800.12,0.14,8825.40,1463.42,0.12,21829.17
1469900,1196.57,638.09,1.00,1,1,1,4084.45,0.13,56574.55,2270.95,0.15,156308.77,2330.20,0.13,20077.22,1704.30,0.14,6785.88,1276.68,0.13,13173.36
1498400,1234.99,644.75,1.00,1,1,1,1368.01,0.17,95368.99,1088.35,0.13,41502.29,1536.38,0.13,27853.76,1464.44,0.14,8416.70,1123.65,0.14,5396.14
1519800,1250.40,645.35,1.00,1,1,1,720.46,0.04,30879.55,679.01,0.06,19340.73,781.77,0.12,35263.78,1291.05,0.13,8124.74,895.33,0.15,10676.91
1534900,1259.73,646.31,1.00,1,1,1,621.04,0.10,7160.27,435.90,0.10,16142.36,418.43,0.07,24141.09,746.78,0.13,36047.50,665.96,0.16,15211.36
1564000,1269.58,647.18,1.00,1,1,1,339.85,0.09,9665.08,230.54,0.09,7057.18,283.96,0.11,4645.54,405.20,0.14,11738.91,483.29,0.17,6277.92
1585500,1271.34,647.39,1.00,1,1,1,82.62,0.12,11966.31,102.42,0.20,6008.11,96.12,0.18,8750.10,138.64,0.16,12399.38,270.10,0.19,9923.36
1600900,1273.28,647.94,1.00,1,1,1,130.85,0.27,3311.33,56.62,2.93,10130.27,33.72,2.77,8194.57,179.72,-3.09,20642.77,10.87,2.28,17898.16
1631000,1268.82,647.92,1.00,1,1,1,148.16,-3.14,9184.51,140.65,3.10,2837.41,192.48,3.08,5338.56,511.38,-3.05,11028.80,381.16,-3.04,12460.97
1645500,1267.01,648.17,1.00,1,1,1,125.93,3.00,2021.58,409.11,3.12,18515.59,688.90,-3.06,34402.49,836.60,-3.04,22432.64,683.56,-3.03,20861.42
1659700,1257.08,648.22,1.00,1,1,1,699.23,3.14,40467.41,1527.90,-3.05,79060.05,1495.43,-3.04,56827.34,1012.38,-3.03,12380.51,958.54,-3.02,19371.80
1674700,1222.59,644.04,1.00,1,1,1,2316.40,-3.02,108330.67,2517.88,-3.02,66108.83,1820.73,-3.03,21722.85,1345.86,-3.03,22237.60,1129.33,-3.02,11388.81
1690300,1180.61,638.85,1.00,2,2,2,2711.62,-3.02,25338.20,2048.56,-3.02,30090.64,1765.14,-3.02,3713.26,1794.25,-3.02,28746.77,1241.46,-3.02,7187.94
1712300,1146.17,634.35,1.00,2,2,2,1578.41,-3.01,51513.01,1309.02,-3.02,33615.94,1946.45,-3.02,8242.88,1975.23,-3.02,8230.92,1414.69,-3.02,7874.05
1740800,1115.01,630.66,1.00,1,1,1,1101.10,-3.02,16756.65,1857.58,-3.02,19247.68,2014.30,-3.02,2382.58,2149.42,-3.02,6121.18,1470.05,-3.02,1942.86
1755500,1066.54,624.48,1.00,1,1,1,3324.26,-3.01,151239.43,3197.58,-3.01,91159.23,2102.39,-3.02,5993.07,2120.41,-3.02,1975.08,1612.47,-3.02,9688.15
1770900,1019.54,618.43,1.00,1,1,1,3076.66,-3.01,16079.30,2380.73,-3.01,53042.49,2611.14,-3.01,33036.64,2007.75,-3.02,7315.60,1864.15,-3.02,16343.03
1793500,976.81,612.91,1.00,1,1,1,1906.51,-3.01,51776.72,2139.17,-3.01,10688.49,2328.03,-3.01,12526.97,2022.41,-3.02,662.56,2125.12,-3.02,11547.36
1808300,940.19,608.21,1.00,1,1,1,2494.45,-3.01,39725.74,2260.61,-3.01,8208.42,1999.93,-3.02,22170.42,1968.59,-3.02,3638.25,2149.42,-3.02,1922.09
1823200,910.21,604.43,1.00,1,1,1,2028.35,-3.02,31283.93,1826.93,-3.02,29110.47,1913.99,-3.02,5786.09,1900.93,-3.02,4553.60,2120.41,-3.02,1948.57
1838400,885.62,601.46,1.00,2,2,2,1629.50,-3.02,26247.50,1573.15,-3.02,16710.90,1391.11,-3.02,34405.01,1929.30,-3.02,1899.58,2007.75,-3.02,7411.85
1853400,863.02,598.90,1.00,2,2,2,1516.08,-3.03,7600.54,1099.64,-3.03,31572.18,1516.53,-3.03,8373.90,2267.32,-3.02,22535.85,2022.41,-3.02,998.26
1883400,836.44,596.01,1.00,1,1,1,891.43,-3.03,20822.46,1478.54,-3.03,12630.15,1871.67,-3.03,11838.26,1391.11,-3.02,29207.08,1968.59,-3.02,1794.87
1898400,796.88,591.66,1.00,1,1,1,2652.78,-3.03,117423.28,2795.65,-3.03,87808.04,2487.59,-3.03,41062.43,1516.53,-3.03,8373.90,1900.93,-3.02,4523.24
1921000,731.98,584.25,1.00,1,1,1,2890.49,-3.03,10529.63,3376.20,-3.03,25693.39,2795.65,-3.03,13632.99,1871.67,-3.03,15714.50,1929.30,-3.02,1277.59
1949500,625.52,571.68,1.00,1,1,1,3761.37,-3.02,30560.47,3761.37,-3.02,13515.98,3376.20,-3.03,20374.41,2487.59,-3.03,21611.81,2267.32,-3.02,11860.97
