@RELATION gaze_labels

%@METADATA width_px 1920
%@METADATA height_px 1080
%@METADATA width_mm 540.00
%@METADATA height_mm 254.00
%@METADATA distance_mm 620.00


@ATTRIBUTE time INTEGER
@ATTRIBUTE x NUMERIC
@ATTRIBUTE y NUMERIC
@ATTRIBUTE confidence NUMERIC
@ATTRIBUTE handlabeller1 INTEGER
@ATTRIBUTE handlabeller2 INTEGER
@ATTRIBUTE handlabeller_final INTEGER
@ATTRIBUTE speed_1 numeric
@ATTRIBUTE direction_1 numeric
@ATTRIBUTE acceleration_1 numeric
@ATTRIBUTE speed_2 numeric
@ATTRIBUTE direction_2 numeric
@ATTRIBUTE acceleration_2 numeric
@ATTRIBUTE speed_4 numeric
@ATTRIBUTE direction_4 numeric
@ATTRIBUTE acceleration_4 numeric
@ATTRIBUTE speed_8 numeric
@ATTRIBUTE direction_8 numeric
@ATTRIBUTE acceleration_8 numeric
@ATTRIBUTE speed_16 numeric
@ATTRIBUTE direction_16 numeric
@ATTRIBUTE acceleration_16 numeric

%The number after speed, direction denotes the step size that was used for the calculation.
%Acceleration was calculated between two adjacent samples of the already low pass filtered velocity

@DATA
0,232.38,547.13,1.00,1,1,1,0.00,0.00,0.00,395.54,2.31,0.00,299.51,2.30,0.00,133.82,2.12,0.00,118.50,0.34,0.00
29100,224.59,555.61,1.00,1,1,1,395.54,2.31,13592.50,299.51,2.30,3303.78,75.37,2.00,7857.84,109.78,-0.21,7691.29,210.62,-0.04,3778.67
50700,222.26,558.45,1.00,1,1,1,170.33,2.26,10447.32,75.37,2.00,10586.26,133.82,2.12,2760.73,243.14,-0.38,6304.23,274.79,-0.05,2972.85
64700,223.48,558.05,1.00,1,1,1,91.98,-0.32,18058.03,180.61,-0.45,17395.42,109.78,-0.21,15986.89,307.01,-0.30,4816.55,284.28,0.01,1465.10
79200,226.88,556.19,1.00,1,1,1,267.30,-0.50,12252.08,309.38,-0.45,8880.59,243.14,-0.38,9391.13,118.50,0.34,15407.13,291.32,0.07,1137.43
93600,231.52,554.13,1.00,1,1,1,352.26,-0.42,6151.21,293.40,-0.34,2592.16,307.01,-0.30,4682.76,210.62,-0.04,7636.07,373.58,0.09,5730.25
115100,236.81,552.67,1.00,1,1,1,255.31,-0.27,4955.08,310.45,-0.18,2459.56,338.92,-0.16,2608.32,274.79,-0.05,2986.68,421.43,0.06,2282.25
129400,242.46,552.20,1.00,1,1,1,396.77,-0.08,10733.03,408.55,0.01,8291.50,294.90,0.01,4764.94,284.28,0.01,1434.37,439.47,0.07,1296.81
143500,248.41,552.81,1.00,1,1,1,424.05,0.10,5720.63,290.18,0.17,9265.14,317.70,0.15,3494.19,291.32,0.07,1169.70,286.78,0.11,10869.91
172300,254.73,554.34,1.00,3,3,3,225.63,0.24,7040.78,270.64,0.27,1164.84,286.26,0.24,1429.62,373.58,0.09,2865.12,299.96,-0.02,1322.94
193900,261.56,556.45,1.00,1,1,1,330.95,0.30,4938.56,284.03,0.30,699.69,269.77,0.25,777.63,421.43,0.06,2271.68,293.54,-0.05,514.43
225000,269.05,558.69,1.00,1,1,1,251.44,0.29,2557.68,268.93,0.23,752.71,449.81,0.13,5936.69,439.47,0.07,596.28,242.21,-0.02,1669.47
240000,273.63,559.28,1.00,1,1,1,307.79,0.13,4832.13,751.84,0.03,32766.59,513.08,0.01,5822.00,424.72,0.05,1070.25,120.85,0.13,8275.69
255000,291.59,559.30,1.00,1,1,1,1197.84,0.00,59556.46,772.95,-0.07,5135.14,623.78,-0.02,7469.78,377.78,-0.00,3485.01,57.53,2.47,11067.28
284900,308.25,556.84,1.00,1,1,1,562.96,-0.15,21616.00,551.93,-0.06,7395.39,614.76,-0.05,596.11,310.49,-0.04,2296.38,186.68,2.82,4481.48
307800,320.68,557.54,1.00,1,1,1,543.97,0.06,4972.57,427.64,0.00,5590.60,315.56,-0.20,13403.01,194.92,-0.07,5054.79,309.49,2.90,5422.57
322700,324.41,556.89,1.00,1,1,1,254.04,-0.17,20290.50,175.62,-2.40,38256.95,52.33,-0.80,18391.23,57.00,2.91,16867.62,372.12,2.91,4224.51
336900,316.91,554.10,1.00,1,1,1,563.61,-2.79,55861.05,471.66,-2.96,23607.89,413.23,-3.11,31688.10,459.28,3.06,28380.09,393.31,2.89,1626.07
352300,310.69,554.30,1.00,1,1,1,403.95,3.11,15823.13,699.38,3.01,18893.86,803.93,3.07,25684.92,863.88,3.03,26298.94,332.92,2.85,4038.74
366300,296.52,556.77,1.00,2,2,2,1027.41,2.97,44997.41,1038.26,2.99,24245.44,1237.27,3.03,31088.13,1240.47,3.03,26904.50,196.62,2.63,10500.60
396900,264.93,561.36,1.00,2,2,2,1043.34,3.00,1082.49,1541.44,3.03,16531.50,1611.00,3.01,12235.62,1374.65,3.02,4409.83,103.73,1.04,7336.92
418300,216.87,565.72,1.00,3,3,3,2254.97,3.05,56749.24,2301.83,3.02,35539.62,1828.93,3.01,10184.98,1285.81,2.97,5154.17,236.64,0.34,7987.42
433900,180.37,571.55,1.00,1,1,1,2369.23,2.98,12454.87,2316.76,2.99,4476.93,2013.64,3.00,11881.00,1018.77,2.93,17426.34,408.16,0.18,11460.42
449000,146.54,576.31,1.00,1,1,1,2262.76,3.00,7609.51,1652.19,2.97,44079.90,1357.45,2.91,44673.05,558.68,2.77,31432.52,523.14,0.08,8107.33
463300,132.49,579.69,1.00,1,1,1,1010.75,2.91,88143.54,396.62,2.37,94073.65,329.46,2.42,75386.96,255.31,0.78,49166.34,664.37,0.05,10000.98
477700,138.40,584.27,1.00,1,1,1,519.37,0.66,96931.01,894.34,0.19,81014.72,1127.91,0.14,94853.28,1018.25,0.12,57734.93,778.55,0.05,7929.17
499400,164.18,585.82,1.00,2,2,2,1190.36,0.06,37585.63,2219.51,0.03,61995.71,2385.03,0.03,58450.79,1747.38,0.02,34134.45,893.98,0.04,5322.10
514200,219.38,586.39,1.00,2,2,2,3729.92,0.01,171738.06,4226.02,-0.01,135736.05,2703.96,-0.00,22588.91,2070.02,-0.02,22412.27,1046.86,0.03,10344.36
528900,288.85,585.09,1.00,2,2,2,4726.36,-0.02,68283.49,3095.66,-0.02,77009.66,3511.33,-0.03,55225.26,2450.12,-0.03,26006.11,1319.56,0.03,18556.73
559500,359.58,583.18,1.00,3,3,3,2312.33,-0.03,78895.15,3040.52,-0.06,3859.89,2729.74,-0.06,25696.42,2429.51,-0.04,978.91,1610.51,0.03,9508.29
573500,424.24,577.38,1.00,1,1,1,4636.83,-0.09,166674.30,2399.18,-0.10,46713.59,2502.07,-0.08,16706.03,2478.08,-0.04,3469.72,1876.72,0.03,19014.85
609000,477.69,570.81,1.00,1,1,1,1517.17,-0.12,87912.11,2019.73,-0.11,10702.08,2191.33,-0.09,8759.82,2364.40,-0.04,3203.18,2017.88,0.03,3977.91
623100,523.78,566.09,1.00,1,1,1,3285.39,-0.10,125446.54,1954.85,-0.06,8792.98,1724.18,-0.06,33303.38,2168.61,-0.03,14008.33,2185.98,0.03,11921.98
652300,562.19,565.75,1.00,1,1,1,1315.49,-0.01,67788.67,1447.75,0.01,17796.03,1940.16,-0.01,7952.74,2136.44,-0.01,1881.65,2366.17,0.02,6171.37
675000,598.91,566.67,1.00,1,1,1,1618.35,0.02,13516.38,1928.36,0.04,21284.93,1798.17,0.05,8032.66,1989.09,0.03,7513.37,2483.60,0.03,5175.93
690400,635.61,568.50,1.00,1,1,1,2385.69,0.05,49929.20,2390.44,0.09,30767.23,2081.99,0.10,19498.69,1968.36,0.07,5448.44,2392.12,0.03,5944.79
705900,672.50,573.03,1.00,2,2,2,2398.27,0.12,11160.64,2287.60,0.16,13191.81,2470.85,0.14,25898.09,1939.05,0.10,3967.32,2234.65,0.03,10181.39
720200,702.89,579.49,1.00,2,2,2,2172.15,0.21,21071.34,2566.61,0.20,20408.75,2015.55,0.16,32023.56,2307.09,0.11,25770.75,2155.20,0.04,5643.50
734200,743.73,587.26,1.00,3,3,3,2969.81,0.19,57107.05,1833.78,0.16,52590.41,2086.63,0.15,5670.85,2507.20,0.11,14306.63,1953.82,0.05,14491.01
764800,783.57,592.87,1.00,1,1,1,1314.81,0.14,54174.03,1835.36,0.11,3377.47,2493.89,0.12,13490.45,2443.00,0.11,2099.59,1855.08,0.06,3337.72
787600,841.17,597.83,1.00,1,1,1,2535.52,0.09,53715.12,3287.39,0.08,63736.43,2534.37,0.09,3238.54,2329.85,0.11,5007.00,1588.84,0.08,11715.75
802100,905.75,603.21,1.00,1,1,1,4469.65,0.08,133389.46,3791.98,0.08,34837.22,2924.80,0.07,27120.85,2182.81,0.09,10344.41,1519.42,0.08,4829.49
817300,953.45,606.58,1.00,1,1,1,3145.67,0.07,87160.21,2465.32,0.06,87371.27,2672.44,0.06,16711.36,1914.86,0.07,17829.17,1253.25,0.09,17522.70
831500,978.11,607.41,1.00,1,1,1,1737.83,0.03,99327.67,1531.06,0.03,65903.28,1755.83,0.05,64591.82,1723.53,0.05,13706.11,1024.42,0.10,16146.23
846400,997.98,607.92,1.00,1,1,1,1334.02,0.03,27114.05,1058.54,0.03,31713.19,1043.41,0.01,47932.00,1179.65,0.03,36557.93,689.44,0.10,22481.61
861400,1009.75,608.31,1.00,1,1,1,784.90,0.03,36611.35,568.12,-0.04,32863.45,536.85,-0.06,33941.28,679.82,-0.01,33425.26,364.03,0.08,21707.81
876200,1014.90,607.31,1.00,1,1,1,354.56,-0.19,30150.13,142.12,-0.58,30598.61,118.71,-0.50,29231.02,157.46,-0.23,35616.13,29.84,-2.55,26368.92
898800,1014.19,605.38,1.00,1,1,1,91.14,-1.93,16823.83,181.09,-2.70,12482.10,134.00,-2.54,9531.95,216.08,-2.93,16147.05,383.45,-2.99,15786.60
927800,1006.46,603.29,1.00,1,1,1,275.77,-2.88,8100.28,317.33,-2.91,5004.78,362.49,-2.97,8515.75,611.27,-3.02,13675.31,785.78,-3.02,13883.55
942000,1000.85,602.18,1.00,1,1,1,402.76,-2.95,9088.00,554.42,-3.06,17264.37,747.40,-3.07,27357.07,1089.47,-3.04,33686.36,1156.48,-3.03,26111.06
978900,978.24,600.84,1.00,1,1,1,613.93,-3.08,6008.71,1116.03,-3.11,15259.31,1214.35,-3.07,12654.94,1591.05,-3.05,13599.74,1389.65,-3.04,6324.36
993000,943.97,600.19,1.00,2,2,2,2430.83,-3.12,128904.68,1968.88,-3.08,60560.46,1905.37,-3.07,49012.18,1991.18,-3.06,28384.71,1568.87,-3.04,12713.71
1023600,890.41,595.25,1.00,2,2,2,1757.84,-3.05,22536.64,2799.40,-3.05,27229.66,3312.09,-3.06,45972.07,2490.80,-3.06,16328.03,1681.69,-3.04,3693.93
1038100,818.26,588.56,1.00,3,3,3,4997.43,-3.05,223419.98,5404.61,-3.06,179678.14,3434.16,-3.05,8792.31,2732.01,-3.06,16637.08,1737.04,-3.05,3846.60
1052300,735.87,581.94,1.00,1,1,1,5820.60,-3.06,58156.20,4227.21,-3.06,82915.56,4355.16,-3.05,64860.31,2983.91,-3.06,17739.92,1780.81,-3.05,3156.49
1074200,666.21,575.48,1.00,1,1,1,3194.19,-3.05,119952.19,3539.00,-3.05,31465.71,3925.08,-3.05,19646.73,2961.81,-3.05,1382.33,1841.43,-3.06,2811.34
1089200,605.87,569.57,1.00,1,1,1,4042.45,-3.04,56563.86,3567.79,-3.04,2735.50,2692.49,-3.05,82174.22,3019.52,-3.05,3858.26,1894.97,-3.07,3648.99
1104700,557.97,564.28,1.00,1,1,1,3108.57,-3.03,60318.32,2008.99,-3.05,100575.66,2455.91,-3.04,15281.28,2504.07,-3.05,33262.64,1870.10,-3.07,1646.07
1134900,514.48,560.78,1.00,1,1,1,1444.97,-3.06,55125.92,1707.32,-3.05,9989.07,1869.70,-3.05,19413.79,2004.50,-3.06,16543.93,2040.40,-3.07,5639.45
1150000,480.98,556.94,1.00,1,1,1,2232.75,-3.03,52325.58,1660.99,-3.05,3072.60,1358.45,-3.07,33920.24,1656.64,-3.07,23064.32,2072.87,-3.07,2151.91
1165400,464.04,556.05,1.00,1,1,1,1101.76,-3.09,73706.83,936.04,-3.11,47336.28,1154.57,-3.09,13371.13,1218.09,-3.09,28535.33,2129.46,-3.07,3692.57
1187300,446.09,555.82,1.00,1,1,1,819.81,-3.13,12989.49,732.48,3.12,9550.24,746.94,3.12,18851.83,973.27,-3.11,11228.50,1840.10,-3.08,13214.55
1201700,437.46,556.74,1.00,2,2,2,602.55,3.04,16165.74,508.86,3.00,16231.21,473.14,3.01,19547.15,1047.25,-3.11,5159.18,1514.40,-3.08,22619.86
1216300,431.47,557.84,1.00,2,2,2,417.15,2.96,12960.81,183.39,2.49,24712.85,545.93,3.06,5241.17,1127.08,-3.13,5645.77,1132.02,-3.09,26198.20
1231200,433.16,560.03,1.00,3,3,3,185.51,0.91,35483.19,570.84,3.09,29030.94,959.55,-3.14,28059.40,1271.77,-3.13,9722.96,691.22,-3.11,29608.41
1260900,406.04,559.10,1.00,1,1,1,913.71,-3.11,35086.99,1425.54,-3.09,28926.83,1439.30,-3.12,16167.63,1201.47,-3.12,2387.73,279.99,3.09,13908.98
1282900,359.54,556.54,1.00,1,1,1,2116.67,-3.09,54695.74,2511.43,-3.10,49364.02,1926.01,-3.10,22191.58,1043.47,-3.12,7184.33,182.56,0.29,20736.03
1297100,315.20,555.54,1.00,1,1,1,3123.88,-3.12,71173.09,2812.18,-3.10,21179.52,1799.78,-3.09,8945.75,675.72,-3.12,25902.68,595.44,0.15,29251.70
1312100,277.49,553.36,1.00,1,1,1,2517.95,-3.08,40928.90,1226.37,-3.07,105787.89,1136.21,-3.09,44239.23,270.06,3.11,27081.04,925.31,0.12,22025.61
1342000,260.26,551.73,1.00,1,1,1,578.68,-3.05,64875.15,44.07,-2.75,39621.01,74.05,0.07,40476.23,395.13,0.16,22151.95,1296.61,0.11,12429.53
1356800,275.67,552.60,1.00,1,1,1,1042.61,0.06,109528.98,1635.25,0.07,113317.07,1121.68,0.08,70785.63,1348.01,0.10,64453.03,1549.57,0.10,17111.30
1379400,321.27,555.98,1.00,1,1,1,2023.42,0.07,43413.06,2127.73,0.08,21814.59,2603.34,0.08,65562.19,2149.44,0.08,35474.76,1744.72,0.10,8643.70
1408500,385.30,561.59,1.00,2,2,2,2208.82,0.09,6445.14,3443.58,0.09,45221.72,3610.83,0.08,34621.57,2910.72,0.08,26161.36,1820.76,0.09,2636.02
1422500,469.12,569.00,1.00,3,3,3,6010.12,0.09,271521.59,6218.86,0.08,198246.98,4279.18,0.08,47740.39,3918.72,0.08,71999.62,2032.85,0.09,15160.81
1437900,567.54,576.41,1.00,3,3,3,6408.88,0.08,26419.68,5250.01,0.08,62920.14,5539.77,0.08,81856.95,4266.55,0.08,22586.63,2158.11,0.08,8148.34
1459600,663.30,584.26,1.00,1,1,1,4427.64,0.08,91316.09,4988.25,0.08,12106.62,5506.24,0.08,1592.75,4564.54,0.08,13732.55,2117.94,0.08,1891.13
1474100,747.49,591.34,1.00,1,1,1,5827.23,0.08,96525.86,5827.42,0.08,57873.83,5062.64,0.08,30596.27,4767.24,0.08,13992.22,2174.97,0.08,3941.77
1489200,835.20,598.51,1.00,1,1,1,5827.61,0.08,905.43,5150.66,0.08,44826.38,4947.90,0.08,7601.13,4121.43,0.08,42778.23,2294.07,0.08,7886.80
1504700,904.59,604.00,1.00,1,1,1,4491.19,0.08,86224.99,4083.00,0.08,68882.42,3924.03,0.08,66066.45,3103.14,0.08,65697.67,2163.26,0.08,8439.30
1519300,957.71,608.20,1.00,1,1,1,3649.65,0.08,57639.52,2651.77,0.07,98050.60,2584.68,0.07,91755.30,2081.61,0.07,69968.72,2082.08,0.08,5560.95
1534200,982.63,609.47,1.00,1,1,1,1674.43,0.05,132648.32,1082.46,0.03,105428.35,1123.49,0.05,98101.97,1328.56,0.07,50547.60,2021.08,0.08,4094.33
1549300,990.17,609.13,1.00,1,1,1,500.11,-0.05,77986.90,119.87,-2.64,78839.00,43.34,-2.29,76416.31,588.68,0.04,49016.44,1821.58,0.08,13212.65
1570800,978.78,607.36,1.00,1,1,1,536.21,-2.99,47963.15,685.36,-3.04,26825.56,605.15,-3.02,26679.13,43.61,-0.41,25575.20,1523.10,0.08,13883.15
1600300,955.40,605.56,1.00,1,1,1,794.83,-3.06,8928.75,1015.61,-3.06,11204.50,909.68,-3.04,10340.96,290.81,-3.00,11138.37,1353.62,0.08,5745.03
1614900,934.16,603.52,1.00,1,1,1,1461.85,-3.05,45707.67,1302.83,-3.05,19682.12,854.26,-3.06,3854.80,332.20,-3.03,2905.22,1065.55,0.08,19731.60
1629400,917.66,602.02,1.00,1,1,1,1142.73,-3.05,22012.95,657.70,-3.05,44493.33,611.15,-3.05,16766.91,173.13,-3.05,10975.02,769.07,0.07,20449.22
1651100,910.44,601.43,1.00,2,2,2,333.62,-3.06,37287.05,56.88,-3.14,27698.15,4.66,1.35,28229.44,161.43,0.11,15416.96,369.46,0.05,18423.08
1665700,915.59,602.01,1.00,2,2,2,355.05,0.11,47163.34,802.14,0.10,58819.49,719.41,0.10,49175.88,621.55,0.09,31519.07,290.81,-3.00,45170.72
1680900,934.22,603.82,1.00,1,1,1,1231.61,0.10,57672.47,1664.72,0.09,56750.60,1264.99,0.09,35894.57,836.25,0.09,14125.06,332.20,-3.03,2790.54
1695500,964.98,606.69,1.00,1,1,1,2115.64,0.09,60551.23,1577.77,0.09,5964.27,1703.68,0.09,30048.88,925.58,0.09,6122.80,173.13,-3.05,10899.85
1725000,1003.51,610.18,1.00,1,1,1,1311.58,0.09,27256.80,1729.67,0.09,5151.76,1413.81,0.09,9827.79,682.20,0.08,8255.36,161.43,0.11,11340.61
1740200,1041.99,613.53,1.00,1,1,1,2541.11,0.09,80891.64,1272.88,0.08,30056.20,1067.90,0.08,22765.23,1703.68,0.09,67211.92,621.55,0.09,30274.89
1776300,1068.59,615.61,1.00,1,1,1,738.91,0.08,49923.59,489.22,0.05,21717.30,151.55,-0.07,25435.81,1413.81,0.09,8031.02,836.25,0.09,5947.40
1791300,1066.96,614.89,1.00,1,1,1,118.93,-2.72,56799.71,1797.52,-3.02,152398.01,489.22,0.05,22617.38,1067.90,0.08,23068.77,925.58,0.09,5959.53
1805900,1015.75,609.37,1.00,1,1,1,3527.71,-3.03,233878.58,3527.71,-3.03,118519.55,1797.52,-3.02,156573.29,151.55,-0.07,62892.65,682.20,0.08,16680.35
