@RELATION gaze_labels

%@METADATA width_px 1920
%@METADATA height_px 1080
%@METADATA width_mm 540.00
%@METADATA height_mm 254.00
%@METADATA distance_mm 620.00


@ATTRIBUTE time INTEGER
@ATTRIBUTE x NUMERIC
@ATTRIBUTE y NUMERIC
@ATTRIBUTE confidence NUMERIC
@ATTRIBUTE handlabeller1 INTEGER
@ATTRIBUTE handlabeller2 INTEGER
@ATTRIBUTE handlabeller_final INTEGER
@ATTRIBUTE speed_1 numeric
@ATTRIBUTE direction_1 numeric
@ATTRIBUTE acceleration_1 numeric
@ATTRIBUTE speed_2 numeric
@ATTRIBUTE direction_2 numeric
@ATTRIBUTE acceleration_2 numeric
@ATTRIBUTE speed_4 numeric
@ATTRIBUTE direction_4 numeric
@ATTRIBUTE acceleration_4 numeric
@ATTRIBUTE speed_8 numeric
@ATTRIBUTE direction_8 numeric
@ATTRIBUTE acceleration_8 numeric
@ATTRIBUTE speed_16 numeric
@ATTRIBUTE direction_16 numeric
@ATTRIBUTE acceleration_16 numeric

%The number after speed, direction denotes the step size that was used for the calculation.
%Acceleration was calculated between two adjacent samples of the already low pass filtered velocity

@DATA
0,191.33,546.45,1.00,1,1,1,0.00,0.00,0.00,3096.08,-3.04,0.00,2209.93,-3.05,0.00,946.80,-3.09,0.00,33.28,2.17,0.00
15400,143.89,541.71,1.00,1,1,1,3096.08,-3.04,201043.89,2209.93,-3.05,57574.00,661.76,-3.14,100736.05,92.89,0.74,66256.85,340.10,0.17,23065.78
30200,124.85,540.56,1.00,1,1,1,1288.59,-3.08,122244.86,661.76,-3.14,104819.95,946.80,-3.09,19392.00,583.15,0.19,34193.46,501.97,0.13,10997.71
45200,124.17,541.58,1.00,1,1,1,81.63,2.16,83277.90,318.37,0.32,64617.43,92.89,0.74,68023.70,646.15,0.15,4523.88,527.20,0.10,1888.33
60600,134.02,543.65,1.00,1,1,1,653.96,0.21,44724.46,638.75,0.18,21241.69,583.15,0.19,32861.25,33.28,2.17,42936.76,508.18,0.07,1677.58
84100,148.62,545.98,1.00,1,1,1,629.09,0.16,1702.08,798.63,0.15,6873.97,646.15,0.15,2887.58,340.10,0.17,15115.44,550.77,0.07,1815.72
98500,163.97,548.05,1.00,1,1,1,1075.45,0.13,31029.34,653.04,0.12,10178.50,661.54,0.12,1557.97,501.97,0.13,11303.20,612.71,0.06,4331.99
128900,177.66,549.55,1.00,1,1,1,453.01,0.11,20482.52,547.23,0.10,3520.92,541.73,0.10,3975.38,527.20,0.10,931.74,879.92,0.07,8795.21
143800,188.65,550.41,1.00,2,2,2,739.68,0.08,19279.60,431.46,0.06,7865.56,442.39,0.06,6758.20,508.18,0.07,1733.87,590.68,0.11,19497.15
173900,197.04,550.68,1.00,3,3,3,279.04,0.03,15318.69,337.85,0.01,3168.03,407.28,0.02,1288.01,550.77,0.07,1417.59,946.23,0.10,11814.53
188900,203.88,550.56,1.00,1,1,1,456.14,-0.02,11862.87,378.36,-0.02,2814.00,353.57,-0.04,3938.91,612.71,0.06,4158.71,1248.07,0.10,20124.85
210600,210.92,550.36,1.00,1,1,1,324.61,-0.03,6065.19,374.57,-0.10,1325.55,563.53,0.04,9815.11,879.92,0.07,12321.40,1489.91,0.09,11146.45
224700,217.23,549.24,1.00,1,1,1,454.01,-0.18,10003.36,793.78,0.08,30490.02,845.66,0.06,20026.10,1211.95,0.08,23566.55,1696.34,0.09,14641.30
240300,234.43,552.16,1.00,1,1,1,1118.49,0.17,45361.39,1409.22,0.10,39498.00,1531.97,0.09,44061.11,1671.87,0.08,29482.35,1875.11,0.09,11459.61
255000,259.69,553.71,1.00,1,1,1,1721.72,0.06,42246.58,2272.74,0.09,58757.47,2383.59,0.11,57994.09,2138.00,0.09,31713.66,2022.95,0.09,10073.73
269900,301.40,558.48,1.00,1,1,1,2817.83,0.11,73974.13,3394.69,0.11,75373.66,2784.24,0.09,27046.25,2746.69,0.09,40854.51,2224.80,0.08,13571.54
284200,358.19,564.81,1.00,1,1,1,3995.76,0.11,82375.89,3197.92,0.09,14484.95,3413.51,0.10,44008.69,3217.48,0.10,32946.92,2178.23,0.08,3260.32
306500,417.95,569.30,1.00,2,2,2,2687.13,0.08,58918.74,3428.67,0.08,10439.69,3815.43,0.09,18035.03,3324.89,0.10,4817.96,2267.60,0.08,4010.19
322000,487.35,575.59,1.00,2,2,2,4495.78,0.09,116736.53,4549.23,0.09,72321.24,3939.96,0.09,8038.96,3568.82,0.09,15748.54,2201.03,0.08,4307.86
337300,557.48,582.05,1.00,3,3,3,4603.38,0.09,7047.85,4565.63,0.10,2165.32,3792.77,0.10,9831.72,3551.86,0.09,2296.77,2102.42,0.08,6455.90
352900,627.76,589.30,1.00,1,1,1,4528.73,0.10,5782.87,3283.12,0.11,82238.01,3706.11,0.09,5763.83,3078.47,0.08,30361.76,2107.25,0.09,1010.81
383000,706.68,597.88,1.00,1,1,1,2637.57,0.11,62832.30,3114.68,0.09,5936.40,3316.72,0.08,13035.79,2821.18,0.08,8551.32,2020.96,0.09,2877.35
397800,767.08,601.47,1.00,1,1,1,4087.78,0.06,98586.47,3372.90,0.04,20517.75,2357.13,0.07,64878.00,2260.31,0.07,37929.48,2134.96,0.10,7729.62
412800,807.12,601.68,1.00,1,1,1,2669.90,0.01,95273.05,1443.27,0.01,128698.75,1701.76,0.02,44039.77,1582.14,0.07,45213.41,2182.89,0.10,3216.91
434900,820.62,602.11,1.00,1,1,1,610.87,0.03,93180.97,335.77,-0.08,50199.71,614.14,-0.09,49519.74,1195.26,0.07,17505.89,2261.21,0.10,3552.72
449200,819.30,600.68,1.00,1,1,1,135.33,-2.32,49811.20,474.33,-2.81,55497.99,49.06,-2.12,44572.21,872.54,0.07,22573.11,2425.69,0.11,11544.42
464000,807.55,597.65,1.00,1,1,1,820.07,-2.89,47984.62,322.39,-2.98,11121.87,92.22,-3.08,5084.28,872.62,0.10,1733.64,2406.27,0.11,1320.61
494100,805.03,598.29,1.00,1,1,1,86.41,2.90,24761.18,165.39,0.57,15911.98,306.29,0.26,13194.92,974.98,0.14,3593.44,2345.74,0.11,2010.89
508900,813.81,601.65,1.00,1,1,1,635.29,0.37,47820.67,860.00,0.23,47716.38,1062.28,0.18,51173.18,1466.46,0.14,33208.43,2082.05,0.10,17821.87
545000,847.65,608.25,1.00,2,2,2,955.22,0.19,9622.36,1861.97,0.15,27890.59,1991.69,0.16,25759.43,2063.80,0.14,16546.78,1903.06,0.10,4963.98
560000,907.87,616.00,1.00,3,3,3,4047.25,0.13,206308.78,3942.67,0.13,138750.36,2897.27,0.14,60451.78,2536.17,0.13,31516.88,1582.89,0.10,21345.30
574600,963.32,623.80,1.00,1,1,1,3835.37,0.14,14864.17,4690.94,0.13,51251.27,4916.46,0.13,138320.73,3159.60,0.13,42725.55,1186.71,0.10,27136.59
589500,1045.03,634.34,1.00,1,1,1,5529.43,0.13,113751.60,5893.57,0.13,80720.73,4662.84,0.12,17422.77,2934.98,0.12,15210.92,898.79,0.09,19332.86
604100,1135.71,646.33,1.00,1,1,1,6265.21,0.13,50411.43,4641.07,0.11,86103.71,4564.75,0.11,7341.31,3089.17,0.11,10781.54,585.69,0.09,21447.74
626600,1216.18,653.13,1.00,1,1,1,3589.30,0.08,119341.74,3521.44,0.08,49954.32,2973.61,0.10,70759.51,2404.63,0.10,30439.05,342.86,0.08,10792.70
641600,1267.29,657.53,1.00,1,1,1,3419.64,0.09,11316.41,1590.91,0.06,128751.85,1770.54,0.06,80410.88,1419.07,0.07,65776.84,171.59,0.05,11431.05
671300,1287.16,657.55,1.00,1,1,1,669.05,0.00,92713.40,297.25,-0.22,44029.65,372.49,-0.14,47374.18,314.34,-0.15,37526.82,9.52,0.58,5502.67
685800,1280.12,654.71,1.00,1,1,1,523.48,-2.76,80765.16,1542.46,-2.96,125506.11,1178.83,-2.95,105939.34,967.58,-2.93,87354.89,298.62,-3.03,21182.56
700200,1243.34,649.37,1.00,2,2,2,2581.04,-3.00,144182.12,2911.82,-3.00,95294.58,3027.17,-2.99,128459.10,2194.95,-2.99,85449.50,680.15,-3.13,26678.16
722900,1173.19,639.36,1.00,2,2,2,3121.65,-3.00,23817.35,4197.17,-3.00,56623.60,4338.97,-3.01,57852.59,2680.34,-3.00,21443.61,972.78,-2.98,14002.87
736900,1090.86,627.53,1.00,2,2,2,5941.05,-3.00,201386.10,6164.93,-3.01,140625.17,4999.59,-3.01,47226.26,3226.70,-3.03,39308.84,1211.62,-2.86,19588.86
751900,995.91,616.20,1.00,3,3,3,6374.72,-3.02,30525.57,5972.34,-3.02,13780.86,4348.16,-3.02,43496.69,3539.11,-3.03,20894.85,1308.48,-2.82,7111.55
767200,911.15,606.31,1.00,1,1,1,5577.85,-3.03,52093.69,3159.21,-3.03,183877.77,3390.57,-3.05,63130.40,3361.53,-3.08,15002.12,1304.72,-2.87,4657.19
796200,856.80,600.86,1.00,1,1,1,1883.32,-3.04,127410.63,1861.15,-3.11,45229.17,2890.13,-3.07,17325.69,3276.02,-3.02,7480.87,1134.68,-3.00,7909.20
818200,816.28,603.26,1.00,1,1,1,1845.31,3.08,13575.22,2572.31,-3.12,32345.63,2214.09,3.10,33285.08,2579.78,-2.90,35057.20,1074.10,3.06,11275.14
833000,762.16,598.91,1.00,1,1,1,3668.23,-3.06,125581.46,2641.50,3.05,20968.95,2299.86,-3.01,26505.65,1600.07,-2.76,68823.41,1079.60,2.82,17700.27
861300,702.95,614.11,1.00,1,1,1,2160.31,2.89,62591.19,2097.89,-2.89,34294.18,1871.01,-2.62,32016.34,641.02,-2.56,34690.26,1076.15,2.59,8767.74
876700,673.28,576.42,1.00,1,1,1,3114.40,-2.24,194109.33,2342.43,-1.77,154436.78,957.44,-1.90,85273.65,332.32,0.11,61645.04,1077.68,2.35,16980.52
898500,685.86,528.67,1.00,1,1,1,2265.43,-1.31,115422.42,1668.46,-0.83,87600.20,1611.65,-0.55,77152.01,1073.81,0.50,35564.98,1127.79,2.17,9279.83
929100,732.26,511.89,1.00,1,1,1,1612.53,-0.35,61836.93,2877.73,0.11,76229.47,2903.73,0.13,63453.82,1674.75,0.66,20838.15,1152.38,2.04,4796.46
944200,816.51,543.73,1.00,4,4,4,5964.14,0.36,321463.33,6737.33,0.49,277808.46,4213.88,0.51,123034.46,2219.92,0.69,36348.14,1146.51,2.00,3419.98
959100,910.58,607.05,1.00,4,4,4,7610.76,0.59,151937.81,6829.17,0.76,121969.75,5699.11,0.80,139328.48,2463.91,0.87,32507.29,1128.21,2.07,5972.69
973800,963.23,682.78,1.00,4,4,4,6274.25,0.96,195757.77,5406.93,1.20,204989.95,4743.01,1.10,123284.97,2846.09,1.10,48551.33,1066.27,2.24,13120.25
989100,969.46,758.19,1.00,4,4,4,4945.75,1.49,207936.37,3855.70,1.60,156358.99,3422.42,1.49,132729.28,3140.36,1.35,52823.47,894.75,2.40,15368.34
1010600,958.96,824.60,1.00,4,4,4,3127.38,1.73,95189.95,2551.47,1.85,70455.04,3117.60,1.87,59313.05,2839.30,1.71,52020.51,727.74,2.68,12786.32
1040200,933.89,883.62,1.00,4,4,4,2166.34,1.97,38924.74,2750.40,2.18,30590.48,2867.25,2.22,36153.06,2527.20,2.21,45691.53,699.99,2.86,4599.75
1054700,889.34,923.93,1.00,4,4,4,4143.16,2.41,162772.78,4040.24,2.62,134397.55,3093.71,2.62,84216.38,2614.92,2.68,82473.44,750.70,2.97,6224.95
1069800,829.96,942.80,1.00,4,4,4,4125.83,2.83,116183.49,4369.61,3.04,116246.26,3675.78,3.04,100038.98,2568.46,3.06,66210.82,843.83,3.10,9181.18
1084200,761.13,937.35,1.00,4,4,4,4794.83,-3.06,127488.45,3878.07,-2.91,102450.04,4133.50,-2.91,96058.20,2981.73,-2.90,67030.86,896.31,-3.04,9389.50
1107500,687.79,908.73,1.00,4,4,4,3379.16,-2.77,78969.98,4288.08,-2.65,48717.05,3832.34,-2.64,46433.24,3706.44,-2.65,47376.17,1152.31,-2.95,11763.69
1123000,614.77,858.25,1.00,4,4,4,5727.31,-2.54,165224.23,3992.07,-2.43,59538.92,4079.64,-2.43,57623.95,3865.55,-2.44,51815.53,1296.85,-2.92,9519.56
1152800,550.31,791.25,1.00,4,4,4,3119.92,-2.34,91958.83,4068.21,-2.23,28024.21,4664.16,-2.25,32576.00,3779.81,-2.25,25539.76,1438.43,-2.77,8453.44
1167700,503.71,714.24,1.00,4,4,4,6040.27,-2.11,206341.47,5886.98,-2.06,133865.40,4352.99,-2.05,64133.50,2867.63,-2.05,75377.26,1632.46,-2.63,19645.05
1182800,467.28,635.37,1.00,4,4,4,5753.90,-2.00,47459.16,4982.49,-1.83,100912.92,4623.22,-1.78,81952.43,2480.73,-1.89,37609.62,1809.50,-2.51,17535.74
1198100,464.41,567.97,1.00,4,4,4,4409.37,-1.61,154937.75,3940.03,-1.34,157027.04,2474.14,-1.37,167122.28,1584.50,-1.78,60202.35,1795.07,-2.41,11746.88
1212100,493.72,522.99,1.00,4,4,4,3834.31,-0.99,183883.33,1863.52,-0.56,208467.49,1683.63,-0.77,102147.12,1277.85,-1.62,27364.07,1667.96,-2.30,16764.38
1249000,544.59,517.30,1.00,1,1,1,1387.40,-0.11,85105.65,1410.00,0.23,35960.01,1003.45,0.26,39485.68,903.42,-1.50,10702.88,1412.24,-2.18,8531.51
1264300,565.45,539.49,1.00,1,1,1,1990.49,0.82,104917.10,1701.06,1.40,113889.18,851.28,0.98,43283.32,486.40,-1.35,28034.83,1199.66,-2.05,17676.17
1294200,557.51,593.09,1.00,1,1,1,1812.14,1.72,55643.94,1286.22,2.02,33315.32,853.40,2.09,30026.12,104.36,-0.65,13802.15,981.57,-1.92,8709.23
1309300,540.09,591.52,1.00,1,1,1,1158.35,-3.05,138688.81,1625.00,-2.72,135065.35,1000.82,2.92,50824.68,238.17,1.68,21109.63,757.96,-1.74,17949.42
1324200,513.02,573.17,1.00,1,1,1,2195.19,-2.55,87825.79,1726.01,-2.59,16149.80,1292.85,-2.72,51599.75,419.11,2.28,17431.73,494.66,-1.52,19802.07
1347100,484.52,557.33,1.00,1,1,1,1423.55,-2.63,34385.13,1025.72,-2.73,31574.79,877.41,-2.61,18877.92,384.87,2.64,6495.05,275.57,-0.99,12764.75
1361500,478.02,557.70,1.00,1,1,1,451.90,3.09,74240.35,232.77,0.73,86752.77,154.41,-2.60,50208.86,390.39,-2.62,26375.76,129.37,-0.09,15321.34
1376100,489.56,561.83,1.00,1,1,1,838.98,0.34,86812.29,609.95,0.36,27536.31,365.36,0.44,35560.92,269.71,-2.40,9640.45,146.50,1.26,11825.60
1404200,502.42,566.82,1.00,1,1,1,491.03,0.37,12396.49,449.21,0.35,5722.41,378.72,0.22,2832.49,59.33,-1.86,7862.90,198.60,2.09,5216.87
1426400,510.79,569.57,1.00,1,1,1,396.60,0.32,4378.41,152.16,-0.43,16086.37,269.49,0.13,5096.91,213.12,0.29,11278.56,171.81,2.56,4099.94
1441600,507.60,564.45,1.00,1,1,1,396.35,-2.13,49043.30,164.29,-1.54,10975.65,127.48,-0.23,10348.16,186.06,0.25,1845.06,112.23,-2.33,12325.62
1456200,510.95,564.67,1.00,1,1,1,230.33,0.07,38541.93,105.95,0.14,14002.17,73.77,-1.14,6881.74,128.05,0.23,3980.95,67.74,-1.19,7138.58
1470000,510.58,564.87,1.00,1,1,1,30.55,2.67,18625.01,67.38,0.56,3780.37,53.12,-3.13,7761.64,107.44,0.00,2421.05,128.06,-0.02,8653.82
1484400,512.57,565.68,1.00,1,1,1,149.15,0.39,11849.98,176.52,-3.07,16537.54,56.01,2.76,1494.28,83.34,-0.15,1949.57,260.05,0.19,9532.29
1506500,504.15,564.43,1.00,1,1,1,385.03,-2.99,24031.59,136.79,3.07,2049.19,95.89,0.32,6475.27,202.71,0.19,5759.06,277.75,0.14,976.35
1520800,507.60,566.03,1.00,1,1,1,266.18,0.44,45081.76,431.68,0.19,39495.17,122.55,0.22,2018.85,231.69,0.20,2027.13,255.03,0.09,1881.38
1535800,516.56,566.88,1.00,1,1,1,599.84,0.09,24021.65,331.95,0.12,6884.72,425.77,0.17,20228.49,261.45,0.18,2012.63,237.69,0.01,1738.26
1565200,522.23,567.86,1.00,1,1,1,195.63,0.17,13778.58,422.03,0.16,3095.00,416.29,0.15,475.47,300.91,0.13,1426.94,224.03,-0.05,656.15
1580700,535.27,569.87,1.00,1,1,1,851.51,0.15,42318.09,486.68,0.16,4172.44,374.11,0.15,2722.27,357.08,0.09,3696.46,270.09,0.02,3208.31
1618500,547.82,572.06,1.00,2,2,2,337.11,0.17,13611.57,333.14,0.14,4066.43,475.43,0.10,2736.50,359.37,0.05,439.90,246.45,-0.01,661.27
1633200,552.58,572.38,1.00,2,2,2,324.25,0.07,2517.78,459.83,-0.01,9579.98,306.44,0.01,11769.19,333.84,0.01,1947.46,236.94,-0.02,674.23
1648100,561.43,571.88,1.00,3,3,3,595.19,-0.06,18549.41,283.80,-0.19,12575.01,297.65,-0.13,2772.25,343.64,-0.03,1121.61,206.69,-0.04,2058.40
1677100,564.81,570.01,1.00,1,1,1,133.05,-0.50,16508.47,207.77,-0.28,2719.28,296.98,-0.21,828.52,331.53,-0.06,555.53,215.88,-0.03,331.03
1699200,571.65,568.97,1.00,1,1,1,312.78,-0.15,8755.53,312.74,-0.23,4781.99,222.62,-0.33,3633.26,274.69,-0.21,3234.79,170.23,-0.07,2098.69
1714100,576.08,567.38,1.00,1,1,1,316.21,-0.34,4081.84,249.18,-0.40,5318.76,370.45,-0.15,10523.78,222.13,-0.29,3786.34,120.25,-0.13,3404.67
1729000,578.49,566.09,1.00,1,1,1,183.45,-0.49,9230.01,446.76,-0.07,15158.62,246.53,-0.34,9171.89,120.11,-0.52,7310.49,92.09,-0.22,1997.27
1743100,589.00,566.48,1.00,1,1,1,746.44,0.04,42236.57,244.84,-0.27,15069.54,123.61,-0.56,9153.30,66.58,-0.99,4805.91,52.10,-0.54,3221.93
1758100,585.35,564.19,1.00,1,1,1,287.45,-2.58,67046.10,256.98,-2.74,31583.20,53.30,-2.10,8867.26,84.24,-2.54,7058.32,42.64,-0.93,1379.58
1772100,582.15,563.56,1.00,1,1,1,233.34,-2.95,7809.69,236.24,-3.01,4991.00,295.12,-2.94,18766.59,156.57,-2.89,5917.51,69.35,-0.43,2714.27
1795000,576.71,563.05,1.00,1,1,1,238.44,-3.05,1035.46,330.83,-3.06,4182.75,286.35,-3.06,1484.76,205.81,-2.99,2288.47,133.97,-0.12,3098.67
1810000,569.65,562.60,1.00,1,1,1,471.97,-3.08,15583.24,327.40,-3.08,475.23,330.62,-3.08,2986.42,282.45,-3.02,5141.06,281.86,0.03,10050.54
1840400,561.87,562.19,1.00,1,1,1,256.07,-3.09,7102.99,330.49,-3.09,128.96,357.77,-3.09,900.95,213.81,-3.08,2309.36,84.24,-2.54,11693.19
1855400,554.66,561.85,1.00,1,1,1,481.31,-3.09,15016.47,403.30,-3.10,4855.44,272.92,-3.10,5661.54,74.92,3.10,9300.28,156.57,-2.89,5523.01
1870700,549.66,561.65,1.00,1,1,1,326.81,-3.10,10100.24,187.30,-3.13,14127.04,114.61,3.11,10384.72,165.39,0.18,15622.99,205.81,-2.99,3425.23
1885900,548.95,561.76,1.00,1,1,1,47.62,2.99,18434.58,183.62,0.15,24349.79,242.76,0.14,23434.84,494.00,0.13,21638.36,282.45,-3.02,5073.41
1900200,555.02,562.44,1.00,1,1,1,427.43,0.11,33116.98,597.39,0.11,28951.03,753.26,0.11,35708.59,114.61,3.11,42472.95,213.81,-3.08,4909.41
1922800,570.87,564.08,1.00,1,1,1,704.94,0.10,12280.97,1199.12,0.11,26625.19,1214.53,0.11,20410.12,242.76,0.14,15761.49,74.92,3.10,6172.75
1937900,599.98,567.21,1.00,1,1,1,1938.76,0.11,81710.44,1734.46,0.11,35456.33,1199.12,0.11,1070.67,753.26,0.11,33816.74,165.39,0.18,15829.91
1966600,646.37,572.48,1.00,1,1,1,1626.98,0.11,10870.49,1626.98,0.11,3747.59,1734.46,0.11,18654.72,1214.53,0.11,16072.08,494.00,0.13,11460.04
