%@metadata width_px 1920.0
%@metadata height_px 1080.0
%@metadata width_mm 540.0
%@metadata height_mm 254.0
%@metadata distance_mm 620.0
% The number after speed, direction denotes the step size that was used for the calculation.
% Acceleration was calculated between two adjacent samples of the already low pass filtered velocity
@RELATION gaze_labels

@ATTRIBUTE time INTEGER
@ATTRIBUTE x NUMERIC
@ATTRIBUTE y NUMERIC
@ATTRIBUTE confidence NUMERIC
@ATTRIBUTE handlabeller_final INTEGER
@ATTRIBUTE EYE_MOVEMENT_TYPE {UNKNOWN, FIX, SACCADE, SP, NOISE, BLINK, NOISE_CLUSTER, PSO}

@DATA
0,287.02,913.59,1.0,1,FIX
14500,306.6,930.17,1.0,1,FIX
28800,273.49,908.07,1.0,1,FIX
43300,273.91,904.77,1.0,1,FIX
65600,267.83,917.37,1.0,1,FIX
80400,275.06,914.0,1.0,1,FIX
110000,262.55,910.63,1.0,1,FIX
139200,286.13,919.94,1.0,1,FIX
162100,268.21,916.29,1.0,2,SACCADE
191300,304.29,924.15,1.0,3,SACCADE
206200,287.86,916.94,1.0,3,SACCADE
221200,342.96,876.47,1.0,1,FIX
235800,486.37,883.27,1.0,1,FIX
258900,516.87,901.58,1.0,1,FIX
273900,515.35,894.91,1.0,1,FIX
289000,527.12,902.14,1.0,2,SACCADE
318000,520.58,892.15,1.0,2,SACCADE
333100,582.58,894.38,1.0,3,SACCADE
348000,667.48,869.38,1.0,3,FIX
363300,849.78,882.97,1.0,1,FIX
385000,943.45,904.75,1.0,1,FIX
399900,969.41,904.93,1.0,1,FIX
415000,916.05,896.58,1.0,1,FIX
444800,939.34,910.83,1.0,1,FIX
459200,908.71,896.05,1.0,1,FIX
481700,877.64,878.56,1.0,1,FIX
511400,869.63,885.48,1.0,1,FIX
526400,895.79,889.92,1.0,1,FIX
555900,886.24,886.66,1.0,1,FIX
577400,921.72,885.23,1.0,1,FIX
593000,922.61,891.52,1.0,1,FIX
609400,899.94,893.35,1.0,1,FIX
624400,882.14,883.48,1.0,2,SACCADE
639100,922.89,893.6,1.0,2,SACCADE
654300,921.65,883.5,1.0,2,SP
668800,1105.14,887.98,1.0,3,FIX
705400,1302.83,898.03,1.0,1,FIX
720300,1309.49,896.63,1.0,1,FIX
735300,1311.46,895.39,1.0,1,FIX
750100,1345.49,905.54,1.0,1,FIX
764800,1357.39,896.56,1.0,1,FIX
779400,1310.42,888.52,1.0,1,FIX
801300,1343.53,889.68,1.0,1,FIX
816500,1329.64,887.18,1.0,1,FIX
846300,1306.04,878.41,1.0,1,FIX
875900,1386.19,914.22,1.0,1,FIX
898000,1314.76,891.54,1.0,1,FIX
913200,1314.62,891.62,1.0,1,FIX
942900,1307.66,883.37,1.0,1,FIX
956800,1336.64,898.56,1.0,1,FIX
972100,1307.5,881.0,1.0,1,FIX
994000,1286.54,882.41,1.0,1,FIX
1008300,1323.11,890.95,1.0,1,FIX
1022700,1338.07,904.45,1.0,1,FIX
1037100,1331.46,898.18,1.0,1,FIX
1052100,1366.01,895.79,1.0,1,FIX
1073800,1315.5,888.31,1.0,1,FIX
1087900,1353.59,901.36,1.0,1,FIX
1117600,1271.71,879.72,1.0,1,FIX
1133000,1354.49,909.14,1.0,1,FIX
1148100,1334.36,893.45,1.0,1,FIX
