%@metadata width_px 1920.0
%@metadata height_px 1080.0
%@metadata width_mm 540.0
%@metadata height_mm 254.0
%@metadata distance_mm 620.0
% The number after speed, direction denotes the step size that was used for the calculation.
% Acceleration was calculated between two adjacent samples of the already low pass filtered velocity
@RELATION gaze_labels

@ATTRIBUTE time INTEGER
@ATTRIBUTE x NUMERIC
@ATTRIBUTE y NUMERIC
@ATTRIBUTE confidence NUMERIC
@ATTRIBUTE handlabeller_final INTEGER
@ATTRIBUTE EYE_MOVEMENT_TYPE {UNKNOWN, FIX, SACCADE, SP, NOISE, BLINK, NOISE_CLUSTER, PSO}

@DATA
0,507.15,853.62,1.0,1,FIX
28700,507.4,850.85,1.0,1,FIX
43700,510.93,838.5,1.0,1,FIX
64800,477.98,853.29,1.0,1,FIX
79000,528.55,887.36,1.0,1,FIX
93600,466.07,864.84,1.0,1,FIX
108000,464.62,862.76,1.0,1,FIX
129000,443.89,814.26,1.0,1,FIX
143400,467.38,842.73,1.0,1,FIX
157400,422.57,845.44,1.0,1,FIX
171800,431.17,849.11,1.0,1,FIX
192500,434.35,852.74,1.0,2,SACCADE
207400,444.2,804.35,1.0,2,SACCADE
222400,463.95,832.69,1.0,3,SACCADE
236200,527.34,844.47,1.0,1,SP
257400,603.89,807.04,1.0,1,FIX
271800,686.69,807.37,1.0,1,FIX
285800,745.8,765.84,1.0,1,FIX
300200,681.11,802.72,1.0,1,FIX
321500,667.12,797.91,1.0,1,SACCADE
350000,698.08,799.36,1.0,2,SACCADE
364200,628.7,819.57,1.0,3,SP
400300,812.68,791.41,1.0,1,FIX
414500,933.87,763.64,1.0,1,FIX
428500,1035.35,757.4,1.0,1,FIX
450400,939.78,745.84,1.0,1,FIX
464700,1021.96,761.33,1.0,1,FIX
479100,983.42,729.66,1.0,1,FIX
493500,933.21,734.94,1.0,1,FIX
507900,953.65,733.44,1.0,1,FIX
528600,1009.89,728.49,1.0,1,FIX
543100,1003.87,737.74,1.0,2,FIX
557100,961.24,744.67,1.0,2,SACCADE
571800,983.21,744.94,1.0,2,SACCADE
593200,989.66,750.44,1.0,1,SP
607300,1111.11,763.49,1.0,1,FIX
621300,1292.47,741.21,1.0,1,FIX
642800,1337.36,745.37,1.0,1,FIX
657400,1274.66,728.54,1.0,1,FIX
671600,1286.93,725.45,1.0,1,FIX
686000,1241.0,733.86,1.0,1,FIX
721400,1295.28,734.39,1.0,2,FIX
735600,1344.73,739.36,1.0,2,SACCADE
749900,1273.1,744.97,1.0,2,SACCADE
785700,1142.88,760.95,1.0,3,SP
800000,921.97,798.86,1.0,1,FIX
814700,820.04,787.92,1.0,1,FIX
828500,756.64,761.71,1.0,1,FIX
849700,796.58,770.54,1.0,1,FIX
864700,729.78,780.98,1.0,1,FIX
878500,723.52,786.27,1.0,1,FIX
