%@metadata width_px 1920.0
%@metadata height_px 1080.0
%@metadata width_mm 540.0
%@metadata height_mm 254.0
%@metadata distance_mm 620.0
% The number after speed, direction denotes the step size that was used for the calculation.
% Acceleration was calculated between two adjacent samples of the already low pass filtered velocity
@RELATION gaze_labels

@ATTRIBUTE time INTEGER
@ATTRIBUTE x NUMERIC
@ATTRIBUTE y NUMERIC
@ATTRIBUTE confidence NUMERIC
@ATTRIBUTE handlabeller_final INTEGER
@ATTRIBUTE EYE_MOVEMENT_TYPE {UNKNOWN, FIX, SACCADE, SP, NOISE, BLINK, NOISE_CLUSTER, PSO}

@DATA
0,1410.13,884.8,1.0,4,SACCADE
21000,1420.13,837.28,1.0,0,FIX
35700,1158.13,783.11,1.0,0,FIX
49700,935.18,787.32,1.0,0,FIX
64000,831.41,843.32,1.0,0,FIX
85800,814.36,887.85,1.0,1,FIX
99900,669.27,926.99,1.0,1,FIX
113900,678.59,897.62,1.0,1,FIX
128800,618.65,895.28,1.0,1,FIX
150000,678.05,864.16,1.0,1,FIX
164200,649.79,892.11,1.0,1,FIX
178600,693.54,836.24,1.0,1,FIX
193000,687.46,824.95,1.0,1,FIX
214100,629.93,839.45,1.0,2,FIX
228900,628.73,823.73,1.0,3,SACCADE
257500,605.15,835.87,1.0,1,SACCADE
272100,615.83,850.84,1.0,1,SP
293700,556.58,836.92,1.0,1,FIX
322000,574.94,796.31,1.0,2,FIX
336700,542.91,819.47,1.0,2,FIX
358000,608.18,829.84,1.0,3,FIX
386900,752.4,810.95,1.0,1,FIX
401000,888.24,789.0,1.0,1,FIX
416000,867.5,769.69,1.0,1,FIX
437200,928.57,769.21,1.0,1,FIX
451500,887.9,783.33,1.0,1,FIX
466000,936.39,792.74,1.0,1,SACCADE
480100,898.93,767.74,1.0,1,SACCADE
501100,869.46,764.4,1.0,1,SP
515600,925.6,768.61,1.0,2,FIX
529700,893.97,775.99,1.0,2,FIX
544100,887.73,788.6,1.0,2,FIX
565900,959.54,769.22,1.0,1,FIX
579800,1211.92,756.78,1.0,1,FIX
594200,1458.77,784.13,1.0,1,SACCADE
608700,1458.77,784.13,1.0,1,SACCADE
629800,1408.9,777.83,1.0,1,SP
644000,1423.36,771.68,1.0,1,FIX
658800,1406.58,772.47,1.0,1,FIX
672900,1416.45,770.27,1.0,2,FIX
708600,1456.68,771.96,1.0,3,FIX
722700,1573.25,798.26,1.0,1,FIX
752400,1670.3,797.71,1.0,1,FIX
773300,1670.49,813.08,1.0,1,FIX
787800,1705.72,807.51,1.0,1,FIX
801800,1689.2,796.74,1.0,1,SACCADE
816000,1776.05,817.12,1.0,1,SACCADE
837500,1732.46,796.73,1.0,1,SACCADE
851700,1671.36,791.66,1.0,1,SACCADE
865900,1661.06,790.21,1.0,2,FIX
880200,1733.06,802.45,1.0,2,FIX
901200,1727.56,807.76,1.0,3,FIX
915500,1515.24,784.34,1.0,1,FIX
929700,1373.37,759.4,1.0,1,FIX
944600,1204.54,772.03,1.0,1,FIX
966800,1189.37,769.49,1.0,1,FIX
980800,1115.72,761.74,1.0,1,FIX
994800,1094.85,754.57,1.0,1,FIX
1008800,1124.37,749.21,1.0,2,UNKNOWN
1030300,1118.79,749.89,1.0,2,UNKNOWN
1044300,1119.89,771.23,1.0,2,UNKNOWN
1072900,767.49,805.85,1.0,1,UNKNOWN
