@RELATION gaze_labels

%@METADATA width_px 1920
%@METADATA height_px 1080
%@METADATA width_mm 540.00
%@METADATA height_mm 254.00
%@METADATA distance_mm 620.00


@ATTRIBUTE time INTEGER
@ATTRIBUTE x NUMERIC
@ATTRIBUTE y NUMERIC
@ATTRIBUTE confidence NUMERIC
@ATTRIBUTE handlabeller1 INTEGER
@ATTRIBUTE handlabeller2 INTEGER
@ATTRIBUTE handlabeller_final INTEGER
@ATTRIBUTE speed_1 numeric
@ATTRIBUTE direction_1 numeric
@ATTRIBUTE acceleration_1 numeric
@ATTRIBUTE speed_2 numeric
@ATTRIBUTE direction_2 numeric
@ATTRIBUTE acceleration_2 numeric
@ATTRIBUTE speed_4 numeric
@ATTRIBUTE direction_4 numeric
@ATTRIBUTE acceleration_4 numeric
@ATTRIBUTE speed_8 numeric
@ATTRIBUTE direction_8 numeric
@ATTRIBUTE acceleration_8 numeric
@ATTRIBUTE speed_16 numeric
@ATTRIBUTE direction_16 numeric
@ATTRIBUTE acceleration_16 numeric

%The number after speed, direction denotes the step size that was used for the calculation.
%Acceleration was calculated between two adjacent samples of the already low pass filtered velocity

@DATA
0,306.90,284.71,1.00,1,1,1,0.00,0.00,0.00,3956.18,-2.99,0.00,2753.93,-3.02,0.00,209.16,2.79,0.00,1597.13,0.14,0.00
21900,221.20,271.96,1.00,1,1,1,3956.18,-2.99,180647.71,2753.93,-3.02,55014.35,621.08,0.43,153052.79,2412.10,0.19,118427.59,2605.06,0.13,46027.13
36600,206.88,272.25,1.00,1,1,1,974.59,3.12,204064.06,621.08,0.43,228017.42,209.16,2.79,53347.71,3748.01,0.16,91175.54,2683.74,0.12,5587.21
51300,237.82,279.52,1.00,1,1,1,2162.40,0.23,211963.66,3017.89,0.19,164467.66,2412.10,0.19,176432.95,3773.07,0.13,6544.23,2572.31,0.12,7647.23
66000,293.93,289.43,1.00,2,2,2,3875.56,0.17,117060.12,4222.50,0.16,82414.79,3748.01,0.16,91175.54,1597.13,0.14,148024.45,2534.92,0.13,3144.47
80700,360.40,299.14,1.00,2,2,2,4570.38,0.15,48030.11,4464.68,0.13,18290.13,3773.07,0.13,6544.23,2605.06,0.13,68571.03,2423.93,0.15,8767.05
96100,427.15,307.10,1.00,3,3,3,4364.55,0.12,15409.71,3423.01,0.11,67944.64,3041.43,0.11,47766.06,2683.74,0.12,5333.24,2366.23,0.19,6948.93
118200,488.04,312.80,1.00,1,1,1,2767.38,0.09,72379.72,2209.36,0.08,54990.78,2749.69,0.09,13440.64,2572.31,0.12,5086.62,2373.70,0.24,5790.86
147500,540.31,316.58,1.00,1,1,1,1788.68,0.07,33441.17,2178.03,0.07,1536.70,2025.93,0.08,24715.85,2534.92,0.13,1577.60,2048.94,0.23,11116.47
162300,583.86,319.40,1.00,1,1,1,2948.89,0.06,78400.88,1813.61,0.08,24637.50,1735.58,0.09,19659.59,2423.93,0.15,8707.81,2462.67,0.24,27979.12
191900,620.61,322.62,1.00,1,1,1,1246.15,0.09,57543.61,1359.90,0.12,15505.64,2028.19,0.15,10606.59,2366.23,0.19,3615.32,2794.24,0.24,11201.87
214100,653.81,327.78,1.00,1,1,1,1513.32,0.15,12720.79,2298.55,0.22,43074.49,2108.89,0.23,8561.67,2373.70,0.24,5764.77,2926.92,0.25,5999.80
228800,703.33,341.35,1.00,1,1,1,3493.26,0.27,135848.34,3455.21,0.31,80591.06,2894.43,0.30,54635.53,2537.79,0.30,14246.81,2856.96,0.25,4799.06
243500,750.44,359.12,1.00,2,2,2,3424.68,0.36,22413.90,3661.09,0.36,18619.44,3475.13,0.37,42108.42,2366.34,0.35,14181.28,2674.77,0.25,12406.48
258100,803.56,379.57,1.00,2,2,2,3899.17,0.37,32544.66,3505.72,0.42,18175.52,3297.80,0.42,17128.81,2950.28,0.36,40041.94,2335.50,0.26,23334.74
272900,844.36,401.55,1.00,2,2,2,3131.42,0.49,59865.84,2950.23,0.49,40303.16,2647.29,0.43,44027.86,3386.66,0.36,29496.24,2044.38,0.28,19816.02
287600,880.28,420.68,1.00,3,3,3,2767.82,0.49,24752.98,2160.26,0.44,54380.49,3001.90,0.40,25069.83,3273.31,0.36,7716.34,1629.98,0.31,28384.25
324700,945.44,449.56,1.00,1,1,1,1921.35,0.42,23252.59,3042.56,0.35,24690.31,3322.79,0.35,9491.23,2992.95,0.34,7650.79,1260.95,0.36,10136.71
339500,1028.75,474.43,1.00,1,1,1,5874.55,0.29,268659.87,5397.70,0.29,159933.54,3263.75,0.31,9783.43,2316.72,0.35,45692.59,889.92,0.45,25859.87
354100,1097.56,494.77,1.00,1,1,1,4914.33,0.29,65775.75,3663.57,0.26,119067.83,3499.55,0.25,21586.53,1702.95,0.33,42080.36,542.89,0.64,25478.83
368800,1132.45,502.18,1.00,1,1,1,2426.26,0.21,170245.80,1624.76,0.12,140554.64,1491.76,0.22,136685.78,847.67,0.33,58182.93,224.36,1.46,28781.96
383600,1145.12,500.70,1.00,1,1,1,862.20,-0.12,110326.07,263.99,-2.41,124846.86,291.77,-2.53,119202.28,38.01,2.49,58734.11,377.47,2.81,26730.87
405700,1125.19,495.68,1.00,1,1,1,929.86,-2.89,79756.92,1783.07,-2.88,70223.10,1566.07,-2.85,58500.62,1296.97,-2.91,57609.35,656.67,3.08,13927.14
420400,1081.78,483.59,1.00,1,1,1,3066.09,-2.87,145349.31,2670.64,-2.88,60386.86,2579.54,-2.91,69452.37,1961.50,-2.92,45223.94,848.98,-3.09,14337.65
450100,1010.52,465.51,1.00,2,2,2,2475.17,-2.89,20012.91,3240.86,-2.93,19636.64,3791.68,-2.92,40817.38,2662.35,-2.92,23597.58,968.08,-3.05,4238.85
464800,941.21,452.80,1.00,2,2,2,4793.36,-2.96,158478.29,5476.86,-2.94,152163.60,3125.38,-2.95,45951.40,3166.31,-2.94,34370.50,1187.93,-3.01,15264.09
479700,851.68,433.09,1.00,3,3,3,6152.84,-2.92,92138.55,3028.36,-2.97,164526.99,3770.15,-2.95,43290.91,3176.67,-2.95,3243.27,1251.93,-2.98,4615.90
516900,785.76,425.82,1.00,1,1,1,1782.80,-3.03,117858.66,2786.05,-2.97,6513.97,3755.90,-2.95,404.71,2937.56,-2.96,6450.03,1269.56,-2.98,523.62
531000,710.85,408.73,1.00,1,1,1,5449.45,-2.92,261273.42,5069.07,-2.94,162189.84,2705.15,-2.99,74929.96,2769.50,-2.98,12454.71,1170.88,-2.99,7112.98
545800,642.38,395.78,1.00,1,1,1,4708.38,-2.95,51666.54,2612.97,-3.01,166942.60,2714.66,-2.97,3520.49,2191.62,-2.99,39181.42,1054.97,-3.01,7974.11
575500,595.59,393.35,1.00,1,1,1,1577.40,-3.09,106146.33,1418.39,-3.04,40257.91,1777.52,-3.02,31771.15,1221.15,-3.05,32796.63,891.84,-3.04,5564.26
598100,568.61,387.91,1.00,1,1,1,1217.72,-2.94,18288.51,770.81,-3.06,28676.87,651.48,3.05,50886.68,584.82,3.12,28489.74,623.68,-3.12,12151.25
612400,567.24,391.03,1.00,1,1,1,238.44,1.98,83212.53,860.27,0.55,111002.04,564.53,0.43,82117.17,365.15,0.68,62636.71,340.55,3.02,20342.88
626900,589.78,400.79,1.00,1,1,1,1693.64,0.41,118039.40,1662.53,0.30,58991.82,1606.77,0.31,72294.60,1077.51,0.36,51043.58,84.08,2.26,19670.20
656300,637.02,412.44,1.00,2,2,2,1654.87,0.24,9562.92,2040.20,0.26,13066.78,2446.79,0.28,28655.55,1763.38,0.29,23550.33,284.71,0.45,10734.36
678400,691.33,427.75,1.00,3,3,3,2553.45,0.27,40774.17,3382.77,0.27,60767.69,2759.99,0.25,14552.12,2370.64,0.28,27485.35,536.61,0.25,11952.10
693100,756.93,445.89,1.00,3,3,3,4629.60,0.27,141239.81,4020.97,0.25,43832.31,3235.23,0.26,32340.88,2516.66,0.25,11220.45,816.31,0.24,19030.43
707800,805.93,456.77,1.00,1,1,1,3414.92,0.22,83785.29,3051.59,0.24,65988.50,3422.89,0.26,12780.59,2318.66,0.21,14845.22,1077.19,0.21,17829.23
722500,844.12,467.02,1.00,1,1,1,2689.71,0.26,50157.50,2817.34,0.28,17865.67,2615.69,0.21,55869.09,2254.71,0.20,4851.45,1281.06,0.21,13880.83
736800,884.49,479.21,1.00,1,1,1,2949.21,0.29,19138.05,2188.47,0.17,47748.40,1792.41,0.13,58683.35,1963.06,0.15,21816.77,1454.41,0.22,12171.83
752300,908.38,478.13,1.00,1,1,1,1542.88,-0.05,101894.93,1073.88,-0.16,78856.67,1302.69,0.05,32644.81,1454.58,0.10,33151.91,1601.50,0.22,9490.25
774600,924.58,472.84,1.00,1,1,1,764.13,-0.32,37301.32,637.73,-0.29,20124.19,789.69,-0.30,27999.27,1109.24,0.03,15988.46,1668.58,0.21,3058.37
789300,931.02,471.48,1.00,1,1,1,447.85,-0.21,21940.34,480.36,-0.73,19684.22,506.42,-0.41,19867.35,820.62,0.03,19635.61,1724.67,0.20,3991.64
803900,935.09,463.48,1.00,1,1,1,615.03,-1.10,33095.50,364.74,-0.69,7974.64,407.04,-0.50,7342.18,693.13,0.03,8732.73,1779.03,0.18,4442.76
819200,939.40,464.50,1.00,1,1,1,289.53,0.23,40208.16,362.76,-0.21,11430.96,424.62,-0.03,12704.71,818.27,0.13,9623.62,1687.05,0.17,6185.95
833900,945.74,461.22,1.00,1,1,1,485.43,-0.48,22203.44,521.36,0.22,16624.35,679.31,0.29,21002.17,1103.12,0.21,19970.35,1568.21,0.16,8139.55
870400,965.44,470.37,1.00,2,2,2,595.24,0.43,13326.97,846.60,0.39,9407.96,1103.02,0.30,11609.12,1327.29,0.20,6143.49,1369.64,0.17,5465.09
900200,997.70,482.43,1.00,2,2,2,1155.79,0.36,18931.36,1774.65,0.32,31249.30,1535.85,0.30,14524.57,1650.03,0.21,10835.06,1083.51,0.21,9724.55
914900,1040.28,495.57,1.00,3,3,3,3031.48,0.30,127815.19,2577.17,0.26,55521.65,2098.90,0.24,38941.49,1856.47,0.20,14057.31,774.29,0.31,22004.93
944400,1107.92,511.20,1.00,1,1,1,2353.18,0.23,23905.82,2386.14,0.19,8590.85,2812.23,0.18,24643.66,1905.05,0.21,1715.45,464.25,0.61,12081.36
966700,1161.70,518.69,1.00,1,1,1,2435.10,0.14,10199.34,3112.92,0.11,33897.31,2756.55,0.16,4078.89,1905.20,0.23,1655.29,278.43,1.49,16042.83
980900,1220.83,523.89,1.00,1,1,1,4179.95,0.09,123404.76,3420.29,0.12,21730.64,2543.34,0.12,16486.82,1557.00,0.30,26022.03,455.65,2.39,25325.78
995800,1260.52,530.63,1.00,1,1,1,2701.56,0.17,100876.39,1839.15,0.14,106175.17,1587.60,0.21,65132.88,758.30,0.54,56315.17,744.86,2.72,23097.28
1010400,1274.55,531.52,1.00,1,1,1,962.95,0.06,119646.89,353.97,2.40,142671.81,459.39,2.11,122689.62,598.68,2.59,79639.76,1033.03,2.84,21083.11
1025300,1252.78,537.65,1.00,2,2,2,1517.37,2.87,164213.89,2292.30,2.91,133559.66,2176.81,2.99,128672.15,1804.57,2.98,85313.37,1361.57,2.95,23746.29
1040800,1206.72,547.51,1.00,2,2,2,3039.24,2.93,98582.04,4013.39,3.04,113779.49,3508.71,3.05,86604.17,3081.06,3.06,83186.61,1687.24,3.05,23001.67
1055600,1131.84,550.35,1.00,2,2,2,5062.84,3.10,144197.00,4542.64,3.11,41276.76,4709.25,3.08,81677.75,4194.55,3.09,75722.78,1876.10,-3.14,17403.26
1077500,1040.10,553.03,1.00,2,2,2,4191.15,3.11,39843.91,5291.53,3.11,34226.18,5635.95,3.12,42917.51,4990.27,3.11,36467.21,2057.20,-3.02,13554.97
1092200,938.24,555.51,1.00,3,3,3,6930.89,3.12,186385.49,6996.34,3.12,116000.13,6041.73,3.12,27812.19,5057.23,3.13,9766.91,2171.41,-2.87,22616.88
1107000,833.75,557.30,1.00,3,3,3,7061.44,3.12,9450.15,6982.58,3.13,5524.90,6696.65,3.14,44726.03,5049.50,-3.11,14516.70,3081.06,3.06,87336.38
1121400,734.36,557.38,1.00,1,1,1,6902.00,3.14,13628.67,6395.30,-3.12,42625.07,5419.50,-3.11,89729.89,4589.38,-3.05,37965.10,4194.55,3.09,77826.19
1136100,647.67,554.04,1.00,1,1,1,5901.38,-3.10,70174.07,4189.08,-3.06,151775.61,4482.86,-3.04,68523.81,3589.85,-2.92,76782.01,4990.27,3.11,54328.69
1158200,580.72,544.80,1.00,1,1,1,3058.51,-3.00,130027.73,3026.39,-2.89,59284.21,3251.35,-2.84,64989.89,2737.59,-2.62,57316.94,5057.23,3.13,6496.54
1173000,539.52,526.25,1.00,1,1,1,3053.02,-2.72,58814.36,2474.37,-2.37,102467.56,1821.54,-2.28,132412.43,4482.86,-3.04,153375.87,5049.50,-3.11,14516.70
1187600,528.67,493.97,1.00,1,1,1,2332.32,-1.89,154441.29,1914.98,-1.44,139444.05,2469.92,-1.43,128737.12,3251.35,-2.84,98375.11,4589.38,-3.05,37445.03
1217200,550.95,442.38,1.00,1,1,1,1898.33,-1.16,52929.72,3410.91,-1.03,61469.56,1914.98,-1.44,18758.10,1821.54,-2.28,66206.21,3589.85,-2.92,38131.61
1231900,606.83,364.65,1.00,1,1,1,6512.57,-0.95,318086.11,6512.57,-0.95,212536.09,3410.91,-1.03,123775.45,2469.92,-1.43,127861.36,2737.59,-2.62,86170.36
