@RELATION gaze_labels

%@METADATA width_px 1920
%@METADATA height_px 1080
%@METADATA width_mm 540.00
%@METADATA height_mm 254.00
%@METADATA distance_mm 620.00


@ATTRIBUTE time INTEGER
@ATTRIBUTE x NUMERIC
@ATTRIBUTE y NUMERIC
@ATTRIBUTE confidence NUMERIC
@ATTRIBUTE handlabeller1 INTEGER
@ATTRIBUTE handlabeller2 INTEGER
@ATTRIBUTE handlabeller_final INTEGER
@ATTRIBUTE speed_1 numeric
@ATTRIBUTE direction_1 numeric
@ATTRIBUTE acceleration_1 numeric
@ATTRIBUTE speed_2 numeric
@ATTRIBUTE direction_2 numeric
@ATTRIBUTE acceleration_2 numeric
@ATTRIBUTE speed_4 numeric
@ATTRIBUTE direction_4 numeric
@ATTRIBUTE acceleration_4 numeric
@ATTRIBUTE speed_8 numeric
@ATTRIBUTE direction_8 numeric
@ATTRIBUTE acceleration_8 numeric
@ATTRIBUTE speed_16 numeric
@ATTRIBUTE direction_16 numeric
@ATTRIBUTE acceleration_16 numeric

%The number after speed, direction denotes the step size that was used for the calculation.
%Acceleration was calculated between two adjacent samples of the already low pass filtered velocity

@DATA
0,129.48,431.52,1.00,1,1,1,0.00,0.00,0.00,4529.57,-0.28,0.00,3475.62,-0.45,0.00,1352.51,-1.11,0.00,635.83,-1.52,0.00
22100,225.62,403.60,1.00,1,1,1,4529.57,-0.28,204958.08,3475.62,-0.45,56335.90,1765.66,-1.66,149511.92,1623.00,-2.38,80434.86,465.35,-2.15,17090.43
36900,244.98,375.75,1.00,1,1,1,2291.80,-0.96,209739.61,1765.66,-1.66,223257.66,1352.51,-1.11,63511.94,1503.57,-2.72,36149.68,134.16,-0.70,31718.01
51900,220.70,351.22,1.00,1,1,1,2301.18,-2.35,195803.80,1762.97,-2.56,101975.47,1623.00,-2.38,118507.36,1199.45,-2.85,23747.35,847.58,0.24,51709.69
81900,178.63,332.25,1.00,1,1,1,1538.04,-2.72,34215.16,1974.34,-2.78,15433.98,1503.57,-2.72,17833.84,635.83,-1.52,40548.38,1912.76,0.28,35544.11
96600,138.07,320.20,1.00,1,1,1,2878.40,-2.85,93199.62,1317.77,-2.90,46361.52,1199.45,-2.85,24231.99,465.35,-2.15,25693.77,2897.82,0.24,67237.17
133700,112.43,315.64,1.00,1,1,1,702.17,-2.97,58817.19,546.44,-3.08,21211.40,548.37,-3.05,18041.20,134.16,-0.70,12653.01,4452.28,0.22,41942.61
148200,109.93,318.46,1.00,1,1,1,259.71,2.29,41977.55,859.35,0.51,94618.39,651.30,0.45,81465.55,847.58,0.24,53492.78,5164.69,0.20,49706.30
163000,134.37,327.99,1.00,1,1,1,1772.15,0.37,126864.00,2693.06,0.31,125561.36,2644.16,0.30,135251.98,1912.76,0.28,72048.86,2402.73,0.04,190751.35
177800,185.74,343.11,1.00,2,2,2,3618.33,0.29,125601.35,4432.76,0.26,118113.76,3810.86,0.26,79368.74,2897.82,0.24,66782.86,2269.37,0.10,13182.18
192600,261.00,362.35,1.00,2,2,2,5248.57,0.25,110659.80,4711.92,0.24,20692.49,4904.60,0.25,73936.49,4452.28,0.22,105139.92,2293.48,0.13,5737.17
214700,354.73,384.00,1.00,3,3,3,4353.05,0.23,40832.47,5283.47,0.25,25941.68,5668.04,0.22,35722.94,5164.69,0.20,32612.73,2387.08,0.15,4689.89
229500,450.07,409.89,1.00,3,3,3,6675.22,0.27,157520.65,6870.66,0.20,109106.94,6061.74,0.19,28004.93,5575.39,0.18,28460.28,2597.23,0.16,14243.49
244100,552.82,423.54,1.00,3,3,3,7099.52,0.13,69169.69,7046.34,0.14,27809.41,6698.05,0.16,45526.40,5287.67,0.18,19896.23,2505.27,0.16,6305.58
259200,657.17,440.01,1.00,1,1,1,6995.95,0.16,13355.60,6535.55,0.13,34567.46,6356.44,0.12,28381.96,4877.55,0.16,28048.88,2636.40,0.14,8935.97
273900,745.97,448.51,1.00,1,1,1,6068.77,0.10,68649.71,5660.57,0.10,60877.54,4918.14,0.13,97898.48,4391.12,0.13,34158.02,2642.24,0.13,2150.96
288500,822.23,456.20,1.00,1,1,1,5249.61,0.10,56139.43,3608.47,0.14,141104.39,3697.59,0.09,84340.93,3429.94,0.08,67173.72,2459.80,0.11,12920.72
310700,877.50,466.77,1.00,1,1,1,2534.92,0.19,123148.32,2138.99,0.09,66502.66,2340.67,0.04,61522.01,2121.82,0.03,59223.76,2335.53,0.10,5698.84
325400,900.86,463.03,1.00,1,1,1,1609.42,-0.16,78914.58,888.88,-0.47,99484.50,872.79,-0.22,102910.93,1145.99,-0.13,68394.48,2147.60,0.08,13203.69
340100,900.79,454.92,1.00,1,1,1,551.82,-1.58,110300.53,990.68,-2.42,106014.70,588.13,-2.23,84711.47,590.18,-0.41,41066.19,1815.58,0.08,22591.56
354900,878.85,443.81,1.00,1,1,1,1661.96,-2.67,100767.53,1231.34,-2.72,27344.70,1078.56,-2.61,38932.91,312.16,-1.25,30135.83,1579.43,0.05,16324.84
384600,850.80,432.48,1.00,1,1,1,1018.38,-2.76,21982.18,1143.67,-2.71,2990.25,1052.44,-2.64,1216.50,379.24,-1.97,8446.71,1305.95,0.05,9210.29
406800,824.99,418.86,1.00,1,1,1,1314.70,-2.66,14353.91,850.35,-2.49,16243.07,562.88,-2.42,23308.89,357.86,-2.01,1201.05,1030.17,0.02,12517.69
421500,825.77,413.57,1.00,1,1,1,364.10,-1.43,84476.35,386.88,-0.68,69022.66,250.63,-1.37,33198.86,158.53,-1.51,15795.77,809.06,0.02,15041.58
451000,838.25,408.06,1.00,1,1,1,462.42,-0.42,13864.13,655.38,-0.04,14167.99,713.57,-0.12,23045.81,282.69,-0.22,9569.73,578.42,0.05,7852.33
465800,854.78,412.52,1.00,2,2,2,1156.88,0.26,57300.30,1331.14,0.12,46721.90,813.46,0.17,16183.75,601.92,0.12,23548.62,443.60,0.06,9118.49
480500,877.23,412.81,1.00,2,2,2,1527.25,0.01,33831.61,968.20,0.29,27963.47,1142.46,0.27,23289.81,945.55,0.19,23684.79,417.70,0.19,3990.74
517400,902.63,426.87,1.00,1,1,1,786.89,0.51,24747.37,1049.37,0.38,3206.35,1210.58,0.33,2606.40,1095.49,0.24,4245.26,405.13,0.21,464.95
532300,927.77,432.81,1.00,1,1,1,1733.67,0.23,67041.39,1635.35,0.36,39341.96,1203.04,0.36,2547.45,1171.74,0.34,9205.77,389.48,0.21,1058.96
547000,947.86,444.13,1.00,1,1,1,1568.44,0.51,33406.75,1474.50,0.33,11381.56,1559.38,0.30,24944.94,1144.57,0.38,3831.26,400.85,0.14,2039.04
561700,968.71,447.06,1.00,1,1,1,1432.71,0.14,39008.14,1491.26,0.22,11823.17,1214.89,0.42,26146.20,1118.86,0.46,6441.66,467.94,0.19,4806.53
576400,990.66,453.62,1.00,1,1,1,1558.33,0.29,17565.02,1016.97,0.52,40728.06,1068.91,0.46,10354.18,1034.80,0.43,6165.10,499.38,0.22,2293.53
598600,1001.35,465.58,1.00,1,1,1,722.41,0.84,45742.31,815.89,0.81,14988.25,1035.28,0.61,7403.56,601.04,0.49,19659.78,580.41,0.27,3875.61
613300,1011.46,475.39,1.00,1,1,1,958.32,0.77,16533.83,1070.29,0.72,18167.64,611.41,0.74,29701.47,141.29,0.25,31634.39,654.25,0.26,5051.26
628200,1025.15,486.49,1.00,1,1,1,1182.85,0.68,16360.40,365.06,0.56,47838.16,130.98,2.77,45606.66,89.62,-2.92,15495.62,775.17,0.28,8212.72
642900,1020.64,481.09,1.00,1,1,1,478.72,-2.27,112594.09,1221.07,-2.61,107893.10,909.46,-2.62,56725.28,196.64,-2.78,7380.61,1020.75,0.25,16839.90
657600,994.15,468.38,1.00,1,1,1,1998.61,-2.69,107198.63,2192.51,-2.61,66084.24,1208.43,-2.59,20451.06,146.38,-2.16,7797.97,1222.66,0.23,13777.27
672300,965.00,448.54,1.00,1,1,1,2398.72,-2.54,35232.26,1198.90,-2.57,67779.24,987.38,-2.55,15310.51,189.05,-0.83,14321.53,1471.65,0.21,17069.50
694400,957.13,444.39,1.00,1,1,1,402.87,-2.66,90449.03,116.31,-1.29,52954.75,274.93,-1.74,37198.46,456.16,-0.26,14217.03,1595.40,0.21,5602.36
709400,966.19,444.39,1.00,1,1,1,604.46,0.00,65273.29,1156.69,0.17,76680.87,950.65,0.15,71262.02,1040.95,0.07,41692.24,1782.27,0.21,12464.32
724200,991.08,450.33,1.00,1,1,1,1728.76,0.23,77661.04,2136.20,0.22,66348.50,2135.32,0.22,80337.68,1833.61,0.16,54190.62,1868.29,0.19,6217.52
738800,1027.52,457.93,1.00,2,2,2,2549.66,0.21,56377.29,3129.05,0.24,68100.97,3232.90,0.24,75271.89,2727.00,0.21,61741.80,1995.85,0.19,8744.72
753600,1080.48,472.00,1.00,2,2,2,3702.82,0.26,78724.17,4330.51,0.25,81269.10,3775.48,0.22,36864.29,3190.27,0.21,31317.41,2025.44,0.17,3222.39
768200,1150.78,489.81,1.00,2,2,2,4966.95,0.25,86651.34,4292.25,0.22,10876.52,4510.79,0.22,50371.12,3660.21,0.22,32199.35,2040.64,0.17,1043.50
790400,1234.72,506.06,1.00,3,3,3,3851.39,0.19,51483.21,4657.37,0.20,16874.79,3961.34,0.21,24826.59,3395.14,0.22,11944.16,2060.88,0.18,1284.74
805100,1319.26,523.71,1.00,1,1,1,5874.88,0.21,137733.35,3685.95,0.21,66115.53,3970.68,0.20,2181.45,3464.46,0.23,5212.49,2153.64,0.15,7289.73
834600,1394.20,539.38,1.00,1,1,1,2595.19,0.21,111175.75,3398.81,0.21,9744.41,3133.34,0.21,28389.12,3272.05,0.22,6619.80,2156.66,0.10,3916.13
849400,1466.53,555.07,1.00,1,1,1,5000.69,0.21,162544.11,2662.73,0.21,49735.20,2741.89,0.23,26775.66,2816.51,0.20,30946.50,2136.53,0.07,4674.57
886500,1529.34,568.29,1.00,1,1,1,1730.09,0.21,88157.63,2180.27,0.26,13319.49,2586.21,0.22,4235.66,2256.28,0.20,15101.40,2064.37,0.08,1979.18
901100,1575.60,583.51,1.00,1,1,1,3335.81,0.32,111474.42,2452.32,0.24,18767.96,1665.29,0.19,63232.95,1670.40,0.08,43129.43,1881.21,0.11,13386.67
916000,1599.59,585.55,1.00,1,1,1,1616.01,0.08,120989.17,815.35,-0.12,114980.17,829.87,0.13,56263.79,1244.86,-0.18,37657.41,1554.87,0.21,24519.61
930800,1599.64,580.65,1.00,1,1,1,330.82,-1.56,113053.20,823.25,-2.68,106041.35,671.94,-1.53,75245.64,893.31,-0.53,34805.79,1119.92,0.39,33457.96
945500,1577.88,574.66,1.00,1,1,1,1535.54,-2.87,101094.05,1472.60,-2.12,60394.56,1229.30,-1.87,43192.96,721.16,-0.93,24203.30,776.94,0.93,41051.46
960000,1577.21,543.97,1.00,1,1,1,2117.17,-1.59,153863.91,1816.88,-1.60,62351.15,1422.67,-1.77,15742.93,525.27,-1.71,35316.56,798.35,1.74,43152.10
982700,1575.72,507.11,1.00,1,1,1,1625.19,-1.61,21726.51,1502.05,-1.51,15304.02,1184.61,-1.49,19075.80,666.16,-2.88,29421.24,1255.60,2.21,28807.57
997600,1580.42,487.58,1.00,1,1,1,1347.85,-1.33,33146.68,470.51,-0.94,76176.36,420.39,-1.98,56020.35,1220.89,2.94,46389.34,1775.92,2.48,43646.89
1012200,1583.87,495.88,1.00,1,1,1,615.04,1.18,128760.56,1150.33,2.01,110602.23,1369.86,2.36,107906.52,1772.47,2.65,47302.79,2352.41,2.61,44031.06
1026900,1566.14,518.12,1.00,1,1,1,1934.71,2.24,117289.95,3211.53,2.33,146440.15,3070.86,2.38,115777.78,2711.52,2.53,66370.93,2674.25,2.71,27603.80
1041600,1518.69,564.19,1.00,2,2,2,4499.27,2.37,176313.46,5081.83,2.47,132379.75,4306.84,2.42,84548.75,3942.18,2.47,84882.30,2777.24,2.78,14494.59
1056300,1449.57,611.57,1.00,2,2,2,5700.63,2.54,100465.06,5191.34,2.46,7601.92,5535.86,2.46,84671.39,4925.85,2.50,67618.47,2862.26,2.84,13047.95
1078600,1369.35,684.98,1.00,2,2,2,4876.49,2.40,49631.32,5894.83,2.45,31587.96,6230.18,2.49,32414.23,5067.53,2.57,15196.70,2820.99,2.90,7909.32
1093500,1279.98,750.58,1.00,2,2,2,7440.38,2.51,177514.59,7539.38,2.52,114295.12,6588.45,2.55,35068.54,5099.02,2.63,21848.24,2601.01,2.96,17989.18
1108100,1188.37,814.26,1.00,3,3,3,7641.67,2.53,19155.06,7537.31,2.65,66371.94,5822.78,2.66,70062.37,4519.39,2.72,48856.02,2607.40,3.00,6626.86
1122900,1084.63,855.19,1.00,3,3,3,7535.35,2.77,118725.04,4777.72,2.81,197627.39,4865.98,2.79,78763.06,4138.33,2.82,40140.84,2541.58,3.05,10290.91
1152200,989.04,882.52,1.00,3,3,3,3393.27,2.86,142361.10,3432.98,2.96,50298.31,3564.93,2.99,52634.25,3789.69,3.00,27212.00,2474.25,3.10,5192.82
1174400,910.71,887.00,1.00,3,3,3,3533.75,3.08,35036.83,2683.96,-3.03,52535.90,2865.05,-3.02,50273.60,2830.21,-3.02,57849.66,2394.52,-3.13,6075.09
1203600,851.99,866.73,1.00,3,3,3,2127.60,-2.81,60324.73,2656.88,-2.56,42170.44,2854.52,-2.61,39827.21,2475.49,-2.68,32822.37,2213.45,-3.08,7508.02
1218400,812.92,822.94,1.00,3,3,3,3964.97,-2.30,158802.06,4010.88,-2.13,131972.26,2452.36,-2.14,88196.68,2270.42,-2.30,61909.78,1966.93,-2.99,20721.05
1233100,789.51,766.25,1.00,1,1,1,4172.53,-1.96,93819.37,2644.74,-1.78,120185.11,3124.08,-1.79,80189.57,2409.03,-1.97,53613.43,1788.24,-2.83,23519.19
1269900,784.45,689.75,1.00,1,1,1,2083.42,-1.64,62427.66,2849.74,-1.52,20536.25,3289.20,-1.55,20847.40,2466.79,-1.75,14722.88,1610.19,-2.63,10472.95
1284300,797.55,620.57,1.00,1,1,1,4889.71,-1.38,202761.23,4665.59,-1.33,134820.74,3063.54,-1.37,42638.13,2343.19,-1.62,23236.67,1557.62,-2.38,27758.78
1299100,817.34,557.54,1.00,1,1,1,4463.28,-1.27,46822.18,3551.50,-1.18,85838.05,3183.01,-1.25,27795.61,2063.96,-1.45,30770.59,1548.87,-2.13,26845.28
1313900,837.90,523.49,1.00,1,1,1,2687.63,-1.03,132333.14,1768.02,-1.04,122709.86,1585.82,-1.20,108144.47,1717.72,-1.31,29856.05,1581.55,-1.90,23780.12
1328600,843.74,512.56,1.00,1,1,1,843.04,-1.08,125598.99,71.85,-2.63,120487.82,715.19,-0.87,63999.29,1511.13,-1.19,19336.43,1555.62,-1.74,17020.73
1350800,835.58,522.21,1.00,1,1,1,568.91,2.27,63259.78,266.92,1.11,14804.32,258.95,-0.08,25299.81,1107.68,-1.21,18206.79,1392.12,-1.61,11479.31
1365500,848.12,521.38,1.00,1,1,1,854.74,-0.07,89463.27,659.36,-0.01,40365.48,175.51,0.11,6348.53,811.17,-1.36,22587.10,1015.11,-1.43,29503.46
1380300,855.03,522.04,1.00,1,1,1,469.19,0.09,26936.33,349.64,-0.80,32657.27,571.56,-1.22,37619.00,615.23,-1.57,16547.73,582.24,-1.02,36006.12
1395400,855.39,513.87,1.00,1,1,1,541.62,-1.53,48643.16,1094.35,-1.81,63284.13,1085.89,-1.72,42874.44,500.28,-1.71,9183.20,446.60,0.34,43514.21
1410100,847.23,490.38,1.00,1,1,1,1691.85,-1.91,81980.41,1995.76,-1.87,61564.66,1234.33,-1.78,11081.04,279.53,-1.52,15766.90,909.24,1.08,44380.02
1424800,838.27,457.75,1.00,1,1,1,2301.80,-1.84,42433.84,1348.34,-1.76,45552.65,1062.52,-1.87,13698.19,219.41,1.43,33788.69,1491.44,1.26,42106.00
1446900,837.77,441.67,1.00,1,1,1,728.00,-1.60,72549.62,319.21,-1.91,46771.29,158.07,-2.83,44306.97,874.36,1.41,29636.99,1824.71,1.32,15694.70
1461700,834.35,446.64,1.00,1,1,1,407.85,2.17,73238.77,1535.28,1.58,124214.08,1383.37,1.42,98742.60,1725.82,1.41,57531.91,2107.96,1.32,19138.62
1476500,837.26,487.11,1.00,1,1,1,2741.41,1.50,164607.12,3499.60,1.40,135782.46,3245.52,1.39,125897.98,2583.64,1.39,58018.69,2156.98,1.30,4648.32
1491300,852.07,548.70,1.00,2,2,2,4280.33,1.33,110702.83,4992.84,1.33,102728.23,4850.00,1.38,108476.99,3590.98,1.37,68256.70,2065.69,1.30,6173.59
1506100,872.44,630.65,1.00,2,2,2,5705.43,1.33,96323.74,6211.12,1.36,83157.91,5244.25,1.37,26841.84,4122.16,1.35,36037.17,1859.45,1.27,14350.66
1520700,889.96,727.33,1.00,2,2,2,6730.18,1.39,75309.56,5450.77,1.39,53399.27,5807.66,1.35,38817.10,4574.53,1.33,31760.93,1571.78,1.22,20397.62
1542900,908.23,828.02,1.00,4,4,4,4609.36,1.39,95532.23,5486.46,1.35,10860.55,4764.21,1.34,47176.77,4116.87,1.31,20869.14,1347.76,1.10,12945.83
1557600,934.74,924.77,1.00,4,4,4,6824.35,1.30,154361.11,4207.62,1.28,89843.21,4381.48,1.30,29048.76,3502.72,1.29,42296.72,1066.80,0.90,25113.80
1587200,961.84,1006.54,1.00,4,4,4,2910.27,1.25,132469.38,3483.37,1.23,25334.24,3286.92,1.25,37369.77,2634.50,1.23,29892.60,998.94,0.82,3562.13
1602300,987.03,1071.43,1.00,4,4,4,4610.03,1.20,113226.45,2378.14,1.21,73283.33,1929.28,1.15,91501.11,1496.19,1.06,78759.75,1092.53,0.88,7458.56
1631900,999.43,1105.98,1.00,2,2,2,1239.84,1.23,113876.72,616.92,0.76,62201.80,719.74,0.46,48876.10,742.06,0.07,42346.18,1227.29,1.01,6661.34
1653100,1009.69,1093.08,1.00,2,2,2,777.31,-0.90,83788.27,2083.66,-1.38,116606.12,1662.43,-1.41,94245.42,1584.89,-1.18,71725.79,1362.99,1.14,10410.56
1667800,1013.69,1032.55,1.00,2,2,2,4127.18,-1.50,239211.42,5151.20,-1.58,213243.04,4119.37,-1.48,167699.96,2454.03,-1.37,64623.75,1400.54,1.24,10053.18
1683000,1008.86,939.06,1.00,2,2,2,6158.30,-1.62,139203.74,6582.76,-1.52,96250.37,6667.01,-1.52,168118.50,2619.17,-1.45,16778.07,1343.30,1.31,7271.14
1697700,1022.83,835.93,1.00,2,2,2,7079.77,-1.44,104452.58,8221.02,-1.49,112918.57,5710.03,-1.52,65112.20,2433.20,-1.49,14367.99,1149.28,1.37,14056.57
1712400,1028.84,698.19,1.00,2,2,2,9378.98,-1.53,164341.17,5001.08,-1.51,219338.29,3786.34,-1.47,131770.05,1492.68,-1.54,64343.59,855.61,1.46,20808.59
1734500,1033.26,652.19,1.00,2,2,2,2091.21,-1.48,329928.91,278.50,-1.05,215109.27,762.46,-1.51,136858.97,193.50,-2.11,60355.23,483.29,1.60,17367.86
1749300,1033.97,689.29,1.00,2,2,2,2507.17,1.55,310192.71,4507.19,1.63,321447.51,3115.41,1.64,262018.08,1303.00,1.70,98634.40,101.62,2.99,32121.59
1764100,1025.95,785.40,1.00,2,2,2,6516.70,1.65,272352.01,7298.11,1.66,188967.13,6138.64,1.66,204392.04,2413.33,1.73,75086.84,56.36,-1.85,7432.15
1779000,1015.31,905.24,1.00,4,4,4,8074.32,1.66,104570.48,7796.65,1.68,35379.48,7060.40,1.68,62651.57,3592.53,1.71,79192.79,101.21,-1.72,3075.56
1793300,1001.21,1011.72,1.00,4,4,4,7511.01,1.70,45860.82,6821.09,1.71,69926.49,5610.37,1.71,102282.97,3570.40,1.72,3531.99,132.60,-1.68,2222.57
1807900,988.00,1100.47,1.00,4,4,4,6145.77,1.72,93808.29,3879.61,1.77,202415.36,4091.79,1.77,105611.48,2819.54,1.76,52190.20,148.14,-1.62,1198.81
1830000,973.70,1151.41,1.00,4,4,4,2394.43,1.84,171142.34,1982.58,1.93,88210.39,1736.21,1.89,107554.83,88.40,1.89,123613.93,148.75,-1.65,202.83
1844700,962.53,1168.84,1.00,4,4,4,1407.70,2.14,76582.56,394.41,-2.78,137761.40,476.51,-2.45,133418.61,29.51,-2.24,7305.82,115.05,-1.66,2296.45
1874200,957.42,1145.18,1.00,4,4,4,820.60,-1.78,70235.85,2101.81,-1.62,67019.56,79.91,-1.63,14435.59,130.30,-1.64,3636.07,100.45,-1.67,496.36
1889000,958.23,1075.83,1.00,4,4,4,4686.05,-1.56,262859.41,78.54,-1.54,136723.93,143.11,-1.54,4326.75,226.99,-1.56,6596.56,104.30,-1.66,274.76
4032600,962.79,975.73,1.00,1,1,1,46.74,-1.53,2164.27,103.25,-1.50,11.63,195.81,-1.52,24.62,296.12,-1.54,32.39,124.45,-1.65,9.44
4054900,973.45,852.72,1.00,1,1,1,5537.11,-1.48,246206.65,7038.11,-1.51,310980.54,224.65,-1.50,1301.30,329.13,-1.52,1514.52,154.22,-1.65,1336.21
4069600,979.81,715.88,1.00,1,1,1,9318.68,-1.52,257990.21,9168.51,-1.50,144925.87,7483.54,-1.51,493801.94,325.57,-1.50,419.30,191.27,-1.63,2532.83
4084300,991.37,583.76,1.00,1,1,1,9022.14,-1.48,32458.36,8044.13,-1.51,76523.17,7322.87,-1.50,11140.59,282.16,-1.49,2966.04,249.95,-1.63,3992.13
4099000,994.61,479.85,1.00,1,1,1,7072.36,-1.54,136099.44,5477.28,-1.50,174661.07,5164.81,-1.48,147193.58,3692.81,-1.49,232016.91,271.69,-1.63,1479.97
4113700,1002.86,423.14,1.00,1,1,1,3898.37,-1.43,219683.22,2312.76,-1.37,217591.72,2187.59,-1.43,202766.07,2279.57,-1.54,96645.08,282.68,-1.66,896.77
4128500,1008.32,413.01,1.00,1,1,1,777.20,-1.08,214821.69,504.08,1.11,184327.49,178.38,0.69,154523.36,1186.39,-1.62,74375.98,278.56,-1.69,651.25
4150700,1011.13,439.85,1.00,1,1,1,1215.75,1.47,85977.14,2025.53,1.63,72441.43,1386.15,1.74,58813.59,679.19,-2.00,27626.82,257.98,-1.76,1269.86
4165300,1003.70,487.41,1.00,1,1,1,3296.70,1.73,146885.59,2220.51,1.85,34211.15,1763.68,1.83,27531.57,396.77,2.94,48111.70,1924.23,-1.88,114261.26
4194800,984.14,533.99,1.00,1,1,1,1712.41,1.97,57128.71,1609.12,2.03,23748.94,1134.08,2.37,33416.24,735.55,2.60,13088.78,1602.42,-2.04,14712.87
4209100,972.38,550.55,1.00,1,1,1,1420.52,2.19,31467.45,1677.41,-2.30,190396.64,757.03,3.07,51836.79,904.77,2.69,12914.23,1312.96,-2.29,31751.68
4223800,951.75,497.70,1.00,1,1,1,3859.49,-1.94,325764.14,1377.87,-2.18,23787.34,1200.50,-2.61,49045.21,1126.44,3.00,26093.07,1098.36,-2.63,31404.06
4260600,931.73,492.38,1.00,2,2,2,562.84,-2.88,96639.34,1016.77,-2.89,24319.65,1484.05,-2.49,8793.24,1370.67,-2.96,12704.96,983.81,-2.97,9999.90
4275500,900.87,484.47,1.00,3,3,3,2137.91,-2.89,105711.27,1914.15,-2.87,60247.74,1448.02,-2.85,35668.10,1619.66,-2.75,26642.33,921.86,3.09,14819.38
4290700,876.22,476.94,1.00,3,3,3,1695.76,-2.85,29641.49,2200.69,-2.82,19873.91,2414.35,-2.83,63618.34,1814.55,-2.68,15076.81,817.51,3.01,8430.45
4305200,838.79,464.03,1.00,1,1,1,2730.68,-2.81,71566.44,2932.28,-2.81,50531.20,2152.54,-2.85,18234.15,1659.48,-2.86,23653.45,664.08,3.06,10966.70
4319900,795.33,448.87,1.00,1,1,1,3131.15,-2.81,27252.86,2114.94,-2.87,56601.68,2284.04,-2.83,9204.30,1783.71,-2.86,8472.15,500.98,-2.98,14377.97
4342200,763.40,443.06,1.00,1,1,1,1455.35,-2.96,76602.63,1771.63,-2.87,15394.91,1919.54,-2.86,16542.26,1352.47,-2.85,19355.10,396.71,-2.50,10672.42
4356700,732.52,431.38,1.00,1,1,1,2276.55,-2.78,61016.04,1672.21,-2.85,7329.94,1222.22,-2.91,48408.18,846.10,-2.83,34961.75,367.54,-2.13,10021.58
4371400,716.66,428.93,1.00,1,1,1,1091.97,-2.99,83604.57,547.75,-3.09,78128.22,443.38,-2.86,53054.92,152.57,-2.65,47374.67,124.67,-1.65,17861.51
4386200,716.38,430.60,1.00,1,1,1,114.11,1.73,74101.30,773.06,0.31,88530.24,759.85,0.29,81298.90,511.87,0.24,44643.38,188.97,-0.68,10673.03
4400900,738.41,435.79,1.00,1,1,1,1539.39,0.23,104484.01,2051.26,0.23,87210.22,1611.73,0.24,58076.14,1091.30,0.19,39483.45,290.49,-0.53,7283.05
4415800,775.54,444.28,1.00,2,2,2,2556.27,0.22,68253.23,2280.24,0.22,15380.75,2238.12,0.23,42052.35,1517.14,0.18,28605.17,337.34,-0.54,3151.04
4438000,820.91,454.50,1.00,1,1,1,2094.98,0.22,20781.24,2387.64,0.24,5024.24,2444.65,0.21,9665.58,1877.21,0.15,16380.22,381.55,-0.44,2581.79
4452800,861.43,464.92,1.00,1,1,1,2827.31,0.25,49729.04,2652.84,0.19,19496.59,2198.76,0.14,19305.61,1924.12,0.12,4648.13,492.86,-0.26,9188.72
4467400,897.49,469.28,1.00,1,1,1,2487.47,0.12,33328.97,1991.13,0.01,53828.72,2193.52,0.07,10836.89,1717.83,0.05,16952.76,578.77,-0.22,6034.80
4482000,919.57,465.27,1.00,1,1,1,1537.49,-0.18,76404.59,1776.36,-0.11,20582.44,1640.01,-0.03,40125.75,1327.57,-0.07,29295.67,745.83,-0.08,13177.61
4496500,948.89,463.82,1.00,1,1,1,2024.33,-0.05,37131.00,1364.17,-0.07,28711.16,1088.63,-0.32,46649.04,840.16,-0.30,37590.39,916.35,0.01,12855.76
4518900,969.79,461.83,1.00,1,1,1,937.40,-0.09,48604.15,651.21,-0.81,44001.48,686.81,-0.82,26018.79,582.34,-0.67,16258.61,1142.51,0.09,10699.49
4533200,965.42,446.56,1.00,1,1,1,1111.01,-1.85,110443.64,1211.26,-2.15,86446.12,578.49,-1.92,46916.85,425.00,-1.15,19968.76,1347.23,0.12,14515.06
4548000,950.63,432.25,1.00,1,1,1,1390.48,-2.37,47350.58,953.58,-2.46,28413.95,889.58,-2.33,28734.79,351.19,-1.09,5284.72,1514.36,0.14,11467.58
4577400,932.79,419.88,1.00,1,1,1,738.39,-2.54,22874.04,705.91,-2.54,8720.54,591.76,-2.36,10152.76,270.49,-0.79,4153.14,1709.75,0.16,6703.59
4592100,925.02,414.55,1.00,1,1,1,640.96,-2.54,6633.16,297.14,-2.08,31178.68,186.63,-1.83,29953.55,474.25,-0.02,23013.46,1795.75,0.16,5931.02
4629000,925.31,406.49,1.00,1,1,1,218.56,-1.53,15058.99,406.24,0.02,16602.39,600.21,0.27,19313.39,1039.53,0.22,15965.55,1801.61,0.18,690.78
4643800,946.02,414.98,1.00,2,2,2,1511.82,0.39,108138.84,2043.15,0.45,113657.47,1560.36,0.37,65245.13,1704.93,0.27,45188.77,1734.08,0.20,5148.21
4658600,979.80,432.73,1.00,2,2,2,2578.77,0.48,73193.22,3635.17,0.44,107579.03,3581.19,0.37,136547.65,2636.18,0.29,62970.69,1515.64,0.22,14890.10
4673300,1043.01,460.72,1.00,2,2,2,4702.49,0.42,145335.57,5144.93,0.33,107527.02,4307.85,0.33,50552.89,3147.85,0.29,34820.10,1187.60,0.24,22384.25
4687900,1122.30,481.92,1.00,3,3,3,5621.52,0.26,83432.05,4876.03,0.26,31514.83,5129.93,0.29,57325.64,4036.18,0.31,60980.79,880.93,0.30,21537.34
4710200,1216.99,506.60,1.00,3,3,3,4387.99,0.25,55333.10,5123.83,0.26,11135.28,5097.32,0.26,6567.90,3875.13,0.31,7222.02,577.93,0.44,14271.25
4724900,1305.46,530.84,1.00,1,1,1,6240.36,0.27,126090.58,5374.42,0.27,17533.90,4449.82,0.27,44104.78,3299.05,0.31,39210.53,329.03,0.78,19618.27
4739700,1369.68,549.27,1.00,1,1,1,4514.52,0.28,116689.26,3593.85,0.29,120431.95,3386.16,0.29,72018.34,2036.86,0.30,85284.60,192.10,2.11,22953.93
4754000,1405.65,560.83,1.00,1,1,1,2641.83,0.31,131179.80,1374.37,0.36,155536.94,1251.30,0.37,149692.32,707.50,0.44,93707.59,397.80,2.63,17549.00
4768800,1407.17,563.21,1.00,1,1,1,190.50,1.00,168767.19,1036.64,-3.03,161728.92,1024.22,-3.03,152556.15,924.05,-3.11,107945.97,610.48,2.92,17215.52
4784100,1374.64,557.32,1.00,2,2,2,2160.49,-2.96,149969.32,2861.09,-2.94,119680.77,3014.68,-2.95,130398.16,2485.82,-2.99,102811.78,837.55,3.08,16618.56
4806400,1301.82,541.46,1.00,2,2,2,3342.40,-2.93,53171.80,4631.32,-2.94,79384.29,4662.95,-2.95,73914.47,3815.64,-2.95,59809.31,1069.02,-3.08,11589.94
4821000,1207.38,522.28,1.00,2,2,2,6600.30,-2.94,223190.24,6975.50,-2.95,160703.21,5797.70,-2.95,77723.21,4575.88,-2.96,52080.95,1360.18,-3.03,20405.77
4835700,1101.08,503.05,1.00,3,3,3,7348.92,-2.96,51919.90,7257.37,-2.96,19249.18,6969.62,-2.94,79752.33,4697.93,-2.96,8316.21,1678.06,-2.99,22043.23
4850500,996.96,482.78,1.00,1,1,1,7166.75,-2.95,13921.95,6964.65,-2.93,23152.06,6342.94,-2.96,43264.92,4683.82,-2.96,1198.37,1852.19,-2.95,12449.46
4865500,898.11,459.66,1.00,1,1,1,6767.67,-2.91,31806.09,5434.92,-2.97,103145.08,4733.87,-2.97,107317.38,4000.90,-2.96,45538.93,2024.60,-2.93,12021.88
4880200,837.95,455.00,1.00,1,1,1,4104.92,-3.06,189205.58,2920.42,-3.05,172345.08,3566.46,-2.98,79519.13,3299.63,-2.96,47708.14,2107.30,-2.90,6437.55
4901900,792.29,449.55,1.00,1,1,1,2119.06,-3.02,91689.97,2043.69,-3.02,40518.53,1826.46,-3.03,80351.66,2329.43,-2.95,44763.65,2104.62,-2.89,1442.97
4916600,764.12,445.91,1.00,1,1,1,1932.50,-3.01,12757.45,924.87,-2.98,76187.51,1064.35,-2.97,52172.82,1363.33,-2.90,65905.40,1975.28,-2.88,8818.80
4946000,752.02,443.08,1.00,1,1,1,422.57,-2.91,51452.44,274.50,-2.64,22871.46,375.58,-2.69,24185.95,638.73,-2.79,24893.23,1861.36,-2.90,4015.77
4960800,753.47,440.09,1.00,1,1,1,224.16,-1.12,35142.87,399.23,-0.49,40282.48,246.54,-0.69,35698.35,269.84,-2.11,31221.96,3299.63,-2.96,97733.39
4982800,765.00,436.19,1.00,1,1,1,553.27,-0.33,19405.19,588.05,-0.31,9471.04,643.63,-0.36,18960.34,306.81,-0.93,14681.49,2329.43,-2.95,44153.23
5012400,782.41,430.96,1.00,1,1,1,614.04,-0.29,2161.55,849.30,-0.31,8828.82,810.70,-0.35,5654.32,369.61,-0.66,3704.34,1363.33,-2.90,32730.05
5027300,800.94,424.49,1.00,1,1,1,1317.28,-0.34,47272.86,1198.03,-0.39,23899.47,825.87,-0.42,3804.02,287.39,-0.76,5952.82,638.73,-2.79,49118.19
5042200,815.48,417.51,1.00,1,1,1,1082.46,-0.45,18111.22,807.47,-0.58,29100.68,547.07,-0.64,21336.53,810.70,-0.35,37549.91,269.84,-2.11,31012.42
5056600,820.75,411.56,1.00,1,1,1,552.11,-0.85,42510.41,252.84,-2.01,56446.88,318.92,-2.61,50824.64,825.87,-0.42,3936.10,306.81,-0.93,22430.06
5078900,811.50,409.12,1.00,1,1,1,428.78,-2.88,37574.66,1030.09,3.08,43241.95,252.84,-2.01,8060.63,547.07,-0.64,14256.25,369.61,-0.66,4916.97
5093600,782.70,413.79,1.00,1,1,1,1984.82,2.98,109010.08,1984.82,2.98,65700.67,1030.09,3.08,65598.34,318.92,-2.61,49787.40,287.39,-0.76,6033.81
