@RELATION gaze_labels

%@METADATA width_px 1920
%@METADATA height_px 1080
%@METADATA width_mm 540.00
%@METADATA height_mm 254.00
%@METADATA distance_mm 620.00


@ATTRIBUTE time INTEGER
@ATTRIBUTE x NUMERIC
@ATTRIBUTE y NUMERIC
@ATTRIBUTE confidence NUMERIC
@ATTRIBUTE handlabeller1 INTEGER
@ATTRIBUTE handlabeller2 INTEGER
@ATTRIBUTE handlabeller_final INTEGER
@ATTRIBUTE speed_1 numeric
@ATTRIBUTE direction_1 numeric
@ATTRIBUTE acceleration_1 numeric
@ATTRIBUTE speed_2 numeric
@ATTRIBUTE direction_2 numeric
@ATTRIBUTE acceleration_2 numeric
@ATTRIBUTE speed_4 numeric
@ATTRIBUTE direction_4 numeric
@ATTRIBUTE acceleration_4 numeric
@ATTRIBUTE speed_8 numeric
@ATTRIBUTE direction_8 numeric
@ATTRIBUTE acceleration_8 numeric
@ATTRIBUTE speed_16 numeric
@ATTRIBUTE direction_16 numeric
@ATTRIBUTE acceleration_16 numeric

%The number after speed, direction denotes the step size that was used for the calculation.
%Acceleration was calculated between two adjacent samples of the already low pass filtered velocity

@DATA
0,261.24,297.80,1.00,1,1,1,0.00,0.00,0.00,2244.27,0.45,0.00,3002.29,0.33,0.00,3552.42,0.24,0.00,2002.25,0.16,0.00
14600,290.78,311.97,1.00,2,2,2,2244.27,0.45,153717.23,3002.29,0.33,56074.73,4041.15,0.22,75289.89,3364.61,0.18,19046.94,1727.00,0.12,19642.32
29600,345.37,326.42,1.00,2,2,2,3764.58,0.26,107703.36,4041.15,0.22,73282.16,3552.42,0.24,32750.81,2447.99,0.13,61761.55,1398.74,0.08,22243.44
44200,407.40,338.61,1.00,2,2,2,4329.57,0.19,42619.76,4127.50,0.17,15893.48,3364.61,0.18,19046.94,1889.72,0.08,39022.15,1067.63,0.05,22794.53
59000,464.93,347.17,1.00,3,3,3,3930.38,0.15,29919.37,2829.32,0.13,88365.29,2447.99,0.13,62596.17,2002.25,0.16,13221.05,941.64,0.09,8927.15
81100,510.98,351.68,1.00,1,1,1,2093.41,0.10,83373.49,1501.45,0.07,60316.77,1889.72,0.08,25779.34,1727.00,0.12,12976.37,1059.88,0.17,6316.71
110900,542.67,352.52,1.00,1,1,1,1064.04,0.03,34725.22,1116.83,-0.02,13469.48,1070.07,0.00,27733.71,1398.74,0.08,11196.36,1476.03,0.26,14533.98
125500,560.55,350.69,1.00,1,1,1,1231.10,-0.10,15253.34,578.51,-0.19,38090.37,612.30,-0.12,32047.36,1067.63,0.05,22794.53,1781.65,0.29,21119.23
155100,567.77,347.60,1.00,1,1,1,265.06,-0.40,33151.85,203.59,-0.58,13438.02,368.29,-0.28,8644.83,941.64,0.09,4463.57,2263.26,0.23,16670.66
177000,569.31,344.92,1.00,1,1,1,141.31,-1.05,7957.27,130.29,-0.75,3561.12,244.48,-0.16,5884.37,1059.88,0.17,6374.40,2416.48,0.22,7120.19
191600,571.26,344.37,1.00,1,1,1,138.68,-0.27,7263.60,379.13,0.24,22358.47,771.22,0.27,38236.56,1476.03,0.26,29665.24,2457.85,0.22,2844.33
206100,580.01,347.58,1.00,1,1,1,643.20,0.35,37024.23,1664.67,0.35,88866.49,1856.88,0.32,74972.00,1781.65,0.29,21264.88,2438.73,0.23,2105.18
220500,616.37,361.08,1.00,2,2,2,2693.25,0.36,142364.98,3330.71,0.33,115795.99,3081.93,0.35,85212.56,2583.23,0.30,55698.11,2278.28,0.24,11175.33
235300,672.17,378.67,1.00,2,2,2,3952.92,0.31,85826.70,4456.46,0.34,76209.38,3701.93,0.32,42258.00,3336.00,0.29,50893.67,2197.07,0.25,5626.00
250300,741.42,405.79,1.00,2,2,2,4958.33,0.37,69959.56,3999.74,0.32,31161.40,4379.16,0.31,45380.66,3866.80,0.29,35387.16,2199.58,0.25,1176.70
271700,810.37,424.45,1.00,3,3,3,3337.97,0.26,78504.89,4320.53,0.27,17598.15,4639.37,0.28,13108.89,4255.96,0.29,18186.06,2143.03,0.26,2765.84
286500,892.05,447.88,1.00,1,1,1,5741.56,0.28,162466.42,5427.40,0.25,75232.75,4577.20,0.26,9011.30,3930.75,0.28,22174.60,2210.76,0.25,4978.37
301500,967.18,464.06,1.00,1,1,1,5123.47,0.21,47810.36,4895.80,0.24,35575.31,4879.86,0.26,20360.32,3532.88,0.27,26573.27,2201.61,0.24,1789.49
315800,1031.44,481.75,1.00,1,1,1,4660.95,0.27,37648.76,4315.25,0.29,43542.55,3484.67,0.25,97668.19,2966.10,0.25,40016.22,2154.96,0.23,3703.47
330300,1086.36,499.29,1.00,1,1,1,3976.06,0.31,48738.53,2355.61,0.27,135219.60,2416.70,0.26,73677.12,2566.57,0.24,27597.74,2005.36,0.23,10343.65
352400,1114.60,504.53,1.00,1,1,1,1299.27,0.18,121809.35,937.33,0.15,64620.67,1370.05,0.23,47428.39,1827.83,0.17,34109.04,1807.66,0.22,8971.32
367100,1120.44,504.61,1.00,1,1,1,397.94,0.01,61874.37,189.35,-0.43,53517.17,538.80,0.05,57458.03,1088.76,0.07,51193.58,1350.52,0.22,31108.81
381900,1119.67,502.19,1.00,1,1,1,171.72,-1.88,32502.53,128.39,-1.11,8118.48,300.33,-1.44,40204.95,604.89,-0.17,35288.25,839.75,0.18,34603.59
396800,1122.14,501.19,1.00,1,1,1,179.04,-0.38,16046.78,523.86,-1.75,28689.59,602.80,-2.10,27459.26,245.74,-0.84,29553.47,377.95,0.13,31041.51
411400,1116.98,486.97,1.00,1,1,1,1036.45,-1.92,71632.32,1145.28,-2.19,48558.60,531.97,-1.84,11152.71,281.87,-2.06,20791.91,157.97,-2.86,36618.93
426200,1102.60,473.77,1.00,1,1,1,1318.59,-2.40,42099.01,541.46,-1.91,43501.21,386.19,-1.95,10501.16,526.68,-2.59,21306.82,647.88,-2.96,33186.05
448300,1110.42,468.10,1.00,1,1,1,437.07,-0.63,66484.12,154.74,-0.20,26370.70,335.67,-2.46,8408.64,891.12,-2.77,17483.28,1080.73,-2.98,19590.02
477800,1110.43,472.19,1.00,1,1,1,138.68,1.57,17977.29,330.68,3.03,16441.69,551.88,-2.91,9811.12,1313.76,-2.85,14569.93,1421.97,-2.98,11567.77
492500,1095.90,469.75,1.00,1,1,1,1002.46,-2.98,70396.93,1354.91,-2.96,70921.13,1322.54,-3.00,52696.04,1682.77,-2.95,27244.72,1636.57,-2.98,14606.49
522400,1050.96,461.45,1.00,2,2,2,1528.24,-2.96,17597.05,2175.89,-2.97,27458.12,2398.22,-2.97,36016.21,1978.67,-3.01,10518.33,1746.03,-2.98,3679.45
544500,984.48,450.05,1.00,3,3,3,3052.22,-2.97,68968.98,3662.74,-2.97,67285.39,3068.97,-3.00,30595.30,2498.33,-3.04,23773.86,1817.10,-2.98,3244.90
559200,918.05,439.00,1.00,3,3,3,4580.64,-2.98,103982.31,4653.03,-3.03,69271.93,4056.99,-3.03,67517.68,3061.17,-3.05,38299.90,1881.55,-2.97,4476.04
573900,848.50,435.04,1.00,1,1,1,4739.00,-3.08,35856.51,4564.23,-3.08,17454.63,4425.20,-3.07,27176.97,3032.96,-3.05,2021.39,1847.09,-2.99,2897.47
588600,784.09,431.27,1.00,1,1,1,4389.47,-3.08,23782.99,4202.98,-3.10,25224.13,3994.21,-3.11,32353.49,3227.69,-3.05,13274.02,1662.37,-3.00,12637.24
603300,725.03,430.27,1.00,1,1,1,4018.33,-3.12,27927.44,3432.61,3.13,53929.61,2999.25,-3.11,67684.49,3048.79,-3.06,12381.21,1635.37,-3.01,2000.91
618200,682.49,432.35,1.00,1,1,1,2858.31,3.09,79265.83,2043.32,-3.13,93309.50,2404.07,-3.08,40425.77,2641.47,-3.06,27341.54,1623.69,-2.98,2417.53
640300,649.43,429.56,1.00,1,1,1,1501.28,-3.06,62652.60,1598.82,-2.95,24814.05,1839.33,-3.04,25781.20,2063.16,-3.03,26364.10,1410.06,-2.98,9666.43
655100,624.53,421.36,1.00,1,1,1,1771.52,-2.82,31547.02,1612.36,-2.90,5455.48,1454.46,-2.91,29667.63,1275.96,-2.98,53445.85,1079.08,-3.00,22402.61
670200,602.57,418.24,1.00,1,1,1,1468.84,-3.00,27554.35,1276.19,-2.85,22833.39,1064.13,-2.74,29554.47,638.05,-2.83,43182.35,590.94,-3.03,32361.58
684300,588.82,410.69,1.00,1,1,1,1112.34,-2.64,41254.39,588.02,-2.26,60552.34,291.15,-1.98,62222.01,234.03,-1.88,38061.18,37.66,1.86,41530.13
699200,591.73,405.08,1.00,1,1,1,424.45,-1.09,79257.74,780.77,-0.25,77924.08,675.82,-0.32,50850.01,557.56,-0.29,40808.98,516.48,0.19,35006.66
721400,616.91,403.62,1.00,1,1,1,1136.12,-0.06,44555.73,1445.03,-0.02,31867.97,1278.78,-0.09,28807.67,1212.72,0.01,31496.51,969.60,0.15,20448.45
735800,644.61,404.19,1.00,2,2,2,1924.06,0.02,55301.99,1931.46,-0.01,33781.37,1885.85,0.04,44372.89,1897.48,0.06,47943.84,1334.54,0.12,25431.24
750500,673.11,402.84,1.00,2,2,2,1940.88,-0.05,8950.46,2438.92,0.07,36893.59,2735.91,0.12,59173.96,2472.81,0.11,39841.48,1440.42,0.10,7607.59
765200,716.12,409.51,1.00,2,2,2,2960.62,0.15,76697.64,3557.22,0.19,79353.25,3333.20,0.15,41193.82,2712.25,0.14,16946.18,1584.96,0.08,9944.34
779900,775.87,422.29,1.00,2,2,2,4156.63,0.21,82484.46,4244.67,0.19,46797.37,3694.41,0.19,26009.44,3105.70,0.15,26894.36,1606.71,0.08,1532.05
794400,837.75,433.35,1.00,3,3,3,4335.14,0.18,15769.58,3802.54,0.18,30594.01,3397.19,0.19,20513.68,3195.12,0.16,6209.95,1588.14,0.07,1831.47
817200,915.30,448.32,1.00,1,1,1,3463.96,0.19,38279.55,2920.43,0.19,38688.97,3374.66,0.18,2073.46,2694.46,0.16,21962.28,1557.43,0.08,1539.91
846300,986.73,461.26,1.00,1,1,1,2494.65,0.18,33329.45,3010.49,0.17,3545.74,3095.60,0.16,9688.28,2409.78,0.15,9865.61,1568.85,0.11,1875.38
861000,1045.30,470.39,1.00,1,1,1,4032.31,0.15,104736.32,3408.74,0.13,28183.55,1999.30,0.13,74811.54,1913.22,0.11,34137.49,1695.74,0.17,11070.94
875600,1085.73,474.45,1.00,1,1,1,2783.35,0.10,86450.32,1152.07,0.04,155035.68,1435.10,0.05,39836.71,1351.85,0.07,38766.85,3195.12,0.16,102726.56
912900,1105.03,473.00,1.00,1,1,1,518.96,-0.08,60969.56,369.64,-0.42,22465.01,508.40,-0.32,26240.88,776.29,-0.03,15650.65,2694.46,0.16,13424.66
927600,1103.28,466.62,1.00,1,1,1,450.32,-1.84,50979.29,886.31,-2.49,75586.15,477.27,-2.40,57768.42,378.82,-0.12,27252.54,2409.78,0.15,19529.87
942200,1084.42,457.21,1.00,1,1,1,1443.77,-2.68,81604.91,1691.92,-2.76,59789.91,1276.19,-2.76,57956.50,367.76,0.32,11270.77,1913.22,0.11,34371.30
957000,1057.05,448.24,1.00,2,2,2,1945.49,-2.82,37716.05,1710.80,-2.90,15591.20,1106.62,-2.96,19728.32,477.27,-2.40,55881.59,1351.85,0.07,38242.97
971800,1035.27,445.02,1.00,2,2,2,1488.25,-2.99,36529.60,644.73,2.78,83497.34,494.35,1.18,96901.45,1276.19,-2.76,57173.30,776.29,-0.03,39443.87
986300,1039.38,454.91,1.00,2,2,2,739.36,1.18,136107.28,2028.77,0.61,169161.53,644.73,2.78,56699.59,1106.62,-2.96,20136.49,378.82,-0.12,27628.44
1008700,1096.79,487.66,1.00,2,2,2,2950.60,0.52,107527.26,2950.60,0.52,42253.26,2028.77,0.61,109501.89,494.35,1.18,64024.17,367.76,0.32,7346.13
