@RELATION gaze_labels

%@METADATA width_px 1920
%@METADATA height_px 1080
%@METADATA width_mm 540.00
%@METADATA height_mm 254.00
%@METADATA distance_mm 620.00


@ATTRIBUTE time INTEGER
@ATTRIBUTE x NUMERIC
@ATTRIBUTE y NUMERIC
@ATTRIBUTE confidence NUMERIC
@ATTRIBUTE handlabeller1 INTEGER
@ATTRIBUTE handlabeller2 INTEGER
@ATTRIBUTE handlabeller_final INTEGER
@ATTRIBUTE speed_1 numeric
@ATTRIBUTE direction_1 numeric
@ATTRIBUTE acceleration_1 numeric
@ATTRIBUTE speed_2 numeric
@ATTRIBUTE direction_2 numeric
@ATTRIBUTE acceleration_2 numeric
@ATTRIBUTE speed_4 numeric
@ATTRIBUTE direction_4 numeric
@ATTRIBUTE acceleration_4 numeric
@ATTRIBUTE speed_8 numeric
@ATTRIBUTE direction_8 numeric
@ATTRIBUTE acceleration_8 numeric
@ATTRIBUTE speed_16 numeric
@ATTRIBUTE direction_16 numeric
@ATTRIBUTE acceleration_16 numeric

%The number after speed, direction denotes the step size that was used for the calculation.
%Acceleration was calculated between two adjacent samples of the already low pass filtered velocity

@DATA
0,803.10,361.53,1.00,1,1,1,0.00,0.00,0.00,4026.84,0.54,0.00,2059.87,0.53,0.00,561.73,0.49,0.00,15.45,-2.56,0.00
14700,853.99,391.75,1.00,1,1,1,4026.84,0.54,273934.97,2059.87,0.53,133822.45,154.85,0.33,129810.67,391.55,-2.55,64761.20,272.82,-2.61,17510.04
36900,868.84,399.67,1.00,1,1,1,758.05,0.49,147287.79,154.85,0.33,85955.71,561.73,0.49,18447.85,825.69,-2.59,19590.19,199.34,-2.63,3317.00
66400,861.57,394.35,1.00,1,1,1,305.60,-2.51,35981.90,690.78,-2.56,28530.30,391.55,-2.55,32270.83,901.60,-2.62,2655.43,138.69,0.55,11455.62
81100,843.33,382.90,1.00,1,1,1,1464.84,-2.58,78926.20,1021.20,-2.59,22558.74,825.69,-2.59,29585.18,15.45,-2.56,60283.74,581.25,0.49,30131.30
110900,822.78,370.67,1.00,1,1,1,802.47,-2.60,22244.16,960.02,-2.62,2185.87,901.60,-2.62,2628.70,272.82,-2.61,8637.50,1219.98,0.49,21434.05
125700,806.29,361.43,1.00,1,1,1,1277.48,-2.63,32143.72,757.73,-2.65,13811.99,590.37,-2.65,21091.47,199.34,-2.63,4975.51,1776.01,0.48,37595.00
147700,798.19,357.53,1.00,1,1,1,408.62,-2.69,39547.25,147.76,-2.90,27989.91,108.49,-2.97,22205.54,138.69,0.55,15360.95,2363.26,0.46,26745.24
162500,801.00,360.15,1.00,1,1,1,259.71,0.75,44675.41,717.51,0.60,57934.79,645.35,0.58,50427.84,581.25,0.49,29927.71,1164.35,0.43,81100.75
177200,815.69,369.42,1.00,1,1,1,1182.09,0.56,63133.21,1638.78,0.54,62808.77,1567.23,0.53,62793.01,1219.98,0.49,43451.33,1079.71,0.39,6482.34
191600,841.89,384.68,1.00,2,2,2,2105.48,0.53,64244.33,2413.15,0.51,53908.01,2015.39,0.49,31519.51,1776.01,0.48,38639.31,1072.59,0.38,1052.34
206900,878.14,404.61,1.00,2,2,2,2703.07,0.50,39249.15,2310.77,0.46,10008.38,2541.19,0.48,34402.31,2363.26,0.46,38457.20,1207.46,0.35,9018.25
229000,919.14,423.43,1.00,2,2,2,2041.74,0.43,30895.73,2646.56,0.46,15216.77,2895.16,0.46,16246.25,2694.19,0.43,15457.36,1328.61,0.34,5527.29
243600,965.28,447.50,1.00,1,1,1,3564.19,0.48,104696.74,3638.67,0.45,67956.47,3080.05,0.43,13896.87,2830.81,0.41,10308.88,1542.01,0.33,14621.17
258400,1015.28,470.35,1.00,1,1,1,3714.60,0.43,16392.09,3621.56,0.41,11643.07,3469.31,0.39,27976.18,2549.12,0.39,19307.13,1605.56,0.34,4361.85
273100,1063.40,489.77,1.00,1,1,1,3529.72,0.38,16746.45,3316.73,0.31,29976.69,3172.61,0.34,23047.52,2343.99,0.34,16256.81,1635.77,0.36,2664.97
287800,1108.00,500.56,1.00,1,1,1,3121.50,0.24,43169.88,2741.89,0.25,41464.68,2217.34,0.30,65450.26,2222.59,0.29,10986.75,1423.08,0.37,14522.52
302500,1141.55,509.54,1.00,1,1,1,2362.67,0.26,51818.28,1342.93,0.26,95173.54,1647.14,0.16,42364.22,1910.86,0.23,23043.96,1270.01,0.38,10462.34
324700,1155.93,513.12,1.00,1,1,1,667.78,0.24,76353.34,803.53,-0.07,28539.96,1169.25,0.04,22976.85,1465.98,0.16,20598.15,1037.09,0.41,10584.46
339400,1171.13,507.61,1.00,1,1,1,1099.87,-0.35,44928.70,1058.65,-0.32,23606.55,866.03,-0.14,23966.82,953.11,0.09,35340.80,653.28,0.47,26308.33
354100,1185.47,503.31,1.00,1,1,1,1018.25,-0.29,6847.44,950.79,-0.23,9789.21,719.22,-0.31,13374.72,371.11,-0.01,39800.31,297.52,0.69,25098.78
368800,1198.38,501.36,1.00,1,1,1,888.10,-0.15,12745.54,380.06,-0.28,38879.32,219.27,-0.54,34583.97,83.03,-1.93,27707.54,164.47,2.62,26382.53
383500,1196.22,500.26,1.00,1,1,1,164.52,-2.67,69833.06,548.58,-3.12,62483.28,285.03,-3.01,32388.56,403.74,-2.85,24461.70,515.33,-3.07,26496.49
398300,1182.20,500.95,1.00,1,1,1,948.50,3.09,54708.58,652.36,-3.14,7070.19,754.91,-3.09,31854.08,817.32,-2.99,28484.08,900.23,-2.96,26493.71
435000,1162.62,500.18,1.00,1,1,1,533.82,-3.10,11429.59,873.04,-3.08,6143.57,1164.68,-3.11,11174.83,1242.91,-3.01,11611.71,1308.70,-2.93,11163.35
449900,1137.24,498.08,1.00,1,1,1,1709.26,-3.06,78935.99,2056.99,-3.09,79464.94,1425.07,-3.05,18070.11,1696.61,-3.03,30493.81,1655.10,-2.91,23313.59
464600,1101.82,496.91,1.00,2,2,2,2410.68,-3.11,48199.34,2067.09,-3.04,6649.43,2193.76,-3.02,52484.29,2037.49,-3.02,23235.76,1870.33,-2.91,14680.55
494300,1045.93,488.84,1.00,2,2,2,1901.48,-3.00,18896.40,2276.41,-2.98,8392.34,2635.25,-3.02,14864.93,2326.28,-2.99,9984.49,1929.47,-2.93,2435.60
516500,985.25,477.71,1.00,1,1,1,2778.96,-2.96,39722.16,3316.62,-3.00,46907.25,2912.06,-2.99,13013.48,3061.96,-2.96,33322.47,1851.06,-2.94,3806.10
531400,924.19,470.99,1.00,1,1,1,4123.03,-3.03,91671.35,4026.80,-2.99,47672.60,3633.91,-2.95,48976.24,3347.69,-2.94,19813.40,1644.66,-2.96,13997.99
546100,867.39,459.96,1.00,1,1,1,3936.11,-2.95,25870.94,4042.42,-2.91,23339.49,4271.41,-2.92,44231.28,3260.12,-2.91,8062.06,1277.08,-2.98,25110.54
560800,808.59,443.38,1.00,1,1,1,4155.68,-2.87,27280.46,4538.65,-2.86,36999.94,4357.67,-2.87,15657.46,3228.33,-2.91,2314.63,860.08,-3.01,28420.20
575400,739.82,422.39,1.00,1,1,1,4924.75,-2.85,53095.37,4679.11,-2.84,10950.19,3707.40,-2.84,45235.55,2643.72,-2.90,40064.19,428.18,-3.12,29970.11
590100,677.74,402.48,1.00,1,1,1,4435.37,-2.83,33590.93,3048.07,-2.83,111003.82,2830.11,-2.85,59724.39,1590.03,-2.87,71862.43,91.48,1.24,31806.88
612300,632.91,387.46,1.00,1,1,1,2129.56,-2.82,103880.80,1371.12,-2.89,75761.77,1208.90,-2.85,73029.53,306.73,-2.68,58094.16,663.78,0.32,27575.17
627200,628.48,389.76,1.00,1,1,1,334.78,2.66,128334.73,1070.30,0.37,163596.56,845.85,0.25,137870.65,1032.05,0.19,89280.67,1387.30,0.27,48704.43
642100,662.70,398.86,1.00,1,1,1,2376.04,0.26,176717.64,3624.55,0.25,172075.92,3505.93,0.27,178541.12,2358.12,0.24,89160.54,2075.87,0.24,46279.15
656800,732.37,416.55,1.00,2,2,2,4890.14,0.25,171046.66,5980.50,0.25,160269.33,5328.73,0.25,124150.42,3615.55,0.25,85549.25,2602.60,0.22,36027.34
671500,832.93,442.87,1.00,2,2,2,7070.95,0.26,148382.80,7010.22,0.25,70083.19,5918.46,0.25,40155.30,5262.46,0.26,112046.19,2731.67,0.20,9190.75
686800,936.24,468.18,1.00,2,2,2,6952.30,0.24,10607.51,5869.69,0.25,74599.60,6381.11,0.25,30297.83,6266.50,0.25,65683.99,2945.81,0.19,14135.66
708900,1045.36,498.22,1.00,3,3,3,5121.20,0.27,83210.39,5868.27,0.25,1122.93,6822.00,0.25,19952.09,6814.31,0.24,24844.65,2903.97,0.18,2296.44
723600,1145.45,521.74,1.00,3,3,3,6994.04,0.23,128331.70,8037.89,0.24,147647.08,7112.07,0.25,19752.31,6803.33,0.23,4214.87,2823.89,0.17,5748.92
738200,1274.00,554.67,1.00,1,1,1,9089.67,0.25,143950.29,8674.37,0.24,43596.53,7841.69,0.23,50552.27,5310.26,0.22,102472.47,2763.62,0.17,4349.64
752900,1392.15,582.84,1.00,1,1,1,8262.50,0.23,57132.87,7644.40,0.22,71169.99,7289.05,0.22,38367.00,4590.65,0.19,49544.72,2492.76,0.16,18488.58
767200,1490.34,603.11,1.00,1,1,1,7010.80,0.20,89022.26,5896.88,0.18,123828.29,4065.77,0.17,225988.64,3382.25,0.15,85444.03,2187.41,0.18,21555.40
781900,1560.47,613.06,1.00,1,1,1,4818.78,0.14,151150.22,2068.70,0.08,261500.95,2546.29,0.07,105608.67,2187.41,0.07,82506.38,6803.33,0.23,314349.79
818800,1596.76,611.39,1.00,1,1,1,984.52,-0.05,104493.28,757.77,-0.39,38861.67,793.03,-0.37,50498.72,901.36,-0.24,36837.08,5310.26,0.22,40544.66
833400,1596.55,598.20,1.00,1,1,1,903.68,-1.59,90137.32,1142.69,-2.35,109094.22,893.57,-2.34,96208.89,613.23,-2.20,86746.07,4590.65,0.19,49884.07
863100,1561.16,575.40,1.00,2,2,2,1417.44,-2.57,39906.03,2190.95,-2.67,39109.26,2529.06,-2.67,57607.43,1427.13,-2.72,31887.28,3382.25,0.15,41139.72
884600,1496.71,547.06,1.00,2,2,2,3274.77,-2.73,87824.31,4321.41,-2.78,100326.62,3467.89,-2.79,46622.53,893.57,-2.34,31887.05,2187.41,0.07,56411.34
899300,1414.95,519.76,1.00,2,2,2,5863.36,-2.82,178214.51,5749.14,-2.88,102721.58,4405.73,-2.91,71025.20,2529.06,-2.67,116390.52,901.36,-0.24,92468.58
913900,1334.14,502.95,1.00,2,2,2,5653.96,-2.94,48369.27,4610.71,-3.06,102229.25,5749.14,-2.88,92767.36,3467.89,-2.79,68656.47,613.23,-2.20,86746.07
928700,1279.80,509.31,1.00,0,0,0,3696.20,3.03,165160.22,3696.20,3.03,82018.34,4610.71,-3.06,100847.77,4405.73,-2.91,70545.30,1427.13,-2.72,63990.02
