@RELATION gaze_labels

%@METADATA width_px 1920
%@METADATA height_px 1080
%@METADATA width_mm 540.00
%@METADATA height_mm 254.00
%@METADATA distance_mm 620.00


@ATTRIBUTE time INTEGER
@ATTRIBUTE x NUMERIC
@ATTRIBUTE y NUMERIC
@ATTRIBUTE confidence NUMERIC
@ATTRIBUTE handlabeller1 INTEGER
@ATTRIBUTE handlabeller2 INTEGER
@ATTRIBUTE handlabeller_final INTEGER
@ATTRIBUTE speed_1 numeric
@ATTRIBUTE direction_1 numeric
@ATTRIBUTE acceleration_1 numeric
@ATTRIBUTE speed_2 numeric
@ATTRIBUTE direction_2 numeric
@ATTRIBUTE acceleration_2 numeric
@ATTRIBUTE speed_4 numeric
@ATTRIBUTE direction_4 numeric
@ATTRIBUTE acceleration_4 numeric
@ATTRIBUTE speed_8 numeric
@ATTRIBUTE direction_8 numeric
@ATTRIBUTE acceleration_8 numeric
@ATTRIBUTE speed_16 numeric
@ATTRIBUTE direction_16 numeric
@ATTRIBUTE acceleration_16 numeric

%The number after speed, direction denotes the step size that was used for the calculation.
%Acceleration was calculated between two adjacent samples of the already low pass filtered velocity

@DATA
0,790.03,370.46,1.00,1,1,1,0.00,0.00,0.00,1041.84,1.92,0.00,705.31,1.66,0.00,349.86,1.15,0.00,84.17,2.86,0.00
14500,784.88,384.66,1.00,1,1,1,1041.84,1.92,71851.03,705.31,1.66,27826.72,392.09,0.66,40844.08,241.88,0.01,22975.83,128.35,-2.43,7488.79
29200,788.23,390.97,1.00,1,1,1,486.29,1.08,54522.81,392.09,0.66,40288.38,349.86,1.15,12540.52,200.74,-0.97,14371.86,199.78,-2.52,4969.95
44100,794.04,391.79,1.00,1,1,1,393.47,0.14,27389.84,351.61,-0.18,20500.80,241.88,0.01,22359.03,252.56,-1.89,13813.95,196.10,-2.73,2737.37
58500,798.37,389.15,1.00,1,1,1,352.50,-0.55,17662.54,296.60,-0.94,17208.96,200.74,-0.97,14671.28,84.17,2.86,18275.03,108.41,-3.02,6756.65
73400,799.13,384.75,1.00,1,1,1,299.69,-1.40,18391.30,258.08,-1.85,16468.56,252.56,-1.89,13813.95,128.35,-2.43,7287.74,94.28,0.95,12459.70
95500,795.72,379.97,1.00,1,1,1,265.29,-2.19,9937.12,368.28,-2.43,9432.50,365.56,-2.43,8989.86,199.78,-2.52,3305.81,296.26,0.56,9594.00
110300,788.80,375.91,1.00,1,1,1,542.27,-2.61,21560.32,582.36,-2.75,17422.79,372.60,-2.74,7581.83,196.10,-2.73,2755.86,564.57,0.46,18362.42
124900,779.93,373.36,1.00,1,1,1,632.28,-2.86,11790.66,401.02,-2.97,14465.39,416.52,-2.97,6931.32,108.41,-3.02,6664.10,410.63,0.42,10604.36
154600,771.30,372.87,1.00,1,1,1,291.05,-3.08,11928.94,327.90,3.05,4066.23,250.90,3.01,6455.92,94.28,0.95,6250.83,548.90,0.32,4953.51
169300,765.44,374.73,1.00,1,1,1,418.47,2.83,12200.22,171.19,2.38,15022.40,141.86,1.50,19104.51,296.26,0.56,14423.64,640.91,0.25,6750.42
206400,764.89,379.00,1.00,1,1,1,116.07,1.70,10361.70,380.49,0.67,11807.33,543.07,0.59,12677.35,564.57,0.46,7325.17,714.45,0.26,1985.17
221100,780.88,386.98,1.00,1,1,1,1215.35,0.46,80419.67,1597.42,0.40,84016.05,927.53,0.41,27540.05,776.71,0.37,14967.77,796.18,0.26,5561.51
235700,808.01,397.20,1.00,2,2,2,1986.07,0.36,53898.09,1926.01,0.32,24680.75,1832.11,0.33,62289.81,1183.61,0.36,27881.13,820.99,0.28,1993.62
250400,834.53,404.46,1.00,2,2,2,1870.52,0.27,14531.09,2067.11,0.29,10418.08,1825.80,0.27,8389.97,1431.24,0.30,17537.90,885.04,0.28,4357.62
265700,867.52,414.65,1.00,3,3,3,2256.51,0.30,25599.72,1749.75,0.23,22048.93,1988.83,0.28,10809.20,1897.93,0.28,30587.40,940.13,0.26,3861.23
287400,897.64,418.91,1.00,1,1,1,1401.88,0.14,41482.51,1924.33,0.28,9220.53,2060.78,0.24,4809.11,1975.36,0.25,4336.97,955.45,0.20,2582.12
302100,934.87,433.89,1.00,1,1,1,2730.06,0.38,95905.28,2459.77,0.26,36507.94,1962.10,0.24,6819.70,1738.24,0.24,16207.06,1015.49,0.14,5742.88
316300,966.31,437.30,1.00,1,1,1,2226.92,0.11,59314.34,2014.59,0.18,33642.72,2145.83,0.24,12954.24,1590.28,0.22,10632.12,999.96,0.11,2383.11
331000,992.11,444.54,1.00,1,1,1,1823.00,0.27,35620.99,1838.56,0.21,12496.27,1490.05,0.19,45092.00,1402.05,0.17,14034.87,1062.00,0.14,4508.28
345700,1019.16,448.62,1.00,1,1,1,1861.14,0.15,15670.87,1081.45,0.19,51548.99,1125.37,0.18,24809.02,1213.37,0.06,15693.43,1022.50,0.20,5540.11
368100,1031.52,452.06,1.00,1,1,1,572.65,0.27,57793.41,562.19,0.11,23335.27,867.07,0.01,13796.92,899.79,-0.19,18465.77,907.43,0.37,8956.37
382800,1039.89,450.95,1.00,1,1,1,574.37,-0.13,15642.96,663.17,-0.36,20594.54,538.35,-0.59,35472.13,612.56,-0.43,22811.74,797.10,0.68,19112.89
397500,1049.77,445.20,1.00,1,1,1,777.69,-0.53,22588.32,813.98,-1.18,41281.47,715.39,-1.24,29535.66,392.71,-0.58,15834.62,836.43,1.04,20116.34
412400,1049.00,428.65,1.00,1,1,1,1111.94,-1.62,68468.14,1127.23,-1.71,39407.06,774.04,-1.65,20670.43,158.85,-0.41,15949.71,973.86,1.37,21807.68
427100,1045.22,412.14,1.00,1,1,1,1151.82,-1.80,14007.23,899.53,-2.07,29145.56,493.90,-2.02,24604.43,249.29,1.77,24817.29,1072.71,1.63,19558.64
441900,1036.30,405.35,1.00,1,1,1,757.74,-2.49,50562.80,283.49,2.78,61186.19,236.78,2.31,41980.45,694.06,1.96,30506.38,1268.44,1.80,18383.69
463600,1035.55,415.81,1.00,1,1,1,483.41,1.64,50664.68,957.47,1.51,42139.43,1110.66,1.85,41736.25,1277.27,1.96,26876.21,1405.91,1.91,9512.88
478300,1038.44,440.13,1.00,1,1,1,1666.29,1.45,81299.31,2297.47,1.72,93654.55,1728.95,1.81,42197.54,1825.57,1.94,37321.28,1455.28,2.03,11976.50
493000,1025.33,482.58,1.00,1,1,1,3022.09,1.87,111893.88,2411.02,1.91,30478.34,2739.26,1.84,68842.23,2184.00,1.95,24382.93,1503.76,2.12,9671.49
522500,1003.27,540.73,1.00,2,2,2,2108.26,1.93,31440.03,3047.32,1.89,21604.09,3131.94,1.92,15809.20,2570.56,1.94,13106.35,1468.72,2.21,4881.01
537300,982.48,610.59,1.00,2,2,2,4925.17,1.86,190996.90,3998.43,1.93,64961.46,2926.34,1.97,17134.23,2887.69,1.98,22547.74,1395.26,2.32,11764.00
559300,950.99,678.27,1.00,2,2,2,3392.88,2.01,74745.03,2837.76,2.04,55359.73,3429.59,2.01,23492.55,2744.15,2.06,11947.11,1296.82,2.42,7288.09
588900,915.79,740.96,1.00,2,2,2,2428.76,2.08,33399.94,2976.76,2.09,6714.29,3069.68,2.10,15571.42,2485.75,2.15,11589.67,1134.48,2.44,5544.52
603600,885.27,792.60,1.00,2,2,2,4080.75,2.10,112479.49,3495.87,2.18,39684.18,2424.44,2.23,50705.12,2232.96,2.29,28535.05,944.55,2.55,14981.00
618200,857.60,825.25,1.00,2,2,2,2931.51,2.27,88327.96,1869.77,2.51,125522.19,2044.79,2.51,49901.13,1646.67,2.59,56444.13,915.55,2.79,15774.08
640700,829.40,833.72,1.00,2,2,2,1308.40,2.85,87453.84,1398.57,-3.03,56197.95,1483.59,-3.09,56928.38,1291.82,-3.12,39723.48,916.16,3.03,9665.04
654600,806.99,819.76,1.00,2,2,2,1899.82,-2.58,102642.99,2154.20,-2.31,103786.49,1815.35,-2.32,92755.23,1341.96,-2.36,70928.19,878.05,-3.03,14456.17
669400,787.76,788.02,1.00,2,2,2,2507.24,-2.12,79891.27,2975.24,-1.93,85638.04,2911.24,-1.92,95552.42,1844.86,-1.90,58904.87,855.58,-2.74,16922.79
684200,776.35,737.19,1.00,2,2,2,3519.89,-1.79,94198.14,3881.96,-1.72,77301.65,3345.86,-1.62,70640.09,2470.93,-1.78,45518.93,818.87,-2.39,19905.76
698900,770.69,674.78,1.00,1,1,1,4262.90,-1.66,61078.80,3964.20,-1.39,88416.53,3414.34,-1.49,30330.38,2954.80,-1.71,35315.32,790.15,-1.95,24058.46
713600,797.51,622.58,1.00,1,1,1,3992.56,-1.10,157587.05,3204.84,-1.27,59664.59,3499.00,-1.52,8783.40,2921.60,-1.66,11148.31,956.80,-1.49,29347.51
736000,806.48,561.40,1.00,1,1,1,2760.53,-1.43,73366.50,3179.34,-1.64,53752.93,3096.93,-1.54,18245.55,2697.96,-1.57,15110.40,1166.83,-1.16,17994.50
750400,788.90,505.90,1.00,1,1,1,4042.85,-1.88,136933.51,3300.59,-1.88,53311.34,2548.55,-1.70,49957.48,2249.27,-1.42,40351.08,1413.64,-0.93,27237.07
765200,777.25,469.56,1.00,1,1,1,2578.39,-1.88,98953.65,1782.48,-1.84,102774.90,1918.41,-1.73,42742.00,1660.84,-1.10,57517.52,1613.84,-0.71,26153.86
779800,774.97,455.38,1.00,1,1,1,983.87,-1.73,110456.07,754.08,-1.02,94607.95,946.73,-1.00,93878.78,1414.14,-0.74,40660.66,1771.28,-0.53,22832.97
794400,788.74,450.78,1.00,1,1,1,993.86,-0.32,87632.87,1504.82,0.08,92274.82,1418.37,0.10,88512.66,1622.89,-0.22,55514.19,1843.31,-0.39,17668.62
809300,819.21,459.09,1.00,1,1,1,2120.02,0.27,94392.72,2333.87,0.33,63372.95,2486.57,0.24,74090.53,2307.87,0.10,61888.56,1957.93,-0.26,18337.85
831600,871.00,478.54,1.00,1,1,1,2480.65,0.36,18785.99,3288.09,0.30,42888.72,3386.93,0.30,40970.37,2764.34,0.23,25097.60,2016.60,-0.14,11473.37
846400,935.67,495.38,1.00,2,2,2,4515.87,0.25,139529.29,4721.26,0.28,97014.83,4040.28,0.29,44254.43,3142.97,0.26,26387.75,1969.05,-0.05,11943.52
861000,1004.40,516.89,1.00,2,2,2,4932.26,0.30,32552.07,4993.83,0.27,18913.03,3991.65,0.27,5392.54,3117.01,0.27,2416.49,1990.65,0.03,11906.96
875700,1076.66,534.53,1.00,2,2,2,5060.06,0.24,23393.75,3507.76,0.26,101136.72,3681.75,0.27,21082.85,3187.33,0.26,5301.55,2108.74,0.11,13775.04
905300,1154.55,556.90,1.00,1,1,1,2737.91,0.28,78614.46,2941.03,0.27,19158.74,2931.25,0.24,25508.60,3153.65,0.24,2036.71,2146.27,0.16,3354.19
927600,1223.90,574.78,1.00,1,1,1,3211.28,0.25,21539.08,2436.31,0.22,23244.49,2599.66,0.23,15016.02,2830.96,0.22,14649.75,2084.11,0.17,3149.29
956800,1276.92,584.62,1.00,1,1,1,1846.95,0.18,47074.38,2205.07,0.16,9202.29,2394.87,0.20,7430.51,2336.52,0.17,17577.12,1976.93,0.19,3837.08
971700,1319.84,590.62,1.00,1,1,1,2908.50,0.14,71580.86,2326.24,0.15,8301.66,1906.28,0.13,34255.31,1955.14,0.13,26271.09,1810.10,0.20,11253.20
986300,1344.75,595.05,1.00,1,1,1,1732.76,0.18,80732.16,1467.58,0.05,60205.08,1520.18,-0.03,32553.84,1575.31,0.04,28041.42,1551.58,0.18,17828.39
1001300,1363.23,592.83,1.00,1,1,1,1240.70,-0.12,43664.87,970.39,-0.40,48567.68,1098.91,-0.21,31978.91,1014.70,-0.11,39616.04,1118.84,0.16,28925.54
1023100,1377.65,581.17,1.00,1,1,1,850.70,-0.68,31587.83,895.44,-0.57,7888.97,759.85,-0.60,22370.64,597.01,-0.37,21175.89,635.49,0.09,22325.74
1037700,1390.75,575.37,1.00,1,1,1,981.23,-0.42,18635.36,573.26,-1.03,31514.09,520.18,-1.54,42337.50,260.43,-0.87,26710.90,124.38,-0.39,36166.27
1052600,1386.39,566.69,1.00,1,1,1,651.42,-2.04,80789.17,1069.32,-2.58,80769.25,663.73,-2.50,37683.67,378.94,-2.33,29232.93,499.28,-2.78,40004.86
1066900,1364.33,558.72,1.00,1,1,1,1640.19,-2.79,87422.77,1403.24,-2.92,37489.34,755.38,-2.92,21566.10,901.74,-2.73,40042.95,1024.81,-2.85,36940.24
1081700,1346.52,557.86,1.00,1,1,1,1204.69,-3.09,40777.47,622.05,2.90,60155.82,1153.55,-3.04,27921.84,1570.96,-2.90,47019.10,1521.50,-2.89,33748.71
1103900,1341.99,564.26,1.00,2,2,2,353.36,2.19,47642.53,974.44,3.12,17679.53,1667.23,-3.02,23152.93,2280.34,-2.95,32298.52,1881.30,-2.91,16259.68
1119200,1309.99,558.61,1.00,2,2,2,2124.03,-2.97,130646.95,3018.07,-2.93,136004.02,2421.22,-2.99,49493.28,2902.19,-2.98,40940.30,2111.06,-2.92,15077.28
1133900,1253.41,545.53,1.00,2,2,2,3950.56,-2.91,124682.23,4290.75,-2.94,86584.87,3983.30,-2.96,106462.41,3101.58,-2.99,13609.97,2101.25,-2.93,1395.76
1148600,1186.44,533.12,1.00,3,3,3,4633.00,-2.96,48153.27,4973.07,-2.97,47667.18,4888.80,-2.96,61636.57,3420.25,-2.99,21680.36,2095.77,-2.95,2870.12
1163200,1109.77,521.03,1.00,3,3,3,5316.37,-2.99,47687.40,5491.61,-2.99,35818.92,4557.12,-2.97,22814.76,3990.54,-2.97,39277.91,2072.10,-2.95,1641.07
1177900,1027.49,508.12,1.00,1,1,1,5665.67,-2.99,23764.02,4225.95,-2.97,86252.55,4428.32,-2.99,9845.49,4023.18,-2.97,2520.96,1881.20,-2.95,12998.77
1200000,956.54,494.46,1.00,1,1,1,3269.36,-2.95,108639.40,3586.31,-2.99,29087.04,3997.58,-2.98,19504.79,3258.19,-2.98,34619.74,1761.58,-2.93,5484.22
1214900,896.40,487.60,1.00,1,1,1,4062.89,-3.03,56455.49,3714.58,-3.00,9162.55,3259.61,-2.99,49551.24,2545.73,-2.98,47819.27,1702.21,-2.92,4263.74
1229600,847.70,478.85,1.00,1,1,1,3365.35,-2.96,50125.14,2849.88,-2.99,58848.17,2095.10,-2.99,79221.89,1894.67,-2.95,44468.90,1718.45,-2.90,2928.86
1244400,813.27,475.02,1.00,1,1,1,2340.98,-3.03,70369.55,1010.75,-2.98,124278.22,1005.69,-2.94,73798.65,1097.92,-2.88,54305.44,1634.29,-2.87,6487.29
1273800,803.64,471.47,1.00,1,1,1,349.00,-2.79,68160.66,99.06,-0.86,36248.52,202.16,-2.38,28601.69,629.53,-2.72,16528.71,1418.98,-2.87,7325.60
1295900,816.61,471.16,1.00,1,1,1,586.93,-0.02,41649.03,883.98,-0.12,36803.06,461.26,-0.32,26465.01,300.45,-2.23,17652.73,1205.16,-2.85,9710.54
1310500,835.85,467.58,1.00,1,1,1,1340.47,-0.18,52520.20,898.72,-0.25,8041.30,812.24,-0.26,24156.25,225.21,-1.17,18716.55,932.88,-2.84,18666.46
1340400,855.35,461.23,1.00,1,1,1,685.88,-0.31,22290.39,767.06,-0.39,5903.97,743.46,-0.38,3821.89,376.41,-0.76,6461.32,666.29,-2.78,9078.81
1355100,867.46,454.49,1.00,1,1,1,942.65,-0.51,20407.37,547.56,-0.70,19997.76,421.91,-0.71,25300.37,459.12,-0.57,7828.80,449.14,-2.69,15129.02
1369900,867.75,450.88,1.00,1,1,1,244.74,-1.49,56210.31,297.56,-2.12,39359.92,427.74,-1.49,21826.70,375.11,-0.77,7973.35,260.42,-2.39,14446.37
1391800,861.80,445.15,1.00,1,1,1,377.25,-2.37,13338.46,561.33,-2.09,12053.18,308.72,-1.90,8662.97,222.00,-0.96,7465.02,149.83,-1.69,7996.99
1406500,857.56,433.05,1.00,1,1,1,872.65,-1.91,38235.49,340.12,-1.67,19499.49,316.51,-2.26,7592.81,179.35,-1.88,12395.06,174.34,-0.92,8471.15
1421300,860.81,435.17,1.00,1,1,1,262.39,0.58,73810.22,120.34,2.63,27249.69,149.83,-2.78,13550.26,239.36,-2.60,10569.71,206.64,-0.76,2962.83
1435900,854.46,434.76,1.00,1,1,1,435.51,-3.08,46327.69,340.30,2.38,15459.12,193.46,2.50,11641.28,225.34,-2.65,1267.61,184.19,-0.96,3000.03
1450600,853.57,442.02,1.00,1,1,1,497.31,1.69,43620.47,267.69,2.44,5060.35,311.91,3.00,11581.39,170.65,-2.71,3795.51,166.23,-1.23,3537.36
1465500,848.42,439.89,1.00,1,1,1,373.45,-2.75,46763.08,373.34,-2.85,21454.88,198.11,2.99,7641.01,112.39,2.99,6688.71,163.06,-1.67,4733.54
1487600,840.33,438.06,1.00,1,1,1,375.41,-2.92,2860.66,207.23,-2.72,7694.01,189.71,-2.65,5546.82,132.83,-2.99,1952.13,175.64,-1.99,2516.85
1502200,841.49,436.78,1.00,1,1,1,117.80,-0.84,30481.14,97.94,-0.74,17957.19,100.77,-2.37,6669.22,81.56,-2.79,3776.41,181.46,-2.02,573.97
1516900,842.46,436.13,1.00,1,1,1,79.61,-0.59,3050.19,91.04,-0.62,907.69,115.95,-0.93,9717.12,131.75,-1.73,7931.30,149.29,-1.94,2356.96
1531600,843.67,435.23,1.00,1,1,1,102.51,-0.64,1579.27,136.96,-1.07,4622.19,109.52,-1.02,829.03,156.10,-1.43,3320.11,94.45,-1.92,3734.29
1546400,844.40,432.58,1.00,1,1,1,185.61,-1.30,8289.51,139.70,-1.28,1985.11,211.42,-0.94,6938.93,211.11,-1.23,4425.35,80.84,-1.92,919.50
1561400,844.85,431.24,1.00,1,1,1,94.51,-1.24,6096.87,270.63,-0.89,10085.09,264.19,-1.12,4510.43,227.92,-1.36,2219.05,55.18,-1.27,3328.57
1584300,850.85,424.61,1.00,1,1,1,390.36,-0.83,13355.49,366.66,-1.07,4872.74,301.10,-1.33,3085.24,198.16,-1.42,1382.94,74.27,-0.89,1348.59
1598300,851.35,419.37,1.00,1,1,1,376.20,-1.48,17308.18,405.76,-1.72,17826.99,340.44,-1.46,4022.84,181.85,-1.38,1244.16,98.88,-0.44,3255.36
1613100,849.11,413.06,1.00,1,1,1,452.44,-1.91,13073.28,383.55,-1.93,5756.44,222.05,-1.79,10059.95,129.21,-1.16,4241.96,150.47,-0.40,3499.19
1627900,847.36,408.74,1.00,1,1,1,314.84,-1.96,9364.42,120.68,-1.92,17762.08,133.98,-1.82,5960.93,113.82,-0.68,4003.26,183.13,-0.77,4660.30
1664500,846.99,407.23,1.00,1,1,1,42.49,-1.81,7454.80,25.83,0.11,3662.40,38.56,0.09,4131.35,105.23,0.05,2158.87,290.54,-1.26,4258.56
1679100,848.67,408.88,1.00,1,1,1,161.65,0.77,13632.00,191.98,0.82,11864.91,168.23,0.75,9568.18,153.45,0.33,4117.95,181.85,-1.38,7674.36
1708500,852.77,413.38,1.00,1,1,1,207.14,0.83,1591.13,339.96,0.80,5035.69,368.59,0.74,6815.31,198.30,0.26,1594.46,129.21,-1.16,2135.41
1723200,859.14,419.62,1.00,1,1,1,606.00,0.77,27168.99,634.16,0.70,20238.79,396.22,0.62,3604.45,204.44,-0.26,7042.70,113.82,-0.68,4030.49
1737900,867.00,425.44,1.00,1,1,1,665.31,0.64,7168.15,475.41,0.47,13914.74,430.08,0.28,9823.33,391.71,-1.18,21338.83,105.23,0.05,5375.15
1760100,874.80,427.52,1.00,1,1,1,363.73,0.26,15915.05,375.61,-0.32,15199.27,422.19,-0.77,19186.44,396.22,0.62,27846.07,153.45,0.33,2708.20
1774500,880.07,421.18,1.00,2,2,2,572.76,-0.88,37133.22,942.90,-1.41,58309.06,1038.07,-1.56,55592.88,430.08,0.28,10027.99,198.30,0.26,3255.36
1789500,879.26,400.16,1.00,2,2,2,1401.98,-1.61,69864.37,2209.70,-1.76,90920.00,942.90,-1.41,11887.61,422.19,-0.77,28395.94,204.44,-0.26,6901.85
1804300,867.64,356.51,1.00,2,2,2,3052.23,-1.83,115729.94,3052.23,-1.83,58253.33,2209.70,-1.76,92148.65,1038.07,-1.56,54090.37,391.71,-1.18,21194.65
