@RELATION gaze_labels

%@METADATA width_px 1920
%@METADATA height_px 1080
%@METADATA width_mm 540.00
%@METADATA height_mm 254.00
%@METADATA distance_mm 620.00


@ATTRIBUTE time INTEGER
@ATTRIBUTE x NUMERIC
@ATTRIBUTE y NUMERIC
@ATTRIBUTE confidence NUMERIC
@ATTRIBUTE handlabeller1 INTEGER
@ATTRIBUTE handlabeller2 INTEGER
@ATTRIBUTE handlabeller_final INTEGER
@ATTRIBUTE speed_1 numeric
@ATTRIBUTE direction_1 numeric
@ATTRIBUTE acceleration_1 numeric
@ATTRIBUTE speed_2 numeric
@ATTRIBUTE direction_2 numeric
@ATTRIBUTE acceleration_2 numeric
@ATTRIBUTE speed_4 numeric
@ATTRIBUTE direction_4 numeric
@ATTRIBUTE acceleration_4 numeric
@ATTRIBUTE speed_8 numeric
@ATTRIBUTE direction_8 numeric
@ATTRIBUTE acceleration_8 numeric
@ATTRIBUTE speed_16 numeric
@ATTRIBUTE direction_16 numeric
@ATTRIBUTE acceleration_16 numeric

%The number after speed, direction denotes the step size that was used for the calculation.
%Acceleration was calculated between two adjacent samples of the already low pass filtered velocity

@DATA
0,721.73,316.91,1.00,2,2,2,0.00,0.00,0.00,1048.82,-2.58,0.00,176.38,-1.40,0.00,707.75,0.14,0.00,630.37,0.20,0.00
14700,708.67,308.72,1.00,2,2,2,1048.82,-2.58,71347.99,176.38,-1.40,67767.30,1127.98,0.20,77973.29,1191.20,0.24,33466.95,674.31,0.25,3769.43
36900,722.87,310.50,1.00,3,3,3,644.63,0.12,74586.11,1127.98,0.20,51630.96,707.75,0.14,19096.12,1026.87,0.26,7482.65,557.99,0.29,5334.25
51700,749.56,317.06,1.00,1,1,1,1857.33,0.24,82391.95,1308.41,0.25,12900.11,1191.20,0.24,33240.82,805.50,0.27,14966.25,329.86,0.36,15551.08
80600,778.23,324.77,1.00,1,1,1,1027.43,0.26,28735.59,1245.86,0.27,2244.30,1026.87,0.26,5747.92,630.37,0.20,6288.39,284.91,0.57,2687.86
95400,802.09,331.36,1.00,1,1,1,1672.42,0.27,43583.98,788.96,0.27,30872.69,805.50,0.27,14966.25,674.31,0.25,3743.96,269.47,0.77,3880.70
132300,817.55,335.65,1.00,1,1,1,434.62,0.27,33544.54,433.30,0.27,9638.84,556.50,0.28,6750.44,557.99,0.29,3209.22,465.36,0.64,5448.40
147100,823.66,337.42,1.00,1,1,1,430.01,0.28,438.91,148.18,0.35,19312.97,160.34,0.36,26814.42,329.86,0.36,15551.08,805.69,0.53,23388.35
161700,821.63,337.16,1.00,1,1,1,139.94,-3.01,38951.97,324.87,-2.98,32271.87,206.23,-3.08,24831.86,284.91,0.57,5320.48,882.20,0.35,11937.45
176400,814.26,335.89,1.00,1,1,1,508.64,-2.97,25093.71,554.69,-3.01,15651.91,365.24,-3.07,10818.14,269.47,0.77,3907.10,1093.92,0.34,14413.15
191200,805.42,334.95,1.00,1,1,1,601.00,-3.04,6693.29,399.08,-3.14,11285.48,192.73,2.23,20552.31,465.36,0.64,13584.19,1216.67,0.33,8357.58
213400,799.50,335.80,1.00,1,1,1,269.40,3.00,15594.04,401.70,0.98,31900.91,426.22,0.95,18621.68,805.69,0.53,15592.24,1247.59,0.32,1410.47
228500,813.80,347.37,1.00,1,1,1,1218.32,0.68,93737.78,1324.50,0.64,63266.03,1036.84,0.54,44216.64,1222.45,0.45,28185.74,1315.62,0.32,4506.23
242700,830.70,358.88,1.00,2,2,2,1439.73,0.60,17398.25,1914.65,0.43,47752.37,2092.14,0.45,74969.95,1610.50,0.39,28006.86,1320.64,0.32,505.31
257500,864.34,370.36,1.00,2,2,2,2401.94,0.33,73218.66,2892.07,0.36,66913.40,2674.61,0.37,41316.77,1984.96,0.34,25894.25,1411.47,0.31,6186.68
272100,910.30,388.76,1.00,2,2,2,3390.83,0.38,68490.01,3429.44,0.33,37192.13,2869.92,0.31,17664.71,2436.03,0.32,31091.27,1461.24,0.30,3499.45
286900,959.59,403.44,1.00,1,1,1,3474.62,0.29,21907.06,2858.06,0.26,41384.33,2964.12,0.27,9549.85,2556.36,0.29,9322.52,1514.75,0.29,3913.99
309000,1012.12,416.26,1.00,1,1,1,2446.67,0.24,46981.90,2602.96,0.20,13798.42,2766.59,0.23,10286.83,2599.41,0.27,3497.86,1541.85,0.28,1291.61
323600,1053.16,422.65,1.00,1,1,1,2845.30,0.15,31300.97,2655.97,0.19,4663.86,2465.00,0.22,20837.33,2337.47,0.25,18153.09,1709.63,0.29,11520.15
338300,1088.59,430.67,1.00,1,1,1,2470.97,0.22,28254.12,2290.50,0.23,26140.70,2297.98,0.21,11456.62,2109.07,0.22,16209.48,1895.49,0.30,12807.75
352500,1117.55,438.03,1.00,1,1,1,2104.07,0.25,26183.64,1936.34,0.23,24940.37,1709.83,0.21,41424.87,1817.49,0.18,21066.84,1952.67,0.31,4058.15
367200,1143.02,443.68,1.00,1,1,1,1774.77,0.22,22759.60,1256.19,0.18,46648.06,1450.21,0.19,17761.08,1493.57,0.17,22068.26,2057.70,0.29,7416.23
389400,1163.16,446.27,1.00,1,1,1,914.92,0.13,39078.68,1074.55,0.14,8473.51,1177.67,0.12,13056.85,1454.00,0.22,3613.32,2069.05,0.27,2618.15
404300,1182.51,449.11,1.00,1,1,1,1312.48,0.15,26714.82,1085.25,0.03,7777.11,918.85,0.11,17373.45,1436.27,0.29,6570.09,2011.53,0.19,11273.19
418500,1194.73,447.21,1.00,1,1,1,870.81,-0.15,38401.09,788.08,0.09,21259.43,1225.43,0.23,23332.36,1490.51,0.33,6061.00,1921.68,0.13,10033.74
448300,1217.06,452.13,1.00,2,2,2,767.17,0.22,10710.77,1339.19,0.34,20417.09,1434.30,0.36,9147.54,1642.19,0.33,5093.89,1846.76,-0.01,9143.36
463000,1250.94,467.01,1.00,2,2,2,2517.42,0.41,120506.39,2255.42,0.48,64476.89,1733.55,0.43,21645.57,1839.36,0.29,14370.37,1623.34,0.09,18726.24
485200,1290.93,490.45,1.00,1,1,1,2088.18,0.53,22750.27,2084.32,0.49,7736.29,2400.53,0.41,30107.10,1932.88,0.16,11234.43,1371.82,0.37,22349.12
514200,1345.33,516.80,1.00,1,1,1,2084.18,0.45,5679.77,2530.81,0.36,18258.04,2405.83,0.31,8384.68,2009.91,0.09,5322.17,1338.90,0.82,20903.04
528800,1394.15,529.46,1.00,1,1,1,3454.57,0.25,100603.23,3099.04,0.10,63097.28,2482.01,0.05,44466.49,2220.03,-0.12,34351.63,1539.77,1.23,42259.93
543100,1434.43,525.90,1.00,1,1,1,2827.66,-0.09,86364.22,2737.42,-0.30,85654.39,2686.55,-0.22,50129.97,1806.16,-0.02,32460.39,1953.13,1.49,42440.72
565400,1489.78,499.59,1.00,1,1,1,2748.33,-0.44,44332.80,2604.96,-0.52,26634.29,2828.26,-0.67,55976.43,1316.09,0.47,40101.61,2296.37,1.63,20436.45
580100,1518.07,478.00,1.00,1,1,1,2420.60,-0.65,42730.72,3407.41,-1.05,118799.82,1547.22,-0.66,87173.02,1645.14,1.41,93046.91,2476.32,1.74,21034.05
594800,1539.91,412.85,1.00,1,1,1,4674.25,-1.25,203785.36,520.17,-1.71,205180.07,1401.10,2.02,195233.07,2686.69,1.86,95223.33,2617.80,1.84,20659.05
609700,1515.87,462.76,1.00,1,1,1,3718.01,2.02,562145.55,6172.75,2.06,442899.39,4720.28,2.09,223143.83,3976.88,2.01,92907.29,2429.87,1.96,24022.18
624400,1453.93,574.07,1.00,2,2,2,8665.43,2.08,337324.08,9854.37,2.06,250450.78,7807.44,2.06,210371.59,5567.08,2.09,111086.63,2099.19,2.14,34589.69
639300,1378.26,719.95,1.00,2,2,2,11029.40,2.05,159809.67,9111.73,2.07,49947.96,9359.57,2.09,104951.89,6391.92,2.15,60644.41,190.77,2.43,128696.27
661500,1292.93,871.32,1.00,4,4,4,7826.96,2.08,144987.98,8968.42,2.11,18324.49,9261.30,2.10,7235.31,7076.68,2.19,32583.32,162.01,2.84,3454.26
676300,1208.07,1004.82,1.00,4,4,4,10688.43,2.14,196084.44,9463.76,2.14,39045.77,7893.27,2.18,104212.96,6410.25,2.27,58870.04,161.58,-2.96,5197.14
691000,1142.08,1106.23,1.00,4,4,4,8231.02,2.15,167309.87,6625.83,2.31,213706.36,6408.95,2.36,131127.13,4640.69,2.44,135151.44,187.84,-2.66,3988.13
705700,1076.55,1148.52,1.00,4,4,4,5305.13,2.57,273647.22,4107.51,2.87,260685.20,3785.82,2.81,232881.81,172.30,2.89,305180.32,212.08,-2.46,3154.57
720500,1025.25,1138.39,1.00,4,4,4,3532.99,-2.95,249729.27,3595.66,-2.41,250722.31,3129.32,-2.43,236000.68,153.98,-2.46,9988.21,215.15,-2.44,340.76
735200,997.40,1077.90,1.00,4,4,4,4530.33,-2.00,256728.31,4707.95,-1.80,184261.26,150.17,-1.83,204568.45,247.40,-1.86,10128.13,227.26,-2.32,2062.54
756800,985.85,972.10,1.00,4,4,4,4927.34,-1.68,72646.87,115.56,-1.59,212729.64,217.73,-1.59,3693.82,353.66,-1.64,5732.13,235.91,-2.17,1638.04
2960700,991.21,820.80,1.00,1,1,1,68.69,-1.54,2204.89,146.92,-1.48,15.79,276.59,-1.49,28.77,429.38,-1.53,39.54,250.42,-2.02,17.74
2975700,1015.69,647.46,1.00,1,1,1,11671.24,-1.43,773528.63,12417.75,-1.42,818070.30,306.52,-1.43,2338.29,460.59,-1.47,2863.77,271.94,-1.86,3143.13
2990400,1045.21,455.97,1.00,1,1,1,13180.00,-1.42,103190.74,9948.45,-1.39,170081.18,10219.08,-1.39,674343.27,442.77,-1.44,1518.41,307.16,-1.73,3500.33
3012500,1082.03,287.41,1.00,1,1,1,7806.92,-1.36,244789.71,8457.74,-1.35,69506.56,8824.73,-1.36,64058.97,381.43,-1.41,2813.59,363.54,-1.64,2908.64
3027200,1113.93,152.41,1.00,1,1,1,9436.94,-1.34,111327.82,7433.43,-1.32,71162.98,5095.23,-1.35,253770.02,4519.81,-1.39,281527.65,375.93,-1.58,1605.50
3042000,1136.15,74.91,1.00,1,1,1,5447.31,-1.29,270540.81,2302.12,-1.36,346876.82,2675.65,-1.35,163489.75,2648.45,-1.37,126543.69,364.74,-1.54,1332.08
3071500,1135.28,52.68,1.00,1,1,1,754.03,-1.61,160578.75,499.13,2.04,94486.14,146.03,1.99,95564.22,1270.32,-1.37,46717.77,333.36,-1.52,1079.46
3086400,1126.08,94.65,1.00,1,1,1,2883.51,1.79,242829.94,3071.14,1.80,173755.78,1613.19,1.80,98652.28,512.47,-1.57,52100.43,283.79,-1.53,3328.96
3108500,1109.13,163.27,1.00,1,1,1,3198.06,1.81,14689.39,2584.38,1.76,22647.58,2536.37,1.81,41774.78,490.66,2.24,42856.65,1838.02,-1.57,70340.66
3138100,1100.73,225.84,1.00,1,1,1,2132.86,1.70,37244.96,2091.75,1.81,17038.10,1495.80,1.94,36321.43,1099.65,2.05,21080.29,1163.94,-1.70,23677.27
3153000,1087.24,253.74,1.00,1,1,1,2079.96,2.02,44760.01,883.64,-2.38,177457.37,842.41,2.28,50630.91,1503.34,2.04,27137.86,506.89,-2.22,51309.00
3167700,1081.71,207.88,1.00,2,2,2,3142.30,-1.69,341517.48,1234.20,-2.10,31338.38,723.71,2.99,37848.79,1408.16,2.13,11802.86,546.42,2.73,44362.02
3189400,1064.65,214.90,1.00,3,3,3,850.29,2.75,159810.10,1035.29,2.42,81103.78,777.73,-3.08,7520.71,1245.89,2.31,13185.93,984.29,2.26,25602.97
3204200,1053.42,232.93,1.00,3,3,3,1434.88,2.13,60432.99,1556.11,2.24,38217.15,1378.45,2.39,68326.88,1255.47,2.53,18526.48,1299.83,2.17,22440.54
3218900,1036.07,250.83,1.00,1,1,1,1695.78,2.34,28670.48,1805.23,2.37,22485.30,1799.11,2.33,29286.96,1176.94,2.58,6699.77,1502.65,2.12,14482.25
3233600,1015.28,269.83,1.00,1,1,1,1916.30,2.40,16719.69,2052.30,2.40,17208.48,1968.87,2.35,11719.16,1528.21,2.36,31090.18,1381.31,2.13,8279.24
3248500,991.24,291.82,1.00,1,1,1,2186.48,2.40,18132.63,2132.37,2.33,11528.48,1771.75,2.33,13502.65,1623.55,2.27,11534.66,1184.32,2.20,14459.74
3263200,971.92,315.70,1.00,1,1,1,2089.56,2.25,22711.23,1555.95,2.25,40428.64,1678.05,2.34,6555.50,1577.52,2.28,3180.81,1108.25,2.31,9982.74
3285400,955.23,336.54,1.00,1,1,1,1202.63,2.25,39953.42,1311.90,2.36,12961.33,1473.02,2.21,13243.00,1517.24,2.23,4302.17,1056.72,2.31,2327.09
3299900,937.90,349.77,1.00,1,1,1,1503.77,2.49,30663.13,1372.94,2.14,19922.01,1240.48,2.18,16265.68,1349.74,2.13,15339.18,1245.89,2.16,17232.96
3314700,933.39,370.32,1.00,1,1,1,1421.79,1.79,68273.18,1212.82,1.94,21085.35,1253.81,2.07,8799.99,1137.50,2.07,15166.12,1197.29,2.13,4045.13
3329600,925.01,383.41,1.00,1,1,1,1042.77,2.14,38418.31,1142.86,1.99,6130.89,1097.70,1.75,27082.62,1032.60,2.05,7139.06,1123.23,2.10,5479.30
3344100,919.82,401.06,1.00,1,1,1,1269.11,1.86,27353.44,1025.67,1.53,34511.53,840.62,1.83,18340.74,1033.77,1.97,5748.54,1014.13,2.03,9476.28
3358700,926.13,413.23,1.00,1,1,1,938.83,1.09,60144.45,628.44,1.59,27380.77,847.53,1.87,2491.63,1030.20,1.85,8843.54,933.51,1.94,8182.02
3380900,919.40,424.18,1.00,1,1,1,579.08,2.12,36488.91,797.15,2.21,20806.34,852.16,1.84,1122.18,852.40,1.90,8307.45,848.99,1.80,6706.56
3395600,908.66,436.90,1.00,1,1,1,1132.01,2.27,38507.56,1171.56,2.00,28715.07,978.22,1.94,10560.76,790.02,1.81,6555.80,756.32,1.67,9339.89
3410400,904.87,455.55,1.00,1,1,1,1285.56,1.77,41684.69,1273.79,1.72,24017.08,866.81,1.96,7678.38,691.01,1.68,9328.74,704.30,1.49,9624.39
3424600,902.99,473.40,1.00,1,1,1,1264.49,1.68,8709.19,664.02,1.91,44615.76,745.45,1.75,14523.19,661.59,1.63,3001.34,712.43,1.24,12460.35
3454400,895.09,483.08,1.00,1,1,1,419.13,2.26,31620.21,451.60,1.80,7416.14,594.52,1.52,7283.79,687.90,1.41,5094.59,695.28,1.07,4133.52
3476600,897.64,496.27,1.00,1,1,1,605.15,1.38,20979.58,617.35,1.16,16689.07,516.57,1.23,7946.20,668.57,1.18,6961.34,721.42,0.91,5262.47
3506200,907.79,512.43,1.00,1,1,1,644.70,1.01,7881.25,733.64,0.83,8408.94,763.25,0.84,11756.52,654.94,0.89,6586.32,696.13,0.79,2974.33
3520900,919.48,520.34,1.00,2,2,2,960.02,0.60,30755.45,1134.64,0.53,33222.46,816.10,0.67,9888.10,758.37,0.60,15428.52,659.68,0.72,3935.29
3535300,936.33,529.04,1.00,2,2,2,1316.83,0.48,26442.13,939.68,0.51,13589.65,1042.61,0.38,24289.67,1007.88,0.43,20223.56,676.74,0.58,6455.84
3557500,949.48,537.15,1.00,3,3,3,696.15,0.55,28149.76,988.76,0.24,11846.14,1334.70,0.26,14547.52,1167.31,0.31,9260.49,675.80,0.44,4473.79
3572000,971.56,537.73,1.00,1,1,1,1523.04,0.03,67946.92,1888.99,0.11,63389.03,1433.76,0.17,11251.82,1251.52,0.19,11372.82,635.20,0.28,7591.52
3586700,1004.33,542.99,1.00,1,1,1,2257.92,0.16,52721.18,1994.83,0.12,7460.75,1769.15,0.08,24499.66,1164.80,0.14,7479.61,549.79,0.10,9338.00
3601400,1029.78,544.81,1.00,1,1,1,1735.54,0.07,37458.33,1650.63,0.06,24578.91,1520.49,0.05,17331.72,1095.26,0.01,10528.85,521.13,-0.07,6398.29
3616000,1052.60,545.92,1.00,1,1,1,1565.35,0.05,11938.66,1060.26,-0.08,42416.50,1020.29,-0.02,34854.69,1089.03,-0.14,11165.60,438.96,-0.37,11340.81
3630800,1060.85,542.29,1.00,1,1,1,608.48,-0.41,71388.20,541.00,-0.23,35882.37,805.31,-0.26,20413.77,902.37,-0.29,16153.79,392.83,-0.96,16492.19
3653300,1072.26,541.35,1.00,1,1,1,509.01,-0.08,9313.51,634.19,-0.50,8080.98,628.33,-0.70,16043.69,621.56,-0.77,20252.44,440.91,-1.47,9627.71
3667900,1081.54,531.10,1.00,1,1,1,947.32,-0.83,46094.42,875.32,-1.07,33481.69,619.36,-1.09,16204.09,574.94,-1.48,28493.27,554.22,-1.81,13746.24
3682600,1084.48,518.80,1.00,1,1,1,860.08,-1.34,31062.96,860.63,-1.63,32435.89,918.51,-1.80,41035.00,774.50,-2.01,27527.14,674.33,-2.01,11594.21
3697300,1080.03,505.84,1.00,1,1,1,931.94,-1.90,34271.54,1311.91,-2.25,53701.83,1249.34,-2.23,38678.43,1108.92,-2.27,28069.77,831.09,-2.19,14118.76
3712000,1060.25,488.79,1.00,1,1,1,1776.79,-2.43,73475.32,1855.43,-2.50,45255.75,1516.88,-2.42,25674.77,1559.15,-2.38,32228.26,981.55,-2.33,13281.45
3726600,1036.60,473.15,1.00,1,1,1,1942.14,-2.56,19751.10,1706.75,-2.53,11027.25,2070.69,-2.55,41043.17,1822.16,-2.47,20833.31,1138.89,-2.41,12360.29
3748700,1008.92,452.88,1.00,1,1,1,1552.06,-2.51,18049.32,2245.57,-2.59,24946.34,2308.67,-2.58,11095.91,1816.74,-2.54,5524.46,1284.81,-2.45,7005.50
3763500,965.99,429.79,1.00,2,2,2,3294.20,-2.65,119598.45,3061.86,-2.61,55316.41,2378.73,-2.59,4843.13,1927.38,-2.57,8476.85,1308.45,-2.47,2015.64
3778200,930.85,407.46,1.00,2,2,2,2831.93,-2.58,34859.28,2547.05,-2.58,35545.86,2099.04,-2.62,19549.01,1796.54,-2.60,9339.06,1311.62,-2.47,516.31
3792700,902.93,390.34,1.00,3,3,3,2258.40,-2.59,39651.50,1463.62,-2.62,74875.42,1811.30,-2.59,20139.56,1788.66,-2.61,1791.43,1278.84,-2.49,2658.72
3822900,874.16,374.80,1.00,1,1,1,1082.84,-2.65,39029.22,1399.03,-2.60,2331.48,1444.48,-2.61,12195.52,1807.67,-2.61,629.56,1187.56,-2.48,3027.69
3844800,840.50,352.73,1.00,1,1,1,1838.05,-2.56,34918.25,1427.93,-2.60,1362.61,1384.50,-2.63,3135.65,1508.39,-2.59,13762.50,1065.61,-2.46,5673.95
3874400,810.97,337.18,1.00,1,1,1,1127.33,-2.66,24458.85,1369.69,-2.68,3983.54,1540.23,-2.60,5549.17,1130.19,-2.56,12819.93,895.34,-2.41,6004.45
3889000,786.35,325.65,1.00,1,1,1,1862.15,-2.70,50541.71,1737.71,-2.59,26810.92,1173.83,-2.58,25152.58,861.33,-2.51,18817.48,713.98,-2.32,13280.00
3903700,767.57,310.57,1.00,1,1,1,1638.85,-2.46,32124.45,911.19,-2.36,59596.16,680.69,-2.41,35041.21,597.40,-2.31,20364.43,571.66,-2.21,10902.35
3918400,767.34,306.79,1.00,1,1,1,257.68,-1.63,100518.78,286.02,-0.31,73059.89,283.78,-1.35,40584.30,282.12,-1.52,30367.15,408.25,-1.94,14129.67
3940200,777.52,307.40,1.00,1,1,1,468.02,0.06,25743.65,631.12,0.03,17099.92,724.37,-0.01,32796.92,496.27,-0.33,21535.43,308.78,-1.58,7408.76
3955000,790.43,307.37,1.00,2,2,2,872.13,-0.00,27439.07,1290.18,0.07,44610.78,1149.29,0.09,29369.25,808.27,-0.06,24174.51,278.22,-1.19,7874.44
3969500,815.23,310.02,1.00,2,2,2,1720.33,0.11,59210.16,1803.31,0.12,35739.38,1572.66,0.10,29228.56,1092.35,0.07,21295.14,317.18,-0.80,8515.35
3984100,842.55,313.48,1.00,1,1,1,1885.90,0.13,11606.06,1855.45,0.13,3794.16,1562.07,0.12,1803.30,1191.43,0.09,6912.08,403.00,-0.38,11660.14
3998900,869.34,316.92,1.00,1,1,1,1825.40,0.13,4092.31,1372.34,0.12,32649.20,1461.86,0.11,6793.06,1225.91,0.08,2573.00,602.90,-0.15,15575.53
4021100,892.95,319.60,1.00,1,1,1,1070.36,0.11,34023.58,1147.73,0.10,10215.77,1233.38,0.09,10396.21,1140.32,0.06,3927.78,808.27,-0.06,9706.43
4035700,911.39,320.96,1.00,1,1,1,1265.93,0.07,13753.65,1058.42,0.04,7574.03,918.87,0.03,21921.90,954.18,0.03,12990.27,1092.35,0.07,21149.28
4050100,923.63,320.72,1.00,1,1,1,850.26,-0.02,29636.58,639.66,-0.11,30234.00,674.26,-0.09,18249.19,751.54,-0.02,14308.09,1191.43,0.09,7008.08
4064900,929.95,318.94,1.00,1,1,1,444.12,-0.27,29399.38,331.39,-0.49,23974.86,412.47,-0.33,19619.89,716.23,-0.03,2475.17,1225.91,0.08,2573.00
4079600,932.24,316.10,1.00,1,1,1,248.10,-0.89,19149.55,244.79,-0.93,10232.57,308.42,-0.45,7708.78,674.26,-0.09,3962.17,1140.32,0.06,5931.75
4094300,934.27,313.18,1.00,1,1,1,241.77,-0.96,1251.20,290.44,-0.42,9652.35,519.67,-0.14,16651.37,412.47,-0.33,19753.36,954.18,0.03,12901.90
4116500,942.04,311.75,1.00,1,1,1,355.69,-0.18,11285.19,807.46,0.03,25209.99,290.44,-0.42,11383.80,308.42,-0.45,5104.46,751.54,-0.02,9280.92
4131200,964.05,314.01,1.00,1,1,1,1505.79,0.10,79508.64,1505.79,0.10,47834.47,807.46,0.03,38072.23,519.67,-0.14,16651.37,716.23,-0.03,2492.00
