%@metadata width_px 1920.0
%@metadata height_px 1080.0
%@metadata width_mm 540.0
%@metadata height_mm 254.0
%@metadata distance_mm 620.0
% The number after speed, direction denotes the step size that was used for the calculation.
% Acceleration was calculated between two adjacent samples of the already low pass filtered velocity
@RELATION gaze_labels

@ATTRIBUTE time INTEGER
@ATTRIBUTE x NUMERIC
@ATTRIBUTE y NUMERIC
@ATTRIBUTE confidence NUMERIC
@ATTRIBUTE handlabeller_final INTEGER
@ATTRIBUTE EYE_MOVEMENT_TYPE {UNKNOWN, FIX, SACCADE, SP, NOISE, BLINK, NOISE_CLUSTER, PSO}

@DATA
0,-24.8,692.68,1.0,1,FIX
14800,-42.47,694.63,1.0,1,FIX
28500,-35.6,690.69,1.0,1,FIX
57700,-10.11,697.0,1.0,1,FIX
79200,-15.0,696.58,1.0,1,FIX
93100,-35.89,694.13,1.0,1,FIX
107700,-11.94,680.2,1.0,1,FIX
143700,-34.52,692.54,1.0,1,FIX
157700,-4.63,681.67,1.0,1,FIX
172100,-25.0,697.15,1.0,1,FIX
207500,-23.56,694.73,1.0,1,FIX
221800,-11.22,700.07,1.0,1,FIX
236800,-28.16,689.98,1.0,1,FIX
251100,-6.57,705.13,1.0,1,FIX
265900,-54.91,694.67,1.0,1,FIX
287800,-60.04,710.93,1.0,1,FIX
301700,16.94,700.03,1.0,1,SACCADE
330200,-74.3,695.68,1.0,3,SACCADE
351800,-13.9,692.53,1.0,1,SP
366500,73.81,689.98,1.0,1,FIX
380700,80.22,667.34,1.0,1,FIX
394800,131.8,692.38,1.0,1,FIX
410200,127.45,686.25,1.0,1,FIX
431800,116.74,683.05,1.0,1,FIX
446700,121.01,697.24,1.0,1,FIX
474700,122.73,699.98,1.0,1,FIX
495900,94.11,695.65,1.0,1,FIX
524600,123.09,700.18,1.0,1,FIX
539300,102.66,701.72,1.0,1,FIX
575200,140.04,708.54,1.0,2,SACCADE
589300,127.24,702.35,1.0,2,SACCADE
603600,108.25,703.86,1.0,3,SP
618100,254.36,678.74,1.0,1,FIX
639400,348.03,677.46,1.0,1,FIX
653800,409.51,680.09,1.0,1,FIX
682200,409.65,671.11,1.0,1,FIX
703100,422.31,692.14,1.0,1,FIX
717600,434.81,681.11,1.0,1,FIX
731700,388.68,684.13,1.0,1,FIX
746200,396.25,669.41,1.0,1,FIX
767400,397.34,687.2,1.0,1,FIX
781800,405.55,702.61,1.0,1,SACCADE
796800,373.59,680.98,1.0,2,SACCADE
826400,445.63,654.0,1.0,3,SP
847500,574.24,685.32,1.0,1,FIX
861900,798.65,712.74,1.0,1,FIX
890200,721.69,736.62,1.0,1,FIX
911700,740.28,720.27,1.0,1,FIX
941000,651.91,714.67,1.0,2,SACCADE
955400,714.03,732.04,1.0,3,SACCADE
970300,729.44,730.17,1.0,1,SP
991800,879.72,714.84,1.0,1,FIX
1006800,1062.11,728.11,1.0,1,FIX
1020900,992.43,689.67,1.0,1,FIX
1034900,1104.86,712.45,1.0,1,FIX
1056400,1113.28,726.17,1.0,1,FIX
1070400,963.37,708.72,1.0,1,FIX
1099000,1053.63,718.88,1.0,1,FIX
1120300,1084.83,736.38,1.0,2,SACCADE
1134900,1095.94,719.64,1.0,2,SACCADE
1149200,1136.02,716.57,1.0,3,SP
1163200,1194.45,720.71,1.0,1,FIX
1177800,1446.36,731.46,1.0,1,FIX
1199300,1360.24,710.08,1.0,1,FIX
1227900,1325.07,711.7,1.0,1,FIX
1258100,1278.03,680.27,1.0,1,FIX
1278900,1357.6,731.69,1.0,1,FIX
1293100,1359.21,709.02,1.0,2,SACCADE
1322400,1392.23,715.03,1.0,0,SP
1343300,1383.15,735.14,1.0,1,FIX
1357500,1051.91,716.31,1.0,1,FIX
1371500,970.24,683.55,1.0,1,FIX
1386000,1016.07,694.88,1.0,1,FIX
1408000,1071.47,699.42,1.0,1,FIX
1422300,1019.16,685.38,1.0,1,FIX
1436700,1020.14,702.75,1.0,1,FIX
1450800,979.97,695.32,1.0,1,FIX
1472000,1034.08,694.45,1.0,1,FIX
1501000,1072.22,716.31,1.0,1,FIX
1515800,991.83,684.08,1.0,1,FIX
1529900,1085.92,693.93,1.0,1,FIX
1551800,984.35,687.87,1.0,1,FIX
1565800,1104.39,708.96,1.0,1,FIX
1580100,1078.25,729.72,1.0,1,FIX
1594500,1042.59,701.7,1.0,1,FIX
1616200,1017.67,708.26,1.0,1,FIX
1644500,1107.56,718.85,1.0,1,FIX
1659000,1021.1,679.63,1.0,1,FIX
1694800,1026.95,700.46,1.0,1,SACCADE
1708900,1063.71,702.81,1.0,2,SACCADE
1722900,1024.96,663.15,1.0,3,FIX
1744000,982.85,709.41,1.0,3,FIX
1758100,1159.39,706.29,1.0,1,FIX
1772200,1163.21,696.75,1.0,1,FIX
1786700,1272.22,702.22,1.0,1,FIX
1807900,1271.46,721.38,1.0,1,FIX
1821800,1247.52,691.69,1.0,1,FIX
1850500,1233.48,714.44,1.0,1,FIX
1872300,1282.19,721.81,1.0,1,NOISE
1886100,1205.67,713.87,1.0,1,NOISE
1900100,1148.19,663.63,1.0,1,NOISE
1915000,1308.86,714.87,1.0,2,NOISE
1936400,1214.06,708.81,1.0,3,NOISE
1950800,1077.77,700.36,1.0,1,NOISE
1979400,901.02,690.93,1.0,1,FIX
2015000,1064.98,704.7,1.0,1,FIX
2028900,952.84,684.91,1.0,1,FIX
2043000,928.92,676.27,1.0,1,FIX
2078900,1077.0,714.55,1.0,1,FIX
2093400,1048.68,708.44,1.0,1,FIX
2107400,948.3,669.72,1.0,1,FIX
2121800,1061.67,706.58,1.0,1,FIX
2142900,945.61,680.05,1.0,1,FIX
2157800,1087.43,718.08,1.0,1,FIX
2172600,876.51,666.07,1.0,1,SACCADE
2186700,1052.43,697.67,1.0,1,SACCADE
2222100,1038.11,701.14,1.0,3,SP
2236400,999.65,744.84,1.0,3,FIX
2250600,710.6,703.0,1.0,1,FIX
2271700,702.02,729.59,1.0,1,FIX
2286700,665.07,682.26,1.0,1,FIX
2301200,763.62,701.44,1.0,1,FIX
2330500,777.14,717.64,1.0,1,FIX
2352300,751.81,725.05,1.0,1,FIX
2366800,786.68,725.55,1.0,1,SACCADE
2395300,787.15,692.85,1.0,2,SACCADE
2416300,769.8,702.27,1.0,3,SP
2445000,733.82,696.32,1.0,1,FIX
2459200,900.58,705.84,1.0,1,FIX
2480300,933.77,708.76,1.0,1,FIX
2494500,904.67,710.7,1.0,1,FIX
2508700,910.25,722.28,1.0,1,FIX
2523400,930.15,731.04,1.0,1,FIX
2537900,897.51,687.37,1.0,1,FIX
2558800,901.66,692.76,1.0,1,FIX
2587600,916.67,711.72,1.0,1,SACCADE
2601900,853.47,686.96,1.0,2,SACCADE
2622800,866.88,695.17,1.0,2,SACCADE
2638100,838.62,702.54,1.0,2,FIX
2652300,726.64,692.62,1.0,3,FIX
2666900,481.34,691.81,1.0,1,FIX
2688300,410.34,670.27,1.0,1,FIX
2702700,364.6,664.98,1.0,1,FIX
2717800,358.55,648.88,1.0,1,FIX
2732200,452.35,683.71,1.0,1,FIX
2768500,358.73,672.55,1.0,1,FIX
2783400,550.49,702.72,1.0,1,FIX
2813000,379.15,665.8,1.0,1,FIX
2827500,439.26,662.53,1.0,1,FIX
2842500,404.16,676.22,1.0,1,FIX
2863500,462.28,687.41,1.0,2,FIX
2877800,412.65,678.17,1.0,3,FIX
2892200,453.35,693.69,1.0,1,FIX
2906600,529.79,720.35,1.0,1,FIX
2928000,465.77,698.39,1.0,1,FIX
2942500,412.59,687.53,1.0,1,FIX
2971700,411.28,691.34,1.0,1,FIX
2986200,472.28,669.71,1.0,1,FIX
3007800,445.02,692.84,1.0,1,FIX
3022400,509.31,715.15,1.0,1,FIX
3036300,461.05,665.61,1.0,1,FIX
3050700,424.71,675.3,1.0,1,FIX
3072200,490.02,675.7,1.0,2,FIX
3101400,408.5,657.89,1.0,1,FIX
3136600,394.39,698.17,1.0,1,FIX
3150900,406.57,683.69,1.0,1,FIX
3164800,395.63,682.28,1.0,1,FIX
3200800,455.04,683.63,1.0,1,FIX
3215700,455.35,690.25,1.0,1,FIX
3229800,378.48,681.84,1.0,1,FIX
3243800,419.6,679.77,1.0,1,FIX
3258100,381.64,677.16,1.0,1,SACCADE
3279400,396.0,683.47,1.0,1,SACCADE
3308000,399.67,684.81,1.0,3,SP
3322400,405.32,669.71,1.0,1,FIX
3343900,498.01,694.23,1.0,1,FIX
3358500,571.94,700.16,1.0,1,FIX
3372900,565.14,717.41,1.0,1,FIX
3388000,544.36,703.46,1.0,1,FIX
3402600,503.06,694.14,1.0,1,FIX
3424200,590.27,717.83,1.0,1,FIX
3452000,556.09,705.43,1.0,1,FIX
3466500,558.81,702.14,1.0,1,FIX
3488100,540.9,708.66,1.0,1,SACCADE
3517600,572.65,713.08,1.0,2,SACCADE
3532300,553.6,702.77,1.0,2,SP
3567900,645.48,743.41,1.0,1,FIX
3581800,874.83,764.72,1.0,1,FIX
3595900,1050.52,774.38,1.0,1,FIX
3610300,1020.03,741.97,1.0,1,FIX
3631900,1005.29,703.94,1.0,1,FIX
3646200,1011.43,713.55,1.0,1,FIX
3660700,1033.87,758.15,1.0,1,FIX
3689800,1017.21,726.38,1.0,1,FIX
3712200,983.09,737.72,1.0,1,FIX
3726600,962.39,734.29,1.0,1,FIX
3741100,986.53,742.51,1.0,1,FIX
3756300,1042.68,749.47,1.0,1,SACCADE
3770500,1020.94,768.91,1.0,2,SACCADE
3786200,1034.28,747.08,1.0,2,SP
3807700,982.49,734.27,1.0,3,FIX
3821900,747.2,759.4,1.0,1,FIX
3850400,752.52,748.56,1.0,1,FIX
3887800,706.51,722.36,1.0,1,FIX
3902400,686.12,732.85,1.0,1,FIX
3917900,728.29,730.24,1.0,1,FIX
3946700,695.61,727.26,1.0,1,FIX
3967900,744.02,718.66,1.0,2,SACCADE
3981800,755.68,730.52,1.0,2,SACCADE
3996400,755.55,739.75,1.0,2,SACCADE
4010500,663.84,720.7,1.0,3,SP
4031700,574.1,729.4,1.0,1,FIX
4046300,345.82,716.74,1.0,1,FIX
4060200,341.57,716.14,1.0,1,FIX
4074800,328.31,687.09,1.0,1,FIX
4096300,323.53,684.2,1.0,1,FIX
4124700,355.88,701.01,1.0,1,FIX
4138700,314.59,678.21,1.0,1,FIX
4160300,341.35,699.96,1.0,1,UNKNOWN
