%@metadata width_px 1920.0
%@metadata height_px 1080.0
%@metadata width_mm 540.0
%@metadata height_mm 254.0
%@metadata distance_mm 620.0
% The number after speed, direction denotes the step size that was used for the calculation.
% Acceleration was calculated between two adjacent samples of the already low pass filtered velocity
@RELATION gaze_labels

@ATTRIBUTE time INTEGER
@ATTRIBUTE x NUMERIC
@ATTRIBUTE y NUMERIC
@ATTRIBUTE confidence NUMERIC
@ATTRIBUTE handlabeller_final INTEGER
@ATTRIBUTE EYE_MOVEMENT_TYPE {UNKNOWN, FIX, SACCADE, SP, NOISE, BLINK, NOISE_CLUSTER, PSO}

@DATA
0,85.49,771.7,1.0,1,FIX
21700,88.91,772.08,1.0,1,FIX
35500,62.43,765.2,1.0,1,FIX
50000,101.6,769.49,1.0,1,FIX
64600,136.13,769.62,1.0,1,FIX
85800,68.65,775.53,1.0,1,FIX
101100,90.21,768.59,1.0,1,FIX
129700,127.55,775.5,1.0,1,SACCADE
144000,138.21,782.14,1.0,2,SACCADE
181100,190.13,778.08,1.0,3,SP
195600,285.28,766.23,1.0,1,FIX
210000,368.02,767.71,1.0,1,FIX
224100,391.39,759.71,1.0,1,FIX
259600,403.66,762.5,1.0,1,FIX
273600,467.62,775.89,1.0,1,FIX
288100,461.75,770.12,1.0,2,SACCADE
309900,431.05,771.28,1.0,2,SACCADE
323800,433.63,767.3,1.0,3,SP
338400,639.84,777.2,1.0,1,FIX
352700,718.79,779.62,1.0,1,FIX
374000,777.75,779.86,1.0,1,FIX
388400,739.0,771.05,1.0,1,FIX
402400,748.99,769.4,1.0,1,FIX
416400,724.76,766.65,1.0,1,FIX
437900,776.17,774.07,1.0,1,FIX
452500,753.98,770.51,1.0,1,FIX
466800,742.85,772.08,1.0,2,SACCADE
481100,759.62,772.61,1.0,2,SACCADE
502300,739.1,772.49,1.0,3,SP
516500,918.17,782.78,1.0,1,FIX
545200,1015.99,793.22,1.0,1,FIX
566300,1068.68,791.04,1.0,1,FIX
581000,995.74,788.46,1.0,1,FIX
595100,1066.2,788.8,1.0,1,FIX
631800,1038.32,780.51,1.0,1,FIX
646600,1045.3,786.0,1.0,1,FIX
661300,1049.48,783.66,1.0,1,FIX
675800,1073.84,792.28,1.0,1,FIX
690200,1038.32,785.3,1.0,1,FIX
704200,1049.39,782.25,1.0,1,FIX
725300,1005.33,779.24,1.0,1,FIX
739300,995.16,785.78,1.0,1,FIX
753400,1094.59,790.05,1.0,1,FIX
774800,1046.6,780.22,1.0,2,SACCADE
789100,1000.73,779.44,1.0,2,SACCADE
803000,1004.44,779.03,1.0,1,FIX
817000,893.38,778.87,1.0,1,FIX
838100,851.81,774.56,1.0,1,FIX
852500,832.5,785.77,1.0,1,FIX
867000,841.69,772.63,1.0,1,FIX
881500,890.81,777.65,1.0,1,FIX
896100,876.13,777.57,1.0,1,SACCADE
931300,806.44,778.29,1.0,2,SACCADE
945600,825.47,779.2,1.0,2,SACCADE
960200,718.13,775.41,1.0,3,UNKNOWN
995200,572.67,772.51,1.0,1,FIX
1009400,521.45,772.16,1.0,1,FIX
1031600,516.41,764.85,1.0,1,FIX
1045400,508.43,766.29,1.0,1,FIX
1059400,492.39,764.83,1.0,1,FIX
1073700,545.73,775.87,1.0,1,FIX
1088100,473.25,764.15,1.0,1,FIX
1109700,525.59,770.73,1.0,1,FIX
1124200,497.65,764.25,1.0,1,FIX
1139100,543.29,774.85,1.0,1,FIX
1153100,525.2,765.42,1.0,1,FIX
1174800,499.35,770.1,1.0,1,FIX
1188800,436.97,761.5,1.0,1,UNKNOWN
1203100,460.73,760.52,1.0,1,UNKNOWN
1217700,565.38,767.04,1.0,1,UNKNOWN
1232400,553.57,773.48,1.0,1,UNKNOWN
