%@metadata width_px 1920.0
%@metadata height_px 1080.0
%@metadata width_mm 540.0
%@metadata height_mm 254.0
%@metadata distance_mm 620.0
% The number after speed, direction denotes the step size that was used for the calculation.
% Acceleration was calculated between two adjacent samples of the already low pass filtered velocity
@RELATION gaze_labels

@ATTRIBUTE time INTEGER
@ATTRIBUTE x NUMERIC
@ATTRIBUTE y NUMERIC
@ATTRIBUTE confidence NUMERIC
@ATTRIBUTE handlabeller_final INTEGER
@ATTRIBUTE EYE_MOVEMENT_TYPE {UNKNOWN, FIX, SACCADE, SP, NOISE, BLINK, NOISE_CLUSTER, PSO}

@DATA
0,84.98,786.04,1.0,1,FIX
14600,67.21,783.4,1.0,1,FIX
37000,123.48,786.09,1.0,1,FIX
51500,54.4,777.11,1.0,1,FIX
65500,98.9,783.3,1.0,1,FIX
79700,81.93,788.9,1.0,1,FIX
94100,64.89,781.25,1.0,1,FIX
115000,80.98,793.45,1.0,1,FIX
129000,82.77,781.95,1.0,1,FIX
143000,83.74,777.25,1.0,1,FIX
164500,98.16,796.51,1.0,1,FIX
178600,95.91,791.12,1.0,1,SACCADE
192700,50.76,776.49,1.0,2,SACCADE
207200,37.29,773.03,1.0,2,SACCADE
228500,111.32,783.34,1.0,2,FIX
256900,306.0,790.94,1.0,1,FIX
292500,363.2,789.6,1.0,1,FIX
307100,334.51,781.45,1.0,1,FIX
335600,385.98,788.32,1.0,1,FIX
357300,359.75,786.31,1.0,1,FIX
372000,382.31,776.95,1.0,1,FIX
385700,384.67,791.97,1.0,2,FIX
399900,388.04,782.0,1.0,2,SACCADE
414100,342.63,786.94,1.0,2,SACCADE
435700,406.91,784.27,1.0,1,SP
449900,528.93,775.13,1.0,1,FIX
464800,697.27,792.06,1.0,1,FIX
479000,705.04,787.08,1.0,1,FIX
500000,699.71,787.45,1.0,1,FIX
514100,721.65,790.4,1.0,1,FIX
528300,680.05,786.6,1.0,1,FIX
542600,705.23,791.29,1.0,1,FIX
564700,684.36,790.76,1.0,1,FIX
578700,664.97,786.43,1.0,1,FIX
592900,680.19,794.04,1.0,1,FIX
607100,675.13,790.32,1.0,1,FIX
628200,679.78,790.92,1.0,1,FIX
657500,717.06,789.03,1.0,1,FIX
671500,726.08,797.23,1.0,2,SACCADE
686000,737.89,791.06,1.0,2,FIX
721100,750.23,789.47,1.0,1,FIX
735600,800.06,792.07,1.0,1,FIX
750700,816.28,790.21,1.0,1,FIX
771500,823.64,790.56,1.0,1,FIX
786100,803.24,791.48,1.0,1,FIX
800300,788.5,790.38,1.0,1,FIX
814800,811.57,797.07,1.0,1,FIX
836300,824.94,805.68,1.0,2,SACCADE
850600,784.1,792.18,1.0,2,SACCADE
865000,816.76,798.71,1.0,3,SP
879300,867.46,799.04,1.0,1,FIX
894700,965.3,809.04,1.0,1,FIX
915800,938.76,811.42,1.0,1,FIX
929900,919.18,802.9,1.0,1,FIX
943900,921.3,798.33,1.0,1,FIX
958400,941.95,800.97,1.0,1,FIX
979100,888.61,798.14,1.0,1,FIX
993400,953.63,802.14,1.0,1,FIX
1007700,992.3,807.76,1.0,1,FIX
1043200,884.86,791.94,1.0,1,FIX
1057600,951.02,807.15,1.0,1,FIX
1086300,909.36,803.7,1.0,1,FIX
1107800,930.35,802.42,1.0,1,FIX
1122400,899.08,805.12,1.0,1,FIX
1136100,947.71,800.95,1.0,2,FIX
1150200,935.36,798.64,1.0,2,SACCADE
1171200,925.76,794.85,1.0,3,SACCADE
1185600,910.95,804.07,1.0,1,SP
1199600,1063.26,803.29,1.0,1,FIX
1214200,1102.17,795.45,1.0,1,FIX
1235900,1141.06,802.45,1.0,1,FIX
1249700,1166.64,803.64,1.0,1,FIX
1264400,1103.17,807.88,1.0,1,FIX
1278900,1121.83,804.94,1.0,1,FIX
1300600,1163.58,798.87,1.0,1,FIX
1314400,1065.4,793.96,1.0,1,FIX
1328500,1082.24,801.8,1.0,1,FIX
1342800,1124.46,794.77,1.0,1,FIX
1364300,1100.46,802.91,1.0,1,FIX
1378700,1110.34,801.33,1.0,1,FIX
1407100,1130.02,793.71,1.0,1,FIX
1428700,1193.04,800.62,1.0,1,FIX
1443000,1115.0,802.87,1.0,1,FIX
1471400,1184.0,807.29,1.0,1,FIX
1486000,1091.28,800.1,1.0,1,FIX
1507300,1128.22,798.2,1.0,1,FIX
1521700,1107.72,794.0,1.0,1,FIX
1536000,1144.38,795.93,1.0,1,FIX
1550200,1096.05,803.91,1.0,1,FIX
1571000,1118.37,799.23,1.0,2,SACCADE
1585400,1170.75,805.71,1.0,2,SACCADE
1599500,1071.82,791.14,1.0,1,SP
1614000,1090.49,804.77,1.0,1,FIX
1635900,1029.26,800.38,1.0,1,FIX
1650700,963.79,786.14,1.0,1,FIX
1665000,991.25,794.93,1.0,1,FIX
1694000,1018.0,802.51,1.0,1,FIX
