%@metadata width_px 1920.0
%@metadata height_px 1080.0
%@metadata width_mm 540.0
%@metadata height_mm 254.0
%@metadata distance_mm 620.0
% The number after speed, direction denotes the step size that was used for the calculation.
% Acceleration was calculated between two adjacent samples of the already low pass filtered velocity
@RELATION gaze_labels

@ATTRIBUTE time INTEGER
@ATTRIBUTE x NUMERIC
@ATTRIBUTE y NUMERIC
@ATTRIBUTE confidence NUMERIC
@ATTRIBUTE handlabeller_final INTEGER
@ATTRIBUTE EYE_MOVEMENT_TYPE {UNKNOWN, FIX, SACCADE, SP, NOISE, BLINK, NOISE_CLUSTER, PSO}

@DATA
0,753.62,1001.65,1.0,1,FIX
15700,761.62,948.46,1.0,1,FIX
31800,761.53,935.92,1.0,1,FIX
47500,753.91,908.08,1.0,1,FIX
80000,771.14,909.85,1.0,1,FIX
95700,750.49,937.45,1.0,1,FIX
111700,757.68,910.73,1.0,1,FIX
127700,737.07,925.86,1.0,1,FIX
144300,774.29,914.64,1.0,1,SACCADE
175600,806.56,896.56,1.0,2,SACCADE
191500,774.78,905.38,1.0,3,SP
207600,631.04,978.99,1.0,3,FIX
223500,509.52,964.21,1.0,1,FIX
239500,563.12,934.08,1.0,1,FIX
255800,574.8,921.7,1.0,1,FIX
272000,590.01,942.75,1.0,1,FIX
287600,587.16,946.19,1.0,1,FIX
319600,592.13,933.11,1.0,3,FIX
335700,523.16,960.05,1.0,1,FIX
368600,498.35,957.91,1.0,1,FIX
383700,491.18,954.73,1.0,1,FIX
399600,508.18,944.97,1.0,1,FIX
415600,511.52,953.15,1.0,1,FIX
431700,503.71,948.59,1.0,1,FIX
447500,495.34,950.16,1.0,1,FIX
463700,490.99,954.9,1.0,1,FIX
495800,497.44,943.53,1.0,1,FIX
511600,509.2,953.68,1.0,1,FIX
527700,497.73,953.34,1.0,1,FIX
543600,504.4,954.06,1.0,1,FIX
559700,515.49,950.45,1.0,1,FIX
576300,512.73,962.94,1.0,1,SACCADE
607700,513.94,955.97,1.0,2,SACCADE
623600,506.47,942.28,1.0,1,FIX
639700,585.02,933.5,1.0,1,FIX
655600,622.61,893.48,1.0,1,FIX
687800,588.7,949.49,1.0,1,FIX
703600,618.54,942.05,1.0,1,FIX
735700,605.15,934.3,1.0,1,FIX
751700,607.56,931.84,1.0,1,FIX
767600,590.16,934.25,1.0,1,FIX
783600,608.52,920.1,1.0,1,FIX
799600,615.61,934.37,1.0,1,FIX
815700,563.7,947.91,1.0,1,FIX
831600,630.38,933.36,1.0,1,FIX
848100,606.46,929.47,1.0,1,FIX
879600,594.76,925.0,1.0,1,FIX
895700,598.06,923.32,1.0,1,SACCADE
911700,615.79,920.82,1.0,2,SACCADE
927700,615.04,940.94,1.0,2,SACCADE
943700,761.3,884.21,1.0,2,FIX
975800,952.17,826.28,1.0,1,FIX
991600,1015.98,826.91,1.0,1,FIX
1007500,1000.56,853.53,1.0,1,FIX
1025000,1013.84,865.36,1.0,1,NOISE
1055600,984.4,880.07,1.0,2,NOISE
1071500,938.5,904.2,1.0,2,NOISE
1087600,849.72,971.32,1.0,4,NOISE
1120600,749.93,1020.87,1.0,4,NOISE
1136000,644.78,1201.59,1.0,4,NOISE
1151700,605.34,1270.87,1.0,4,NOISE
1167600,574.25,1171.94,1.0,4,NOISE
1183700,684.17,1023.3,1.0,4,NOISE
1216100,897.16,1091.25,1.0,2,NOISE
1232300,864.5,1011.36,1.0,2,NOISE
1247600,875.39,1042.35,1.0,1,NOISE
1263600,1022.11,988.98,1.0,1,FIX
1279600,1063.94,933.34,1.0,1,FIX
1295600,1102.34,913.51,1.0,1,FIX
1328100,1215.88,886.73,1.0,2,FIX
1343700,1233.67,875.88,1.0,2,SACCADE
1359700,1178.04,885.56,1.0,1,SACCADE
1375600,1238.1,874.86,1.0,1,FIX
1392500,1306.34,907.38,1.0,1,FIX
1407900,1355.04,874.96,1.0,1,FIX
1439600,1383.57,854.65,1.0,1,FIX
1455600,1416.55,839.23,1.0,1,FIX
1487900,1413.89,839.68,1.0,2,SACCADE
1503900,1375.05,831.2,1.0,2,SACCADE
1519600,1316.84,874.91,1.0,1,SP
1535600,1082.1,935.59,1.0,1,FIX
1551700,796.16,962.48,1.0,1,FIX
1583700,805.76,928.88,1.0,1,FIX
1599800,847.34,913.43,1.0,1,FIX
1615600,836.11,916.3,1.0,1,FIX
1647900,854.86,916.22,1.0,1,FIX
1663700,851.02,885.54,1.0,1,FIX
1679600,827.02,912.59,1.0,1,FIX
1695600,828.31,917.55,1.0,1,FIX
1711700,852.4,890.46,1.0,1,FIX
1744200,849.67,914.54,1.0,1,FIX
1759800,848.19,902.42,1.0,1,FIX
1775700,863.43,881.77,1.0,1,FIX
1807600,834.8,902.65,1.0,1,FIX
