@RELATION gaze_labels

%@METADATA width_px 1920
%@METADATA height_px 1080
%@METADATA width_mm 540.00
%@METADATA height_mm 254.00
%@METADATA distance_mm 620.00


@ATTRIBUTE time INTEGER
@ATTRIBUTE x NUMERIC
@ATTRIBUTE y NUMERIC
@ATTRIBUTE confidence NUMERIC
@ATTRIBUTE handlabeller1 INTEGER
@ATTRIBUTE handlabeller2 INTEGER
@ATTRIBUTE handlabeller_final INTEGER
@ATTRIBUTE speed_1 numeric
@ATTRIBUTE direction_1 numeric
@ATTRIBUTE acceleration_1 numeric
@ATTRIBUTE speed_2 numeric
@ATTRIBUTE direction_2 numeric
@ATTRIBUTE acceleration_2 numeric
@ATTRIBUTE speed_4 numeric
@ATTRIBUTE direction_4 numeric
@ATTRIBUTE acceleration_4 numeric
@ATTRIBUTE speed_8 numeric
@ATTRIBUTE direction_8 numeric
@ATTRIBUTE acceleration_8 numeric
@ATTRIBUTE speed_16 numeric
@ATTRIBUTE direction_16 numeric
@ATTRIBUTE acceleration_16 numeric

%The number after speed, direction denotes the step size that was used for the calculation.
%Acceleration was calculated between two adjacent samples of the already low pass filtered velocity

@DATA
0,352.69,414.04,1.00,1,1,1,0.00,0.00,0.00,4914.00,-2.84,0.00,1752.49,-1.80,0.00,807.74,-2.78,0.00,243.59,-1.09,0.00
14800,283.21,392.55,1.00,1,1,1,4914.00,-2.84,332027.17,1752.49,-1.80,290950.73,1845.68,-0.47,150164.31,828.34,0.21,110200.83,577.88,-0.48,27242.61
28800,341.28,364.87,1.00,1,1,1,4595.04,-0.44,632728.77,1845.68,-0.47,158745.13,807.74,-2.78,175864.27,359.93,2.78,81979.06,233.85,2.31,57255.55
44100,331.47,368.15,1.00,1,1,1,676.11,2.82,344230.38,1338.11,2.46,206946.97,828.34,0.21,106599.49,561.39,-2.60,28771.51,872.78,0.47,62958.74
64900,303.74,395.27,1.00,1,1,1,1864.86,2.37,62063.94,824.08,1.17,65511.75,359.93,2.78,55178.21,243.59,-1.09,28837.86,2126.34,0.29,61376.10
94100,347.48,406.11,1.00,1,1,1,1543.27,0.24,102080.15,521.00,-1.08,41862.49,561.39,-2.60,15075.48,577.88,-0.48,13807.90,2267.78,0.03,19791.32
108700,314.40,375.10,1.00,1,1,1,3105.95,-2.39,309312.63,1849.50,-2.34,120391.44,735.34,-0.23,82549.91,233.85,2.31,54902.58,3120.56,0.23,68321.82
144200,283.19,339.38,1.00,1,1,1,1335.99,-2.29,50183.00,1139.66,0.09,79140.35,671.66,-1.14,17653.01,872.78,0.47,27134.33,3675.53,0.20,15805.46
158200,370.61,379.92,1.00,2,2,2,6882.61,0.43,580108.18,1851.12,0.06,50881.73,208.11,1.64,62135.46,2126.34,0.29,91187.35,992.25,0.16,191774.51
194000,375.21,345.01,1.00,2,2,2,983.54,-1.44,202162.64,1201.33,2.87,84171.18,2707.30,0.49,73481.09,2267.78,0.03,16142.64,1378.53,0.15,10789.90
208000,312.90,395.71,1.00,3,3,3,5737.47,2.46,463413.83,4692.00,0.78,385607.65,3907.81,0.40,88056.61,3120.56,0.23,71249.90,1207.59,0.15,12240.94
222400,470.40,438.26,1.00,1,1,1,11329.25,0.26,1069573.14,12276.96,0.30,583101.29,5818.32,0.22,145635.85,3675.53,0.20,38964.84,1072.33,0.19,10033.21
237100,654.63,499.91,1.00,1,1,1,13215.84,0.32,137427.40,7928.21,-0.08,389862.21,7773.05,0.19,133640.81,1916.58,0.28,120363.35,1400.19,0.14,22648.19
252200,705.81,418.29,1.00,1,1,1,6380.70,-1.01,877959.08,4399.80,-0.05,234103.11,5028.69,0.03,193818.58,2545.99,0.32,42207.01,1449.12,0.08,6542.07
274000,816.79,492.08,1.00,1,1,1,6113.54,0.59,410737.51,2777.25,0.29,91857.70,474.72,-1.34,227195.08,2879.73,0.06,35645.95,1347.39,0.23,10768.90
288400,802.18,446.95,1.00,1,1,1,3294.72,-1.88,620294.69,3630.73,-2.95,444432.41,541.71,1.17,67096.68,1392.32,-0.02,103983.77,1596.12,0.25,17341.50
317000,663.40,463.01,1.00,1,1,1,4884.75,3.03,186298.26,1590.25,2.96,77716.55,1447.76,-2.47,67855.49,672.12,-0.45,28877.12,1151.76,0.12,16755.32
338400,723.97,461.30,1.00,1,1,1,2831.59,-0.03,360259.43,2168.45,-0.57,172382.22,1688.87,-3.04,42529.89,600.90,0.28,21226.82,1841.78,0.22,33008.18
352400,727.94,421.45,1.00,1,1,1,2860.72,-1.47,268625.07,2131.30,-2.66,265265.41,1228.19,-0.06,207683.79,711.13,-2.93,93661.03,2762.45,-0.01,75837.71
366500,670.97,433.42,1.00,1,1,1,4128.41,2.93,403374.98,1372.14,1.21,233240.18,1111.71,-0.26,18603.65,352.13,2.94,29175.53,2345.41,-0.04,29848.82
381100,741.98,458.24,1.00,1,1,1,5152.40,0.34,612645.27,3407.30,0.08,210989.53,794.16,1.77,111676.38,487.62,-0.61,56323.12,2157.59,-0.06,13274.02
402300,792.58,442.90,1.00,1,1,1,2494.22,-0.29,163479.79,780.27,2.65,192750.45,1033.57,0.30,58380.34,1171.67,-0.00,38670.04,1903.67,0.14,22436.88
416400,717.69,471.23,1.00,1,1,1,5678.77,2.78,579366.10,1101.72,2.82,25363.65,487.52,-2.04,100634.70,2669.94,-0.09,106813.54,1481.34,-0.06,38556.35
444800,748.16,457.71,1.00,2,2,2,1173.82,-0.42,241234.94,1006.97,-1.46,62494.89,1271.34,0.18,56845.04,3180.95,-0.04,18673.45,1534.29,0.08,7675.06
466300,723.05,421.27,1.00,2,2,2,2058.58,-2.17,118661.71,3940.30,0.02,185233.62,4694.43,-0.20,164913.98,3515.17,0.01,17185.77,2150.23,0.03,28968.96
481100,891.17,460.72,1.00,3,3,3,11667.93,0.23,896271.75,9838.43,-0.09,401178.80,5199.40,-0.10,47481.57,3159.41,0.12,34603.30,1825.23,-0.08,25930.05
509400,1145.42,383.75,1.00,1,1,1,9386.88,-0.29,207976.55,6149.41,-0.16,131842.91,7588.79,0.07,92499.98,3218.21,-0.02,15040.10,1798.83,0.04,7236.46
530900,1193.47,411.77,1.00,1,1,1,2587.33,0.53,365467.26,5332.18,0.42,158296.64,5077.35,0.10,117194.47,3322.01,0.05,11101.65,1555.46,0.07,11559.37
544800,1317.40,461.53,1.00,1,1,1,9608.00,0.38,507796.11,4529.90,0.78,136315.46,1939.34,0.50,242496.29,3835.34,0.10,38979.56,503.31,2.48,140959.30
558800,1283.69,500.28,1.00,1,1,1,3668.77,2.29,810969.44,543.31,3.12,351806.28,1577.56,0.64,31286.12,2426.84,-0.11,110268.37,632.19,2.88,18627.23
594400,1290.46,462.08,1.00,1,1,1,1089.82,-1.40,130259.22,354.04,-1.06,22018.77,244.39,1.37,39503.20,970.58,0.41,46419.47,858.35,3.02,6953.56
608800,1292.30,484.82,1.00,1,1,1,1584.01,1.49,184214.08,1247.22,0.54,90677.54,1050.91,-1.77,89951.04,487.37,2.28,83975.54,878.79,3.09,4348.44
623000,1321.14,480.28,1.00,2,2,2,2056.12,-0.16,189324.43,2458.74,-1.93,247834.12,377.64,-2.08,49434.20,4899.97,3.01,320322.23,802.75,2.61,28253.12
637200,1267.74,419.45,1.00,2,2,2,5700.18,-2.29,494253.26,1624.14,-2.40,87517.17,2236.60,-3.00,142983.63,4329.09,-3.13,60741.89,1577.33,-3.08,71328.35
658700,1278.58,440.91,1.00,2,2,2,1118.02,1.10,315740.82,3485.21,2.78,145074.22,10791.01,3.04,401719.52,5900.42,3.09,74437.92,2210.80,2.88,40291.31
673900,1148.10,464.67,1.00,3,3,3,8725.52,2.96,599068.27,22562.30,2.97,1260032.61,8454.84,3.03,153758.99,5666.06,-3.13,29411.13,2468.24,3.10,37146.82
688300,620.32,553.66,1.00,1,1,1,37168.44,2.97,1975271.20,12840.72,3.09,688883.77,10546.39,3.06,146987.86,5631.25,3.06,36312.02,2694.34,3.09,15716.65
716600,600.59,494.06,1.00,1,1,1,2218.40,-1.89,1303751.31,3677.67,-2.87,332946.58,8523.76,3.13,74710.89,5900.20,3.13,15814.17,2696.60,3.14,3975.03
738100,443.67,505.30,1.00,1,1,1,7316.97,3.07,330469.02,3461.15,-2.97,18646.16,1353.02,-3.04,334004.29,5342.72,3.00,41893.28,2834.19,-3.14,6433.41
752500,478.18,472.72,1.00,1,1,1,3295.50,-0.76,700455.91,2827.10,0.49,431397.46,2975.14,-2.82,116892.61,4623.48,-3.11,78619.49,3134.23,3.09,23021.48
766600,514.92,542.92,1.00,1,1,1,5619.46,1.09,513765.95,2505.79,-2.55,377663.59,1366.81,0.52,306651.46,789.17,-2.69,277755.36,3171.26,3.12,6946.84
781100,418.80,432.59,1.00,1,1,1,10091.69,-2.29,1076697.16,216.58,0.92,187004.49,511.61,-1.23,106413.46,974.89,3.07,33954.68,2775.13,3.00,37756.55
802200,519.57,549.08,1.00,1,1,1,7299.59,0.86,824229.64,2005.38,0.13,88147.26,560.87,-1.70,12141.51,403.41,-0.86,61193.08,3076.67,3.12,22341.27
816500,489.18,441.88,1.00,1,1,1,7791.28,-1.85,1030248.08,1186.01,-1.78,185030.60,948.41,1.10,104127.62,868.75,2.71,87184.40,2434.80,2.97,52989.18
845100,509.18,499.27,1.00,1,1,1,2124.75,1.24,346612.63,1435.81,2.07,86126.31,1225.00,-1.99,75966.03,1059.31,-2.88,23676.94,890.81,-3.04,55753.22
866000,455.30,504.36,1.00,2,2,2,2589.16,3.05,178028.52,1340.33,-2.22,111754.02,1744.02,2.56,109359.49,680.95,1.84,60147.06,904.59,2.88,15617.49
880000,481.02,461.91,1.00,3,3,3,3544.79,-1.03,392635.18,2447.10,2.90,162921.12,1901.65,-3.13,75698.97,1313.85,-2.74,111362.01,318.83,2.11,50731.17
908100,355.27,528.99,1.00,1,1,1,5071.87,2.65,296041.31,2762.40,2.88,11437.23,884.61,2.56,44922.06,1063.57,2.19,53438.98,502.50,2.80,11582.69
930000,347.73,498.13,1.00,1,1,1,1450.33,-1.81,256167.88,754.22,0.55,151742.78,1811.30,-3.14,53626.85,1068.08,3.00,38221.45,640.44,2.84,6394.88
957900,387.20,548.76,1.00,1,1,1,2300.94,0.91,131618.62,1173.53,-2.33,68531.13,828.27,1.22,80170.21,872.91,2.67,13133.94,499.47,2.13,14998.19
972400,313.65,461.87,1.00,1,1,1,7850.68,-2.27,700011.81,1318.02,1.73,154406.37,365.69,1.96,42091.10,970.42,2.18,31968.96,711.88,-3.09,44316.55
994000,379.82,595.76,1.00,1,1,1,6914.24,1.11,678522.83,1873.34,1.22,44878.34,874.65,2.83,32324.80,146.91,-2.94,42694.35,542.62,2.34,25104.92
1008100,336.93,524.57,1.00,1,1,1,5894.71,-2.11,907654.22,1944.34,-2.57,256889.09,2323.34,1.00,190651.46,735.62,1.76,53260.90,486.41,2.54,8398.71
1022300,333.56,565.96,1.00,1,1,1,2924.48,1.65,594619.88,2989.95,0.82,344877.49,1322.61,-2.15,256756.92,394.73,2.86,46413.84,298.69,2.71,13976.26
1036500,394.66,586.84,1.00,1,1,1,4546.68,0.33,335455.53,1153.89,-1.57,275644.44,1192.96,1.69,166561.80,589.29,1.66,40779.87,440.19,2.82,10319.02
1058100,333.66,524.65,1.00,1,1,1,4032.90,-2.35,386520.40,1883.27,2.93,111550.76,78.44,-0.65,57814.40,218.38,-1.95,36576.93,194.25,1.93,16304.73
1072900,327.65,601.31,1.00,1,1,1,5195.86,1.65,568516.99,1271.30,1.47,145681.66,1545.52,-2.63,106665.01,534.96,0.87,50367.51,671.90,0.19,49237.55
1088300,337.69,562.83,1.00,1,1,1,2582.48,-1.32,503334.55,2324.51,-1.89,232275.29,691.73,0.88,143108.05,331.22,-0.54,37892.01,1056.72,-0.20,32859.96
1101700,306.66,537.75,1.00,1,1,1,2977.83,-2.46,226343.13,633.93,0.13,198577.19,783.93,-0.30,61768.62,612.50,-2.04,50339.02,1862.24,0.05,65406.77
1136900,368.24,566.78,1.00,1,1,1,1934.31,0.44,138597.10,1853.24,0.52,36634.47,548.88,-0.53,7909.74,403.97,1.54,28218.04,1893.01,-0.26,16383.36
1151100,386.19,583.10,1.00,1,1,1,1707.81,0.74,41145.01,918.87,-1.34,161483.70,671.11,-0.62,9355.82,1536.53,-0.31,119166.29,1994.85,-0.02,33795.29
1165100,374.07,541.53,1.00,1,1,1,3092.61,-1.85,331133.04,2398.60,-1.97,124270.61,566.56,2.70,88077.18,2268.33,-0.21,53903.06,1877.09,-0.06,10554.90
1186500,353.13,504.89,1.00,2,2,2,1972.23,-2.09,58957.19,1568.20,2.33,156608.86,2459.03,-0.31,141196.68,3266.42,-0.08,49335.64,1866.36,-0.16,8784.11
1200900,335.48,582.31,1.00,2,2,2,5514.38,1.79,492577.11,6510.85,0.16,520948.05,3964.11,-0.17,109046.94,3654.28,-0.20,39743.10,1986.55,-0.06,16655.23
1214900,535.55,535.10,1.00,2,2,2,14683.31,-0.23,1272346.09,8293.86,-0.26,255543.11,5736.68,-0.03,135132.01,3468.18,-0.12,24808.28,2040.48,-0.13,11150.69
1244400,684.03,489.16,1.00,3,3,3,5268.58,-0.30,319793.46,5475.42,-0.13,100149.57,6573.76,-0.22,48691.76,3149.58,-0.02,15398.13,1942.28,-0.15,3686.71
1279100,884.12,489.68,1.00,1,1,1,5766.51,0.00,49998.81,5053.56,-0.16,12858.44,4155.77,-0.05,74115.50,3703.92,-0.02,15975.14,2028.63,-0.05,6128.89
1293100,927.10,450.63,1.00,1,1,1,4147.68,-0.74,277896.11,1933.18,0.37,251199.94,2567.95,0.15,122985.00,3609.17,-0.15,32411.79,2216.97,-0.06,13468.24
1314100,947.26,514.00,1.00,1,1,1,3166.93,1.26,294215.11,1550.25,1.47,88573.87,1294.09,-0.00,62170.36,2473.19,-0.04,56170.05,1812.78,-0.20,23732.99
1343100,934.52,527.78,1.00,1,1,1,647.09,2.32,100080.23,1050.67,-0.58,77238.38,664.76,0.75,31985.02,1636.71,-0.08,28950.62,1969.07,-0.01,13521.63
1357200,985.19,489.27,1.00,1,1,1,4513.92,-0.65,365417.87,1467.67,-0.85,37963.57,347.10,0.13,30515.67,497.01,0.18,82518.18,1922.80,-0.01,3282.59
1378200,968.56,489.11,1.00,1,1,1,791.97,-3.13,245849.67,864.69,1.94,109463.37,951.11,-1.34,46623.71,939.81,0.58,24583.72,2083.92,-0.16,16341.23
1392400,974.19,517.65,1.00,1,1,1,2048.07,1.38,164840.97,998.19,-2.36,110022.64,539.89,2.74,94599.38,329.53,-1.98,86451.09,1328.53,-0.16,53198.76
1406500,948.58,469.14,1.00,1,1,1,3890.05,-2.06,417125.59,895.29,-2.52,12904.94,1324.32,0.46,122385.85,332.57,0.13,40857.89,1060.67,-0.05,21015.11
1421000,953.45,502.64,1.00,1,1,1,2334.23,1.43,423408.53,3109.44,0.54,276015.88,1015.34,-2.34,159102.62,455.81,3.00,53877.11,1004.12,-0.05,3937.76
1442700,1045.03,527.17,1.00,1,1,1,4369.37,0.26,187102.65,1129.01,-2.23,192755.96,1085.09,1.16,95243.40,93.80,-1.95,20427.32,1163.43,0.17,12922.13
1456700,928.68,470.84,1.00,1,1,1,9233.80,-2.69,967869.26,2406.24,3.05,145202.08,413.67,-2.94,97527.15,376.30,-1.92,20182.92,1164.66,-0.18,28747.15
1471200,976.75,533.45,1.00,1,1,1,5443.68,0.92,986820.74,932.33,1.62,169440.37,1480.06,-2.59,75877.41,412.36,0.04,45177.16,1100.07,-0.10,7504.30
1485200,927.42,497.38,1.00,1,1,1,4364.97,-2.51,693617.33,1604.55,-1.79,179663.27,350.07,-0.14,126041.42,1523.90,-0.12,79934.03,856.96,-0.12,17411.89
1506700,964.13,477.90,1.00,2,2,2,1933.06,-0.49,255413.81,829.67,-0.82,61957.08,876.48,-1.11,34224.20,1530.94,-0.09,2076.48,863.71,-0.22,3869.99
1535500,955.99,466.97,1.00,2,2,2,473.38,-2.21,71479.78,1016.35,-0.14,22098.29,3083.28,-0.09,94750.04,2426.54,-0.05,31239.80,885.35,-0.19,1140.12
1550000,1007.70,471.71,1.00,1,1,1,3581.09,0.09,269868.86,7467.39,0.04,446289.15,3825.36,0.10,67246.25,1734.56,-0.14,49466.82,845.98,-0.04,9068.34
1564200,1170.09,476.45,1.00,1,1,1,11441.15,0.03,554235.67,7352.60,0.14,50131.74,5001.36,-0.04,92953.21,1797.74,-0.12,4814.74,917.84,-0.11,6520.55
1584900,1261.83,507.29,1.00,1,1,1,4675.22,0.32,342972.70,3037.54,-0.21,222804.56,3066.71,0.10,97078.15,1525.53,-0.17,13685.55,677.52,-0.09,11629.04
1599100,1273.84,454.65,1.00,1,1,1,3802.68,-1.35,444654.64,440.40,-2.49,235364.74,785.41,-0.24,164933.60,1670.14,-0.01,20876.85,1082.64,-0.14,28658.87
1628300,1246.62,495.71,1.00,1,1,1,1687.18,2.16,185411.16,432.38,3.03,11055.55,908.99,-2.07,46074.74,1196.58,-0.07,16465.54,904.51,-0.39,10484.61
1663800,1246.02,457.62,1.00,1,1,1,1072.98,-1.59,74442.89,1362.87,-1.96,36916.32,195.41,2.70,25861.15,432.41,-0.08,21527.40,922.50,-0.27,3117.03
1677700,1221.17,433.38,1.00,1,1,1,2497.82,-2.37,136271.28,201.37,0.72,111180.11,464.87,-2.17,34244.73,28.49,3.10,33157.10,865.62,0.01,18201.35
1713700,1253.60,464.23,1.00,1,1,1,1243.22,0.76,103916.11,471.23,1.60,10453.17,159.28,1.48,16915.03,175.94,-1.57,4989.54,937.15,0.04,2115.27
1728300,1220.56,457.22,1.00,1,1,1,2313.42,-2.93,235255.87,301.39,2.40,23285.77,1040.52,1.12,61192.32,442.41,-1.58,18252.48,692.43,-0.23,22327.60
1742900,1247.11,470.18,1.00,1,1,1,2023.85,0.45,294858.11,2177.84,0.94,148202.00,707.02,-1.11,107996.65,297.58,-1.98,14043.83,239.68,-3.07,63297.90
1756800,1256.93,507.51,1.00,1,1,1,2777.23,1.31,152120.05,1515.60,-1.05,224858.08,661.06,-0.93,9342.99,342.65,1.02,45947.88,948.38,-3.09,50989.35
1778700,1274.00,423.05,1.00,1,1,1,3934.64,-1.37,298765.02,2352.60,-1.70,66762.03,745.61,-1.91,30435.72,98.48,1.25,11308.13,843.62,3.03,8026.96
1793100,1246.06,422.80,1.00,1,1,1,1939.83,-3.13,326735.48,1089.37,-2.96,157608.74,359.97,-1.83,26952.00,258.36,-1.46,24308.22,941.00,-2.99,17366.42
1822400,1227.19,414.35,1.00,2,2,2,705.78,-2.72,45184.31,1315.14,1.51,64879.93,716.86,1.85,35565.30,1074.26,3.13,38734.24,873.04,2.95,10878.73
1836500,1249.60,479.77,1.00,2,2,2,4904.74,1.24,383770.60,1975.02,1.12,64598.44,270.82,-3.02,51319.42,2044.36,-3.09,69065.41,816.08,2.90,4915.16
1858100,1258.12,477.71,1.00,2,2,2,405.83,-0.24,226111.81,1805.50,-1.97,174948.14,2280.37,2.74,94893.52,1937.01,2.92,25535.34,873.22,3.06,6952.42
1872200,1224.79,420.28,1.00,1,1,1,4709.13,-2.10,343276.35,5857.56,-3.10,379788.70,4451.91,3.10,173607.96,2005.01,3.04,17395.49,1006.80,3.10,9735.34
1886300,1093.07,471.29,1.00,1,1,1,10018.28,2.77,736495.50,9422.13,2.87,300090.41,3983.17,3.12,33716.24,1800.71,2.77,39394.65,895.43,3.11,7919.33
1901100,962.30,492.72,1.00,1,1,1,8953.14,2.98,150586.96,2538.22,3.00,466954.94,4140.45,3.02,27955.31,1819.60,3.09,39463.33,996.92,-3.02,12207.91
1922200,1002.89,484.40,1.00,1,1,1,1963.60,-0.20,517320.70,1135.52,-1.64,135610.21,1414.16,2.80,131666.87,1780.61,3.12,3040.50,950.86,2.93,15444.03
1936700,959.67,452.38,1.00,1,1,1,3709.76,-2.50,360638.00,664.32,2.13,118624.77,161.46,0.09,107756.06,1979.46,2.98,22581.66,890.49,3.01,6598.78
1965300,987.81,508.74,1.00,1,1,1,2202.55,1.11,201414.17,888.24,1.19,25371.66,10.08,-1.16,5542.51,740.47,3.07,43492.64,906.90,2.96,1634.87
1987000,976.12,493.92,1.00,1,1,1,869.78,-2.24,140980.33,817.26,-1.02,70298.85,493.11,2.73,23065.70,152.98,-1.99,32401.82,1086.04,-3.08,13754.35
2001300,1003.21,483.67,1.00,1,1,1,2025.52,-0.36,170166.10,1484.57,-2.76,126674.18,386.71,-2.09,41462.98,128.45,3.09,11211.65,853.31,-3.07,16295.13
2029400,917.70,470.49,1.00,1,1,1,3079.13,-2.99,175938.68,643.91,-3.02,31289.48,436.65,-2.35,4298.94,60.25,0.69,6320.65,1028.66,2.93,11469.99
2050900,971.49,479.94,1.00,1,1,1,2540.37,0.17,261357.96,969.36,-0.02,74868.44,242.15,3.06,15612.21,346.87,-2.23,18880.37,491.73,2.92,24973.59
2064900,952.10,469.83,1.00,1,1,1,1561.74,-2.66,289768.10,253.37,0.54,54689.91,648.68,-0.23,63498.13,442.48,-2.61,12486.87,176.21,-1.71,38171.80
2093900,980.86,485.50,1.00,1,1,1,1129.25,0.50,92789.07,435.54,-0.61,13911.55,314.41,-2.43,30086.98,160.82,-1.58,13273.71,372.51,-2.88,11853.70
2108400,967.63,458.98,1.00,1,1,1,2043.49,-2.03,209589.25,987.51,-2.48,82249.23,474.65,-2.84,15463.68,114.69,1.24,18761.29,98.44,1.54,28401.78
2130000,952.63,463.72,1.00,1,1,1,728.25,2.84,95350.13,1440.62,-3.14,41077.66,544.39,-0.89,39149.38,247.98,2.40,10572.95,320.45,-2.55,17877.07
2144100,916.20,458.67,1.00,1,1,1,2608.40,-3.00,140115.25,1806.37,-0.10,229939.35,814.38,2.60,95024.33,214.76,-1.49,30545.65,241.54,0.02,38293.64
2158000,1002.94,458.47,1.00,1,1,1,6239.98,-0.00,635277.93,995.19,1.32,139227.71,636.83,1.75,44335.47,674.78,-2.81,47154.70,160.82,-1.58,21188.35
2172400,923.06,485.99,1.00,1,1,1,5867.33,2.81,829416.24,2033.40,2.47,129381.88,672.47,-0.47,81500.68,173.26,1.84,49072.36,114.69,1.24,18891.58
2194100,945.26,503.87,1.00,1,1,1,1313.58,0.68,306899.84,1580.76,-0.98,164567.06,1438.51,-3.10,94574.71,334.35,-2.94,16883.80,247.98,2.40,10524.22
2208100,954.57,439.18,1.00,1,1,1,4668.60,-1.43,389759.95,1746.38,-2.41,156402.02,436.88,-0.05,133860.89,965.54,0.27,92810.64,214.76,-1.49,30763.83
2236800,889.67,454.17,1.00,1,1,1,2321.07,2.91,206193.67,896.81,1.44,87018.22,810.35,-2.24,39051.32,1438.51,-3.10,83215.55,674.78,-2.81,22837.99
2258600,960.67,484.05,1.00,1,1,1,3533.68,0.40,256114.85,459.53,-0.01,43824.16,1400.90,0.54,99883.15,436.88,-0.05,85965.71,173.26,1.84,32414.77
2272400,906.03,454.00,1.00,1,1,1,4518.85,-2.64,582733.69,3204.70,0.13,199303.90,459.53,-0.01,75187.12,810.35,-2.24,81215.43,334.35,-2.94,26549.16
2286200,1048.37,495.50,1.00,1,1,1,10744.40,0.28,1100504.99,10744.40,0.28,550252.50,3204.70,0.13,199303.90,1400.90,0.54,157786.43,965.54,0.27,94155.72
