@RELATION gaze_labels

%@METADATA width_px 1920
%@METADATA height_px 1080
%@METADATA width_mm 540.00
%@METADATA height_mm 254.00
%@METADATA distance_mm 620.00


@ATTRIBUTE time INTEGER
@ATTRIBUTE x NUMERIC
@ATTRIBUTE y NUMERIC
@ATTRIBUTE confidence NUMERIC
@ATTRIBUTE handlabeller1 INTEGER
@ATTRIBUTE handlabeller2 INTEGER
@ATTRIBUTE handlabeller_final INTEGER
@ATTRIBUTE speed_1 numeric
@ATTRIBUTE direction_1 numeric
@ATTRIBUTE acceleration_1 numeric
@ATTRIBUTE speed_2 numeric
@ATTRIBUTE direction_2 numeric
@ATTRIBUTE acceleration_2 numeric
@ATTRIBUTE speed_4 numeric
@ATTRIBUTE direction_4 numeric
@ATTRIBUTE acceleration_4 numeric
@ATTRIBUTE speed_8 numeric
@ATTRIBUTE direction_8 numeric
@ATTRIBUTE acceleration_8 numeric
@ATTRIBUTE speed_16 numeric
@ATTRIBUTE direction_16 numeric
@ATTRIBUTE acceleration_16 numeric

%The number after speed, direction denotes the step size that was used for the calculation.
%Acceleration was calculated between two adjacent samples of the already low pass filtered velocity

@DATA
0,62.09,774.30,1.00,1,1,1,0.00,0.00,0.00,2572.09,0.05,0.00,1988.08,0.06,0.00,763.97,0.13,0.00,79.64,0.48,0.00
20700,115.28,776.80,1.00,1,1,1,2572.09,0.05,124255.63,1988.08,0.06,28261.04,422.76,0.25,76096.51,369.21,2.97,54177.68,186.47,3.06,12430.80
35500,132.54,778.67,1.00,1,1,1,1172.90,0.11,94812.04,422.76,0.25,106432.28,763.97,0.13,23539.95,880.68,3.10,34959.57,101.09,-3.11,5868.28
50400,127.43,779.96,1.00,1,1,1,353.40,2.89,101292.48,747.61,3.05,77449.49,369.21,2.97,75266.98,915.44,3.13,2977.03,178.76,-0.10,18745.54
64500,110.95,780.71,1.00,1,1,1,1169.91,3.10,58628.96,1017.66,3.11,19572.31,880.68,3.10,36695.15,79.64,0.48,69958.66,564.47,-0.04,27379.20
85500,91.72,781.00,1.00,1,1,1,915.64,3.13,12203.25,992.45,3.14,1661.88,915.44,3.13,2112.27,186.47,3.06,12253.22,1056.37,-0.03,23428.96
99500,76.22,780.89,1.00,1,1,1,1107.82,-3.13,13817.01,791.52,-3.12,14464.98,450.76,-3.12,33224.41,101.09,-3.11,6203.61,1531.54,-0.02,33947.59
114300,68.93,780.47,1.00,1,1,1,492.76,-3.08,41636.64,74.56,-2.85,48644.74,47.24,-2.58,27767.73,178.76,-0.10,18872.19,1872.01,-0.02,23015.40
149500,72.65,779.81,1.00,1,1,1,107.09,-0.17,16973.37,393.07,-0.07,13165.49,432.03,-0.07,13380.09,564.47,-0.04,10967.24,1151.92,0.00,20476.92
164400,88.57,779.01,1.00,1,1,1,1070.28,-0.05,64705.56,1006.58,-0.04,41203.29,923.40,-0.04,33004.89,1056.37,-0.03,33020.68,1106.11,-0.00,3121.06
193200,116.60,778.14,1.00,2,2,2,973.70,-0.03,3423.47,1531.81,-0.03,18244.70,1646.42,-0.02,25110.10,1531.54,-0.02,16502.30,1122.41,-0.01,626.44
208100,155.49,777.28,1.00,2,2,2,2610.63,-0.02,109865.36,2423.27,-0.02,59838.83,2146.50,-0.02,33569.71,1872.01,-0.02,22860.94,1211.33,-0.01,5968.80
229200,203.83,776.59,1.00,3,3,3,2291.00,-0.01,15174.79,2901.12,-0.01,22649.98,3124.61,-0.01,46358.88,2277.06,-0.01,19202.45,1305.45,-0.01,4460.91
243700,258.76,775.76,1.00,1,1,1,3788.95,-0.02,103306.48,4004.36,-0.01,76087.16,3269.21,-0.01,10039.45,2402.65,-0.01,8679.43,1463.51,-0.00,10904.32
257900,318.74,775.13,1.00,1,1,1,4224.35,-0.01,30689.14,3735.63,-0.00,19052.66,3062.64,-0.00,14586.15,2626.17,-0.01,15742.52,1612.07,-0.00,10466.40
271800,363.73,775.28,1.00,1,1,1,3236.54,0.00,71160.34,2297.22,0.01,103508.08,2720.78,0.00,24616.49,2485.39,-0.00,10214.61,1738.89,0.00,9132.25
293200,399.83,775.64,1.00,1,1,1,1687.13,0.01,72406.34,1924.30,0.01,17427.05,2119.29,0.00,28107.95,2260.28,0.00,10531.93,2007.58,0.00,12559.47
307600,432.62,775.81,1.00,1,1,1,2276.77,0.01,40953.12,1897.41,-0.00,2397.21,1708.04,0.02,28616.09,1969.05,0.01,20266.29,2085.23,0.01,5405.31
321500,453.53,775.44,1.00,1,1,1,1504.62,-0.02,55630.01,1435.67,0.03,33459.63,1457.03,0.02,18072.52,1713.23,0.02,18444.39,2174.76,0.01,6443.59
336000,473.37,777.03,1.00,1,1,1,1372.89,0.08,13244.02,1108.17,0.06,22713.76,1215.66,0.04,16734.80,1584.51,0.03,8896.26,2139.83,0.01,2445.91
357100,492.91,777.72,1.00,1,1,1,926.71,0.04,21281.55,1038.81,0.05,3295.01,1308.87,0.05,4482.23,1706.27,0.03,5779.71,2078.28,0.02,2955.52
371300,509.99,778.98,1.00,2,2,2,1205.85,0.07,19869.84,1563.16,0.05,36927.50,1472.69,0.04,11628.88,1731.64,0.03,1806.64,1913.53,0.02,11629.01
385200,536.78,779.92,1.00,2,2,2,1928.75,0.04,52181.91,1904.29,0.03,24657.46,1954.45,0.04,34659.19,1724.27,0.03,532.72,1835.91,0.03,5667.83
406800,577.56,781.08,1.00,3,3,3,1888.56,0.03,1955.44,2259.16,0.03,16429.39,2241.26,0.03,13303.78,1794.45,0.03,3279.73,1775.20,0.03,2828.90
421300,618.30,782.46,1.00,1,1,1,2811.25,0.03,63640.88,2653.78,0.03,27220.04,2134.30,0.02,7462.93,1897.23,0.03,7094.60,1786.68,0.04,985.40
435800,654.49,783.23,1.00,1,1,1,2496.41,0.02,21840.30,1976.44,0.01,46814.81,2194.31,0.02,4150.64,1864.15,0.03,2282.61,1853.79,0.04,4689.56
449800,674.63,782.94,1.00,1,1,1,1438.48,-0.01,75719.68,1718.67,0.01,18413.57,1840.03,0.02,25311.02,1945.11,0.03,5811.16,1923.65,0.05,4998.53
463800,702.61,783.55,1.00,1,1,1,1999.41,0.02,40303.35,1731.16,0.04,3845.72,1554.69,0.03,20402.82,1955.26,0.04,818.16,2057.82,0.04,9594.05
485400,736.21,785.22,1.00,1,1,1,1557.57,0.05,20583.03,1464.43,0.05,12371.31,1789.69,0.05,10945.91,1852.58,0.04,4775.67,2252.43,0.04,9009.95
514400,776.63,787.05,1.00,1,1,1,1395.06,0.05,5608.61,1838.39,0.05,12901.79,1797.22,0.05,379.24,1954.05,0.05,3543.60,2316.18,0.04,2198.31
528300,814.96,789.51,1.00,1,1,1,2763.58,0.06,98492.18,2272.94,0.06,31262.40,1861.69,0.06,4670.86,2079.50,0.05,9032.48,2315.38,0.04,133.15
549800,856.97,791.47,1.00,2,2,2,1955.88,0.05,37616.99,1881.93,0.06,18186.81,2358.02,0.06,23100.66,2262.90,0.05,8532.91,2211.68,0.04,4824.66
577700,907.78,794.74,1.00,3,3,3,1825.08,0.06,4841.11,2429.21,0.07,19648.85,2344.72,0.06,695.77,2542.69,0.05,10029.19,2049.50,0.04,5813.02
592200,959.71,798.79,1.00,1,1,1,3591.80,0.08,121866.27,2972.79,0.06,37549.75,2774.38,0.05,29655.71,2769.71,0.05,15656.79,1919.07,0.05,8999.36
614100,1015.80,801.19,1.00,1,1,1,2563.71,0.04,47196.65,3183.12,0.03,10286.91,3512.77,0.05,33726.41,2684.49,0.05,3894.49,1806.96,0.05,5119.15
628100,1073.92,802.61,1.00,1,1,1,4152.40,0.02,113558.14,4205.57,0.03,73032.42,3263.70,0.04,17865.33,2466.05,0.05,15602.79,1645.29,0.05,11548.43
642500,1135.17,805.13,1.00,1,1,1,4257.56,0.04,8787.98,3363.59,0.05,58560.68,3189.13,0.04,5182.46,2284.98,0.05,12580.39,1558.22,0.05,6047.33
657100,1171.36,807.03,1.00,1,1,1,2481.96,0.05,121642.90,2207.53,0.05,79192.59,2099.72,0.05,74628.88,1877.25,0.04,27938.66,1528.84,0.05,2012.74
671900,1199.99,808.53,1.00,1,1,1,1936.81,0.05,36834.30,1106.45,0.05,74397.43,1079.53,0.05,68934.13,1442.54,0.03,29391.43,1364.12,0.05,11130.71
694000,1212.13,809.14,1.00,1,1,1,550.37,0.05,62734.94,173.43,0.06,42218.34,509.84,0.06,25778.45,863.64,0.03,26194.49,1127.80,0.05,10693.60
708500,1206.32,808.90,1.00,1,1,1,401.11,-3.10,65618.72,252.09,-3.12,29340.44,112.64,-2.91,42840.13,362.14,0.03,34586.15,862.03,0.04,18331.93
722900,1204.85,809.01,1.00,1,1,1,102.62,3.06,20796.78,479.59,-2.99,16107.59,412.05,-3.03,20869.19,154.24,0.00,14446.61,553.59,0.02,21436.23
736900,1192.85,806.88,1.00,1,1,1,870.33,-2.97,55099.81,545.27,-3.00,4698.43,386.32,-3.05,1884.23,116.29,-3.02,19291.16,231.59,-0.02,23024.62
757900,1185.96,806.32,1.00,1,1,1,329.50,-3.06,25866.62,311.78,-3.12,11357.90,218.46,-3.00,8022.56,381.16,-3.07,12619.82,106.28,-2.99,16039.17
771800,1181.97,806.63,1.00,1,1,1,287.26,3.06,4629.59,190.05,0.14,36046.06,121.41,-3.13,7146.81,586.55,-3.07,14778.99,435.08,-3.07,23689.82
785900,1191.23,807.06,1.00,1,1,1,656.84,0.05,66850.50,114.24,0.05,5456.49,350.76,-3.10,16270.83,796.35,-3.07,14879.70,631.83,-3.08,13959.84
800000,1185.19,806.79,1.00,1,1,1,428.36,-3.10,76964.69,770.80,-3.08,62768.56,781.12,-3.09,30528.10,926.51,-3.08,9255.83,782.75,-3.10,10716.73
821900,1163.52,805.46,1.00,2,2,2,991.30,-3.08,25709.96,1463.53,-3.09,31631.99,1355.41,-3.09,26223.35,981.26,-3.08,2500.11,917.68,-3.10,6161.81
837000,1131.12,803.83,1.00,2,2,2,2148.47,-3.09,76640.98,2076.17,-3.09,40572.14,1703.42,-3.08,23049.81,1149.78,-3.08,11160.03,949.84,-3.10,2134.18
851100,1102.99,802.06,1.00,3,3,3,1998.82,-3.08,10775.52,2016.01,-3.08,4469.73,1487.62,-3.08,15305.54,1272.05,-3.09,8688.26,1009.86,-3.10,4256.91
865400,1073.99,800.10,1.00,1,1,1,2032.97,-3.07,2480.46,1147.34,-3.08,60746.37,1454.04,-3.08,2357.67,1298.53,-3.10,2067.21,988.08,-3.11,1598.94
901600,1045.18,798.25,1.00,1,1,1,797.49,-3.08,34129.56,1138.67,-3.09,487.56,1213.56,-3.09,6656.40,1351.08,-3.10,1460.41,982.18,-3.11,185.96
916000,1016.45,797.08,1.00,1,1,1,1996.64,-3.10,83299.53,1292.92,-3.11,10912.89,1034.68,-3.12,12592.78,1246.08,-3.11,7303.68,960.71,-3.11,1490.94
944000,990.38,796.72,1.00,1,1,1,931.19,-3.13,38074.65,929.89,3.12,13092.08,1213.79,-3.13,6421.28,1184.02,-3.12,2232.37,1030.92,-3.11,2512.51
965600,970.34,797.94,1.00,1,1,1,929.63,3.08,3178.50,1122.13,3.12,8900.79,1038.59,3.14,8136.39,1036.48,-3.12,6843.34,1071.79,-3.11,1893.50
980300,949.66,797.59,1.00,2,2,2,1407.06,-3.12,33030.27,1224.18,-3.13,7420.93,1142.54,3.14,7071.53,983.80,-3.14,3707.55,1053.21,-3.11,1263.88
994700,934.72,797.52,1.00,2,2,2,1037.55,-3.14,25681.90,1169.05,-3.13,3828.97,1039.31,-3.13,7321.30,771.62,3.13,14755.83,1055.21,-3.10,260.06
1008600,916.58,797.21,1.00,3,3,3,1305.33,-3.12,19293.97,886.91,-3.13,20298.89,704.06,3.14,24137.32,738.73,-3.14,2443.04,1065.39,-3.10,733.16
1030000,903.41,797.05,1.00,1,1,1,615.15,-3.13,32252.47,342.84,3.10,25460.12,446.92,3.12,12024.51,765.67,-3.12,1364.99,1106.28,-3.11,1913.98
1045000,904.10,797.68,1.00,1,1,1,62.17,0.73,44205.04,88.67,0.41,28307.40,341.26,-3.11,7163.16,687.47,-3.11,5240.84,1209.11,-3.11,6861.15
1059400,905.81,798.09,1.00,1,1,1,121.50,0.23,5084.33,341.52,-3.03,29668.04,462.90,-3.11,8447.79,823.00,-3.09,9461.45,1263.97,-3.11,3816.20
1074200,894.20,796.53,1.00,1,1,1,791.31,-3.01,61639.80,1020.06,-3.08,45901.51,671.46,-3.08,14148.33,921.55,-3.09,6671.72,1421.79,-3.11,10663.33
1088200,876.48,796.33,1.00,1,1,1,1265.65,-3.13,34991.08,946.50,-3.10,5372.64,1199.27,-3.07,37707.88,1200.26,-3.09,19907.96,1590.21,-3.11,12036.70
1109300,861.01,795.08,1.00,1,1,1,735.71,-3.06,25318.55,1342.34,-3.06,18853.24,1515.54,-3.08,15009.38,1459.89,-3.09,12305.87,1637.69,-3.11,2252.90
1124300,828.17,792.52,1.00,1,1,1,2195.66,-3.06,97330.73,2204.49,-3.07,57491.38,1864.77,-3.08,23281.95,1813.04,-3.10,23549.36,1634.30,-3.11,278.41
1138300,797.22,790.77,1.00,2,2,2,2214.20,-3.08,3560.12,2526.99,-3.09,23265.37,2241.06,-3.09,26932.63,2116.95,-3.10,21741.89,1619.90,-3.10,1072.30
1152800,756.24,789.05,1.00,2,2,2,2829.13,-3.10,42487.56,2271.16,-3.11,17798.12,2436.98,-3.11,13721.64,2377.62,-3.10,17978.24,1504.53,-3.10,7958.60
1174200,715.74,787.99,1.00,3,3,3,1893.22,-3.12,43766.40,2364.90,-3.12,4580.89,2720.79,-3.12,13298.59,2590.14,-3.11,9933.02,1483.96,-3.10,970.54
1188200,672.54,787.25,1.00,1,1,1,3085.97,-3.12,85210.40,3297.46,-3.12,66614.29,2897.78,-3.12,12673.22,2376.91,-3.11,15244.72,1432.56,-3.10,3671.85
1202200,623.42,786.30,1.00,1,1,1,3508.95,-3.12,30216.35,3562.01,-3.12,18907.75,2945.62,-3.12,3472.90,2259.71,-3.11,8371.57,1316.40,-3.10,8296.86
1216600,571.40,785.12,1.00,1,1,1,3613.60,-3.12,7317.72,2670.54,-3.11,61937.33,2327.52,-3.11,42932.75,1734.34,-3.11,36484.03,1263.32,-3.10,3688.24
1238000,527.86,783.43,1.00,1,1,1,2036.09,-3.10,73743.01,1616.52,-3.10,49261.07,1880.60,-3.10,20904.45,1504.05,-3.11,10761.97,1293.82,-3.10,1462.53
1265900,491.77,782.00,1.00,1,1,1,1294.70,-3.10,26573.13,1205.92,-3.09,14737.51,984.10,-3.09,32139.10,1118.86,-3.11,13806.27,1267.36,-3.11,986.17
1279900,477.41,780.67,1.00,1,1,1,1029.99,-3.05,19393.89,356.19,-3.03,60745.50,503.69,-3.07,34328.28,691.62,-3.09,30528.92,1214.96,-3.12,3793.70
1315500,474.20,780.10,1.00,1,1,1,91.48,-2.96,26372.75,86.12,-0.11,12376.70,78.75,-0.15,16315.21,389.48,-3.07,8492.35,1139.60,-3.12,2127.77
1329900,481.69,780.18,1.00,1,1,1,519.75,0.01,42372.59,820.07,0.04,51049.35,379.19,0.00,20941.85,229.18,-3.09,11136.25,1120.88,-3.12,1300.10
1344400,497.88,781.09,1.00,1,1,1,1118.66,0.06,41371.02,783.79,0.02,2755.12,518.50,0.02,9618.49,168.67,-3.11,4189.96,1047.40,-3.13,5070.43
1366200,510.13,780.78,1.00,1,1,1,562.12,-0.03,25700.27,276.35,-0.04,23311.40,160.44,0.12,16484.50,189.85,3.08,1228.17,935.04,-3.13,5154.36
1380300,507.80,780.71,1.00,1,1,1,165.78,-3.11,51610.24,636.58,3.10,64746.98,468.63,3.13,44539.57,393.84,3.08,14467.46,830.92,-3.13,7384.47
1394700,492.00,781.47,1.00,2,2,2,1098.00,3.09,64778.15,1403.64,3.13,53287.77,1037.42,3.11,39510.33,659.64,3.11,18499.21,756.95,-3.12,5137.74
1408900,467.66,781.35,1.00,2,2,2,1714.53,-3.14,43722.07,1426.03,3.12,1729.87,1306.60,3.11,18956.99,961.27,3.13,21254.98,684.47,-3.12,5107.04
1424100,450.09,782.44,1.00,3,3,3,1158.02,3.08,37135.50,1229.92,3.10,13014.32,1484.45,3.13,11837.98,1247.49,3.13,18835.23,619.80,-3.12,4255.28
1445000,423.30,783.24,1.00,1,1,1,1282.47,3.11,6239.92,1533.83,3.14,14803.58,1457.00,3.13,1354.97,1396.46,3.14,7131.10,649.72,-3.12,1433.33
1459000,396.56,782.46,1.00,1,1,1,1910.74,-3.11,45361.46,1750.92,-3.13,15552.97,1421.04,-3.14,3275.62,1403.30,-3.13,1467.48,658.77,-3.12,652.05
1473000,374.27,782.76,1.00,1,1,1,1591.90,3.13,23386.43,1309.57,-3.13,31525.34,1489.17,-3.12,5096.54,1261.63,-3.12,10162.64,700.27,-3.11,2966.44
1494300,350.33,781.97,1.00,1,1,1,1124.58,-3.11,22131.30,1281.68,-3.11,1741.91,1322.05,-3.11,7895.94,1084.76,-3.10,8365.63,689.72,-3.12,539.49
1508300,329.05,781.43,1.00,1,1,1,1520.70,-3.12,28302.58,1338.44,-3.08,4940.31,1067.13,-3.07,18445.17,913.17,-3.08,12372.25,667.20,-3.12,1624.84
1522700,312.39,779.71,1.00,1,1,1,1163.18,-3.04,25832.71,803.89,-3.00,37601.26,715.24,-3.03,24585.27,659.75,-3.06,17623.50,603.75,-3.12,4407.22
1536700,306.45,778.18,1.00,1,1,1,437.90,-2.89,52359.55,218.53,-2.77,42380.60,346.18,-2.90,26787.66,440.91,-3.02,15706.25,486.22,-3.12,8396.10
1557700,305.27,776.91,1.00,1,1,1,82.55,-2.32,17667.98,70.09,-1.03,11457.31,61.24,-1.54,16114.03,192.24,-2.95,11883.32,448.54,-3.09,1877.16
1571800,307.73,776.08,1.00,1,1,1,184.13,-0.33,16357.15,251.67,-0.15,15131.28,185.29,-0.18,12953.77,30.28,-2.10,12331.48,399.32,-3.04,3874.60
1586800,312.51,775.79,1.00,1,1,1,319.12,-0.06,9968.45,357.12,-0.00,7655.58,228.61,-0.01,3722.97,106.04,-0.09,8131.45,659.75,-3.06,17381.33
1601100,318.19,776.05,1.00,1,1,1,398.03,0.05,6134.47,217.84,0.09,9904.75,241.08,0.08,1735.20,112.22,-0.00,797.83,440.91,-3.02,15376.75
1637000,323.40,776.77,1.00,1,1,1,146.38,0.14,7035.99,175.30,0.19,1294.03,191.28,0.17,1477.33,86.06,-0.05,740.16,192.24,-2.95,6951.24
1651500,326.88,777.68,1.00,1,1,1,247.95,0.26,7179.24,150.70,0.36,2584.59,70.78,0.30,8377.38,31.67,-1.14,5302.34,30.28,-2.10,11991.30
1667000,327.63,778.36,1.00,1,1,1,65.46,0.73,12395.14,37.52,2.88,11776.09,56.16,-3.03,8154.70,191.28,0.17,11979.82,106.04,-0.09,7869.15
1702300,325.03,778.17,1.00,2,2,2,73.72,-3.07,3730.27,179.41,-2.90,4179.96,229.07,-2.79,4955.36,70.78,0.30,3441.13,112.22,-0.00,323.20
1716800,318.95,776.26,1.00,2,2,2,440.17,-2.84,25436.33,585.03,-2.73,28247.84,179.41,-2.90,3755.91,56.16,-3.03,8717.10,86.06,-0.05,1832.53
1730700,309.82,771.50,1.00,3,3,3,740.54,-2.66,22784.64,740.54,-2.66,11633.00,585.03,-2.73,29467.17,229.07,-2.79,12584.49,31.67,-1.14,5531.22
