@RELATION gaze_labels

%@METADATA width_px 1920
%@METADATA height_px 1080
%@METADATA width_mm 540.00
%@METADATA height_mm 254.00
%@METADATA distance_mm 620.00


@ATTRIBUTE time INTEGER
@ATTRIBUTE x NUMERIC
@ATTRIBUTE y NUMERIC
@ATTRIBUTE confidence NUMERIC
@ATTRIBUTE handlabeller1 INTEGER
@ATTRIBUTE handlabeller2 INTEGER
@ATTRIBUTE handlabeller_final INTEGER
@ATTRIBUTE speed_1 numeric
@ATTRIBUTE direction_1 numeric
@ATTRIBUTE acceleration_1 numeric
@ATTRIBUTE speed_2 numeric
@ATTRIBUTE direction_2 numeric
@ATTRIBUTE acceleration_2 numeric
@ATTRIBUTE speed_4 numeric
@ATTRIBUTE direction_4 numeric
@ATTRIBUTE acceleration_4 numeric
@ATTRIBUTE speed_8 numeric
@ATTRIBUTE direction_8 numeric
@ATTRIBUTE acceleration_8 numeric
@ATTRIBUTE speed_16 numeric
@ATTRIBUTE direction_16 numeric
@ATTRIBUTE acceleration_16 numeric

%The number after speed, direction denotes the step size that was used for the calculation.
%Acceleration was calculated between two adjacent samples of the already low pass filtered velocity

@DATA
0,70.04,774.14,1.00,1,1,1,0.00,0.00,0.00,2932.77,-0.08,0.00,1334.19,-0.11,0.00,173.59,-0.50,0.00,119.00,-2.79,0.00
14300,111.84,770.72,1.00,1,1,1,2932.77,-0.08,205088.94,1334.19,-0.11,111858.97,211.71,-2.76,106581.34,648.24,-3.08,55986.41,211.12,-3.05,7053.58
36500,118.44,768.78,1.00,1,1,1,310.00,-0.29,118466.01,211.71,-2.76,68653.75,173.59,-0.50,15723.24,926.04,-3.13,12617.27,20.57,-2.63,8670.80
50900,104.65,767.83,1.00,1,1,1,960.26,-3.07,87197.68,830.45,-3.11,44121.35,648.24,-3.08,55597.62,672.56,-3.14,17618.28,388.81,-0.02,28245.65
80100,82.26,767.50,1.00,1,1,1,766.85,-3.13,6807.13,1030.41,-3.13,6902.98,926.04,-3.13,9592.58,119.00,-2.79,19255.88,1010.48,-0.00,21292.31
93900,60.34,767.49,1.00,1,1,1,1588.17,-3.14,59526.91,1044.80,3.14,1291.28,672.56,-3.14,18384.29,211.12,-3.05,7309.14,1533.02,-0.00,37865.49
115300,45.48,767.59,1.00,1,1,1,694.42,3.13,41765.56,365.46,3.13,31745.66,382.60,3.14,13550.47,20.57,-2.63,8994.94,2205.34,-0.00,31416.70
144000,42.03,767.66,1.00,1,1,1,120.18,3.12,20008.71,160.75,0.01,18334.38,197.37,-0.00,20208.04,388.81,-0.02,14172.03,2884.67,-0.00,23670.64
158200,52.38,767.63,1.00,1,1,1,728.49,-0.00,59764.80,998.43,-0.01,58992.69,900.51,-0.01,49516.92,1010.48,-0.00,43784.19,1312.39,-0.03,110765.99
179200,77.18,767.48,1.00,2,2,2,1180.97,-0.01,21546.92,1807.25,-0.01,38515.33,1932.70,-0.01,49151.91,1533.02,-0.00,24883.03,1262.83,-0.02,2399.50
193200,115.63,767.20,1.00,2,2,2,2746.68,-0.01,111836.90,3074.57,-0.01,90522.96,2710.47,-0.00,55561.09,2205.34,-0.00,48022.67,1317.85,-0.01,3970.85
208000,165.72,766.85,1.00,2,2,2,3384.74,-0.01,43112.12,3800.61,0.00,49094.03,3277.76,-0.00,38330.26,2884.67,-0.00,45901.85,1427.98,-0.01,7452.53
222200,225.85,767.34,1.00,1,1,1,4234.27,0.01,59962.90,3438.15,0.00,25528.11,3740.79,-0.00,32608.14,3059.27,-0.01,12333.73,1641.23,-0.01,15019.23
244500,291.22,767.19,1.00,1,1,1,2931.28,-0.00,58453.42,3694.17,-0.00,11514.07,3819.14,-0.00,3519.58,3242.09,-0.01,8198.94,1775.67,-0.01,6029.31
259400,363.27,766.96,1.00,1,1,1,4835.96,-0.00,127831.37,4303.79,-0.01,40930.83,3403.34,-0.01,28039.07,2926.65,-0.01,21170.72,1922.52,-0.00,9867.12
273200,414.73,766.30,1.00,1,1,1,3729.30,-0.01,80248.42,3013.50,-0.03,93706.76,3201.75,-0.02,14650.95,2680.90,-0.01,17810.70,2182.57,0.00,18847.94
287100,446.70,764.36,1.00,1,1,1,2304.47,-0.06,102995.94,2100.51,-0.04,65706.11,2083.52,-0.02,80452.62,2331.24,-0.01,25157.11,2358.39,0.00,12660.14
301900,474.97,763.84,1.00,1,1,1,1909.85,-0.02,27324.48,1372.12,-0.01,49354.33,1541.06,-0.02,36655.39,2076.21,-0.01,17231.77,2411.34,0.01,3616.99
323300,496.37,763.94,1.00,1,1,1,1000.39,0.00,42524.02,1100.96,0.01,12737.36,1260.94,0.00,13177.46,1606.36,-0.00,21966.77,2401.20,0.01,751.30
338300,515.04,764.41,1.00,1,1,1,1244.57,0.03,16349.27,1121.56,0.02,1569.37,1070.38,0.02,12743.13,1481.66,0.01,8396.80,2396.55,0.02,671.61
352100,528.67,764.73,1.00,1,1,1,987.86,0.02,18602.83,1030.35,0.02,6612.61,1138.71,0.04,5272.49,1660.94,0.03,13136.10,2300.11,0.02,6997.36
366100,543.67,765.03,1.00,2,2,2,1072.24,0.02,6032.58,1152.55,0.05,9040.01,1422.98,0.04,20308.07,1704.52,0.04,3232.95,2023.98,0.02,19728.17
388300,570.33,766.90,1.00,2,2,2,1203.73,0.07,6445.99,1722.30,0.05,25664.96,2065.24,0.04,28931.00,1926.95,0.04,10037.27,1820.41,0.03,9176.78
402600,606.45,768.44,1.00,2,2,2,2527.76,0.04,92649.66,3236.95,0.04,105949.92,2214.90,0.04,10465.56,2139.12,0.04,14837.68,1606.06,0.03,14992.76
416500,661.54,770.43,1.00,3,3,3,3966.57,0.04,103521.64,2630.29,0.04,43647.79,2577.98,0.04,26122.05,2273.44,0.04,9663.49,1391.71,0.04,15436.64
445900,720.26,772.56,1.00,1,1,1,1998.51,0.04,66940.94,2210.05,0.05,14327.46,2723.48,0.04,4949.03,1986.76,0.05,9751.22,1203.13,0.04,6415.41
467000,773.02,775.81,1.00,1,1,1,2505.23,0.06,24164.33,2837.36,0.05,29735.24,2443.16,0.05,13286.49,1996.66,0.04,509.71,1086.46,0.04,5530.07
481400,820.85,777.86,1.00,1,1,1,3324.33,0.04,57002.27,2856.26,0.04,2577.54,1773.34,0.05,46516.93,1708.98,0.04,19978.84,1019.95,0.04,4618.71
495500,854.36,779.18,1.00,1,1,1,2378.24,0.04,67102.59,1014.92,0.04,130591.81,1413.85,0.04,25507.05,1180.38,0.04,37490.09,1019.48,0.04,91.08
531200,871.35,779.80,1.00,1,1,1,476.47,0.04,53270.94,591.68,0.04,11855.56,685.45,0.03,20406.11,719.21,0.04,12917.73,974.92,0.05,1257.88
545500,883.92,780.37,1.00,1,1,1,879.32,0.05,28174.21,106.97,-0.12,34016.37,18.79,-0.30,46693.13,239.59,0.01,33552.77,942.48,0.04,2293.12
559500,874.36,779.43,1.00,1,1,1,685.92,-3.04,111764.72,784.11,-3.08,63536.97,688.04,-3.08,50401.43,106.74,-3.01,24699.01,896.84,0.04,3260.32
581300,855.89,778.70,1.00,1,1,1,847.65,-3.10,7692.18,1318.67,-3.09,24524.92,1198.83,-3.09,23432.89,241.65,-3.07,6201.97,778.75,0.04,5417.07
595100,827.47,777.08,1.00,1,1,1,2062.86,-3.08,88074.33,1723.48,-3.09,29335.52,1070.98,-3.09,9267.95,323.11,-3.10,5954.50,665.71,0.04,8191.07
609600,807.19,776.15,1.00,1,1,1,1400.55,-3.10,45696.10,761.59,-3.09,66337.92,633.13,-3.08,30199.72,349.17,-3.09,1836.92,521.12,0.03,9982.99
623600,805.80,775.86,1.00,1,1,1,100.98,-2.94,92921.78,449.71,0.03,86515.36,40.08,0.46,47872.56,92.49,-3.11,18335.92,363.36,0.02,11273.79
638100,820.00,776.55,1.00,1,1,1,980.12,0.05,74483.37,664.31,0.10,15014.45,499.17,0.06,31903.27,233.55,0.03,22485.09,279.28,-0.01,5824.71
659900,829.80,778.23,1.00,1,1,1,456.24,0.17,24319.17,538.84,0.07,5798.92,876.96,0.06,17329.70,603.69,0.04,16980.04,275.84,-0.02,255.65
673800,839.18,777.94,1.00,2,2,2,675.38,-0.03,17680.69,1150.12,0.02,44064.25,995.49,0.05,8540.95,833.37,0.04,16526.03,278.45,-0.04,493.07
688300,862.45,779.00,1.00,2,2,2,1606.56,0.05,64452.54,1559.87,0.04,28289.63,1178.85,0.03,12725.04,829.60,0.03,326.15,349.41,-0.03,4906.20
702700,884.23,779.65,1.00,2,2,2,1512.96,0.03,6717.43,1201.86,0.03,24865.45,1166.66,0.03,848.99,774.64,0.02,3909.93,460.50,-0.01,7722.63
723800,905.10,780.44,1.00,1,1,1,989.56,0.04,24809.16,846.65,0.02,16851.34,790.87,0.02,17822.45,769.68,-0.00,757.26,591.80,-0.00,6227.66
738200,914.28,780.19,1.00,1,1,1,638.13,-0.03,24656.84,452.11,-0.03,27461.71,607.91,-0.02,12800.92,793.42,-0.01,1702.13,681.20,-0.00,6210.34
766800,924.53,779.94,1.00,1,1,1,358.45,-0.02,9778.87,438.27,-0.07,792.57,486.76,-0.05,4283.54,696.54,-0.02,3402.93,736.73,-0.00,1942.22
787900,936.02,778.76,1.00,1,1,1,547.23,-0.10,9093.25,517.34,-0.07,3748.77,532.83,-0.07,2219.77,629.58,-0.03,3181.44,754.90,-0.01,870.70
815900,949.87,778.16,1.00,1,1,1,495.20,-0.04,2154.65,644.72,-0.07,4549.56,610.87,-0.06,2788.18,583.77,-0.04,1664.09,796.07,-0.02,1494.55
829900,963.03,776.90,1.00,1,1,1,944.41,-0.10,32185.97,737.41,-0.06,6641.78,653.32,-0.04,3234.84,572.19,-0.04,827.00,773.30,-0.02,1627.34
852200,976.59,776.61,1.00,1,1,1,608.27,-0.02,15280.40,664.07,-0.01,3682.69,697.18,-0.03,1970.40,656.45,-0.04,3779.02,735.16,-0.02,1719.24
865900,986.94,776.78,1.00,2,2,2,755.21,0.02,10889.39,663.14,-0.01,386.23,614.36,-0.02,6094.56,736.57,-0.03,5878.40,658.29,-0.03,5613.71
894700,1004.77,776.25,1.00,1,1,1,619.59,-0.03,4836.55,578.86,-0.03,2948.52,706.55,-0.03,3204.51,825.05,-0.03,3072.34,605.09,-0.04,1861.07
916200,1016.04,775.92,1.00,1,1,1,524.31,-0.03,4431.85,758.49,-0.04,8358.58,818.57,-0.03,5210.92,752.45,-0.03,3383.59,552.51,-0.04,2445.86
930300,1031.76,775.22,1.00,1,1,1,1115.62,-0.04,41945.29,1235.79,-0.02,33863.91,981.76,-0.03,11574.88,779.77,-0.02,1943.88,568.20,-0.03,1153.53
945100,1051.75,775.03,1.00,1,1,1,1350.65,-0.01,16145.80,1258.78,-0.02,1558.94,938.98,-0.03,2899.11,691.26,-0.02,5980.25,555.06,-0.01,1098.82
959000,1067.87,774.38,1.00,1,1,1,1161.28,-0.04,13909.34,693.98,-0.05,40659.37,869.40,-0.02,5061.18,633.71,-0.03,4148.02,564.69,0.00,852.75
980100,1076.01,773.93,1.00,1,1,1,386.17,-0.05,36737.36,551.02,-0.02,6820.49,531.22,-0.02,16028.03,525.06,-0.02,5150.38,506.28,0.02,2794.05
994100,1087.21,774.02,1.00,1,1,1,800.12,0.01,29670.11,329.03,0.06,16023.87,279.59,-0.03,17975.40,455.53,0.00,5060.47,435.92,0.02,5030.72
1008100,1085.21,774.46,1.00,1,1,1,146.59,2.92,67398.10,59.66,-3.08,27763.87,108.88,0.05,12231.10,331.21,0.05,8974.34,311.00,0.02,8923.01
1022200,1085.54,773.92,1.00,1,1,1,45.37,-1.03,12828.79,64.77,-3.06,368.79,47.78,0.47,4837.13,273.71,0.12,4328.60,110.22,0.02,14239.94
1043600,1082.92,774.29,1.00,1,1,1,123.77,3.00,7308.76,129.56,0.33,9017.66,139.96,0.30,4356.59,220.93,0.19,2605.96,135.35,-3.10,11474.34
1058000,1089.93,775.42,1.00,1,1,1,493.27,0.16,42543.23,393.35,0.26,18353.04,273.65,0.26,9299.55,68.31,0.66,11324.41,414.98,-3.11,19419.99
1072100,1093.76,777.14,1.00,1,1,1,297.81,0.42,15595.38,458.36,0.24,4638.15,333.16,0.24,4260.55,116.60,2.86,11783.60,732.59,-3.11,22525.08
1086000,1102.39,778.47,1.00,1,1,1,628.65,0.15,25234.81,285.25,0.21,12473.29,90.18,0.76,18647.15,408.82,3.09,21315.73,980.50,-3.11,17836.78
1107800,1103.71,779.30,1.00,1,1,1,71.32,0.56,25868.67,233.47,3.03,23485.74,359.14,3.08,19514.63,787.13,3.14,17414.18,1173.93,-3.11,8875.54
1121800,1094.09,779.39,1.00,1,1,1,687.38,3.13,53453.01,1168.19,-3.12,66945.95,1069.42,-3.12,50878.60,1192.77,-3.12,29024.72,1141.41,-3.12,2433.97
1135900,1070.89,778.59,1.00,1,1,1,1646.05,-3.11,68071.94,2100.73,-3.10,66174.47,1889.41,-3.10,58182.13,1677.99,-3.10,34437.25,116.60,2.86,73087.62
1150900,1033.01,776.87,1.00,1,1,1,2528.19,-3.10,58828.64,2441.85,-3.09,22760.88,2209.14,-3.10,21329.96,2035.29,-3.10,23824.02,408.82,3.09,19752.58
1172600,981.38,774.33,1.00,2,2,2,2382.17,-3.09,6741.61,2272.25,-3.09,7817.67,2743.37,-3.09,24619.45,2416.23,-3.10,17555.03,787.13,3.14,17494.43
1200900,919.53,771.27,1.00,3,3,3,2187.96,-3.09,6862.41,3004.35,-3.09,25869.56,2764.35,-3.10,762.04,2110.13,-3.11,10828.39,1192.77,-3.12,14358.52
1215000,854.14,768.21,1.00,1,1,1,4642.92,-3.09,174111.43,3447.86,-3.10,31474.41,2852.22,-3.10,6358.00,2743.37,-3.09,44975.90,1677.99,-3.10,34437.25
1236900,795.52,765.92,1.00,1,1,1,2678.47,-3.10,89709.35,2672.83,-3.11,35445.37,2010.87,-3.12,38481.44,2764.35,-3.10,984.74,2035.29,-3.10,16317.82
1250900,758.22,765.45,1.00,1,1,1,2664.58,-3.13,5164.01,800.30,3.07,134122.21,2672.83,-3.11,47307.36,2852.22,-3.10,6403.41,2416.23,-3.10,27210.29
1279500,761.51,768.19,1.00,1,1,1,149.44,0.69,97279.20,149.44,0.69,31969.69,800.30,3.07,65654.23,2010.87,-3.12,29466.56,2110.13,-3.11,10714.80
