@RELATION gaze_labels

%@METADATA width_px 1920
%@METADATA height_px 1080
%@METADATA width_mm 540.00
%@METADATA height_mm 254.00
%@METADATA distance_mm 620.00


@ATTRIBUTE time INTEGER
@ATTRIBUTE x NUMERIC
@ATTRIBUTE y NUMERIC
@ATTRIBUTE confidence NUMERIC
@ATTRIBUTE handlabeller1 INTEGER
@ATTRIBUTE handlabeller2 INTEGER
@ATTRIBUTE handlabeller_final INTEGER
@ATTRIBUTE speed_1 numeric
@ATTRIBUTE direction_1 numeric
@ATTRIBUTE acceleration_1 numeric
@ATTRIBUTE speed_2 numeric
@ATTRIBUTE direction_2 numeric
@ATTRIBUTE acceleration_2 numeric
@ATTRIBUTE speed_4 numeric
@ATTRIBUTE direction_4 numeric
@ATTRIBUTE acceleration_4 numeric
@ATTRIBUTE speed_8 numeric
@ATTRIBUTE direction_8 numeric
@ATTRIBUTE acceleration_8 numeric
@ATTRIBUTE speed_16 numeric
@ATTRIBUTE direction_16 numeric
@ATTRIBUTE acceleration_16 numeric

%The number after speed, direction denotes the step size that was used for the calculation.
%Acceleration was calculated between two adjacent samples of the already low pass filtered velocity

@DATA
0,153.01,766.67,1.00,1,1,1,0.00,0.00,0.00,8770.35,0.05,0.00,3907.27,0.05,0.00,1810.18,0.07,0.00,903.06,0.08,0.00
14100,276.51,772.81,1.00,1,1,1,8770.35,0.05,622010.62,3907.27,0.05,344904.93,808.48,0.10,219840.66,99.00,2.66,134390.23,434.20,0.09,33257.08
42700,319.60,775.75,1.00,1,1,1,1509.93,0.07,253871.72,808.48,0.10,108382.98,1810.18,0.07,35042.19,782.83,3.13,24347.18,612.82,0.05,6280.52
63800,316.50,776.74,1.00,1,1,1,154.00,2.83,78390.94,744.76,3.10,73443.30,99.00,2.66,89805.80,651.87,-3.14,6217.26,1207.74,0.03,28207.02
77800,293.48,776.74,1.00,1,1,1,1644.80,3.14,107060.01,1606.03,-3.14,61615.31,782.83,3.13,49737.81,903.06,0.08,110989.43,1867.50,0.02,47133.60
93000,269.61,776.46,1.00,1,1,1,1570.38,-3.13,5060.16,813.61,-3.13,52134.46,651.87,-3.14,8630.54,434.20,0.09,30850.31,2559.79,0.02,45545.94
121800,257.68,776.35,1.00,1,1,1,414.20,-3.13,40145.20,92.53,3.09,25043.53,14.19,0.78,22989.46,612.82,0.05,6236.91,3428.19,0.02,30154.48
142800,265.01,776.68,1.00,1,1,1,349.18,0.04,36346.02,1043.23,0.03,54070.87,958.31,0.03,45138.54,1207.74,0.03,28341.34,3677.30,0.02,11882.75
156900,294.28,777.53,1.00,2,2,2,2076.96,0.03,122540.37,2807.01,0.03,125092.28,2168.87,0.03,85856.76,1867.50,0.02,46799.32,2112.94,0.03,110969.96
171100,344.41,778.86,1.00,2,2,2,3531.93,0.03,102463.98,3272.52,0.03,32784.83,3502.90,0.03,93946.71,2559.79,0.02,48753.41,1703.98,0.02,28822.80
192700,411.40,780.54,1.00,3,3,3,3101.99,0.03,19906.25,4054.56,0.02,36206.52,4166.40,0.02,30724.89,3428.19,0.02,40205.97,1568.77,0.01,6293.12
206800,489.12,782.34,1.00,3,3,3,5513.82,0.02,171052.80,5305.28,0.02,88725.68,4511.11,0.02,24447.94,3677.30,0.02,17697.71,1596.15,0.01,2013.91
220800,560.45,783.23,1.00,1,1,1,5095.41,0.01,30158.73,5085.06,0.02,15730.61,4986.51,0.02,33996.94,3596.59,0.01,5848.55,1673.05,0.00,5493.20
235200,633.51,784.99,1.00,1,1,1,5075.17,0.02,4333.11,4679.75,0.01,28177.91,3851.43,0.01,78869.20,3264.21,0.01,23112.21,1798.23,0.00,8693.10
250000,697.09,785.20,1.00,1,1,1,4295.52,0.00,53085.48,2873.36,-0.01,122174.36,3029.86,-0.00,55542.05,2695.12,-0.00,38488.21,2066.53,0.01,18132.41
271000,736.37,784.23,1.00,1,1,1,1871.52,-0.02,115491.21,1654.82,-0.04,58097.56,2012.86,-0.02,48508.54,2029.54,-0.01,31719.40,2226.97,0.01,7653.58
285000,754.97,783.16,1.00,1,1,1,1330.26,-0.06,38836.57,915.20,-0.09,53054.03,825.78,-0.09,84988.76,1458.95,-0.02,40777.39,2213.04,0.01,1066.96
299000,761.90,781.91,1.00,1,1,1,502.82,-0.18,59524.59,84.93,-1.64,65537.99,222.34,-0.37,43947.54,961.41,-0.05,35621.75,2234.89,0.02,1668.17
320100,754.75,780.18,1.00,1,1,1,348.15,-2.90,39492.91,345.90,-2.92,15689.07,112.25,-2.52,14161.52,712.84,-0.05,11780.92,2185.52,0.02,2342.96
335200,749.69,779.09,1.00,1,1,1,342.81,-2.93,658.84,195.26,-2.92,9976.19,84.98,-2.50,1810.77,783.60,-0.01,5205.88,1955.77,0.02,15216.65
350100,749.04,778.88,1.00,1,1,1,45.95,-2.83,19943.23,267.61,-0.07,30742.82,579.38,0.00,43577.90,977.99,0.02,13156.27,1688.48,0.02,17941.53
364300,757.46,778.57,1.00,1,1,1,593.40,-0.04,44838.20,1384.78,0.03,78793.08,1357.73,0.05,54894.55,1321.81,0.04,24268.63,1481.84,0.02,14553.19
378800,788.76,780.22,1.00,2,2,2,2161.63,0.05,108381.48,2252.95,0.06,59960.45,1867.49,0.05,35155.83,1715.28,0.05,27145.99,1291.67,0.02,13116.61
399800,837.30,783.37,1.00,2,2,2,2316.07,0.06,7467.67,2146.37,0.05,5110.03,2475.42,0.06,28961.70,1892.13,0.05,8426.09,1213.39,0.03,3729.87
428500,895.28,786.01,1.00,3,3,3,2022.36,0.05,10335.52,2657.83,0.06,17821.11,2559.85,0.06,2943.25,1877.75,0.05,501.70,1146.33,0.03,2341.13
443100,952.21,789.70,1.00,1,1,1,3907.36,0.06,129161.04,3261.23,0.06,41333.15,2323.66,0.05,16187.73,1907.58,0.05,2046.34,1151.49,0.03,575.56
457800,990.67,791.54,1.00,1,1,1,2619.72,0.05,87668.91,1929.43,0.05,90613.20,1887.81,0.05,29651.23,1744.36,0.05,11109.29,1344.27,0.04,13117.16
479800,1022.94,793.13,1.00,1,1,1,1468.19,0.05,52342.51,1095.69,0.05,37897.23,1349.10,0.04,24511.43,1562.28,0.04,8303.09,1577.05,0.04,10581.73
508600,1046.27,794.27,1.00,1,1,1,811.14,0.05,22814.07,858.54,0.02,8281.76,999.82,0.03,12134.67,1313.11,0.04,8653.89,1820.66,0.04,8459.21
523200,1060.19,793.97,1.00,1,1,1,953.49,-0.02,10619.91,864.23,-0.01,1730.25,791.11,-0.00,14411.32,981.81,0.03,22702.09,1972.06,0.04,10372.29
544300,1077.12,794.09,1.00,1,1,1,802.60,0.01,7243.05,709.38,-0.04,7418.17,604.81,-0.04,8919.21,989.49,0.02,460.35,1974.05,0.04,112.58
558700,1085.35,793.09,1.00,1,1,1,575.91,-0.12,16844.96,289.31,-0.16,29440.68,526.29,-0.02,5532.45,1258.78,0.02,18701.09,1822.24,0.04,10544.72
573400,1085.43,792.73,1.00,2,2,2,24.86,-1.36,38660.50,302.82,0.04,4179.37,974.08,0.01,30480.27,1750.86,0.02,33476.07,1594.08,0.04,15521.60
587700,1094.13,793.46,1.00,2,2,2,610.32,0.08,42492.19,1683.12,0.04,96525.02,1834.80,0.03,60244.54,2052.07,0.03,21082.68,1175.26,0.04,29290.27
601700,1133.03,794.46,1.00,3,3,3,2779.74,0.03,155049.64,3100.56,0.03,101246.46,2914.33,0.03,77109.75,2286.83,0.03,16790.36,729.53,0.04,31838.28
622800,1202.90,797.07,1.00,1,1,1,3313.50,0.04,25352.30,3893.09,0.03,37563.88,3587.89,0.03,31922.37,2142.70,0.04,6863.21,236.27,0.05,23379.12
637300,1271.56,798.66,1.00,1,1,1,4736.74,0.02,98231.43,4177.73,0.03,19635.00,3460.89,0.04,8867.81,1912.68,0.04,15881.77,199.40,3.07,29984.88
651800,1323.99,800.92,1.00,1,1,1,3619.14,0.04,77287.78,2923.29,0.05,86638.98,2447.29,0.04,69906.06,1394.41,0.04,35742.56,540.70,-3.14,23604.89
665900,1355.06,802.94,1.00,1,1,1,2208.03,0.06,100171.97,1046.19,0.07,133153.69,911.87,0.08,108977.22,437.80,0.08,67871.71,887.73,-3.09,24749.63
687600,1361.35,803.63,1.00,1,1,1,291.50,0.11,88334.52,720.25,3.12,81322.61,817.13,3.13,79600.41,903.76,-3.14,61786.25,1087.24,-3.08,9195.66
701200,1329.64,803.39,1.00,2,2,2,2331.57,-3.13,192773.71,3214.21,-3.12,183446.23,2605.20,-3.12,131518.64,2161.92,-3.14,92512.51,1231.80,-3.09,10668.46
715400,1272.02,801.28,1.00,2,2,2,4060.17,-3.10,121898.65,4940.84,-3.11,121605.51,4322.72,-3.12,120952.57,2782.82,-3.12,43811.56,1219.99,-3.12,2446.73
729700,1188.90,798.84,1.00,2,2,2,5815.41,-3.11,122769.54,5185.92,-3.12,17290.91,5233.34,-3.13,63772.03,3481.74,-3.10,49181.34,1407.16,3.14,13322.94
751100,1086.95,796.49,1.00,3,3,3,4765.33,-3.12,49093.39,5469.78,-3.14,14373.73,4252.10,-3.12,45868.96,4039.77,-3.09,26098.56,1722.36,3.12,14802.57
765100,995.27,798.14,1.00,1,1,1,6549.49,3.12,128489.94,3577.33,-3.13,135236.38,4140.14,-3.09,12094.02,4067.80,-3.10,2138.65,1982.64,3.10,18713.91
800500,910.25,793.57,1.00,1,1,1,2405.12,-3.09,117348.98,3201.15,-3.03,13887.37,3809.76,-3.07,9572.15,3263.01,-3.11,22802.96,2209.85,3.09,6428.00
814700,837.45,780.70,1.00,1,1,1,5206.07,-2.97,199546.05,4241.15,-2.99,73991.22,3115.35,-3.05,49106.37,2848.71,-3.14,29644.95,2501.06,3.09,20507.63
828600,792.42,775.68,1.00,1,1,1,3259.54,-3.03,141317.56,2968.08,-3.09,95199.25,2188.48,-3.10,67164.96,2392.63,3.11,33645.72,2820.78,3.10,23015.74
842900,753.85,776.61,1.00,1,1,1,2698.06,3.12,48216.67,1081.19,2.96,135149.71,1473.68,3.00,55034.59,1839.96,3.06,39295.25,2809.17,3.11,1481.68
878800,739.08,785.66,1.00,4,4,4,482.79,2.59,63879.86,735.07,2.57,13508.73,1100.33,2.74,13909.77,1630.42,2.98,7015.21,2777.35,3.11,1104.18
893400,722.57,796.59,1.00,4,4,4,1355.78,2.56,59825.54,1240.45,2.42,36060.41,821.49,2.37,30982.95,1526.32,2.88,12818.09,2622.20,3.13,11052.30
907900,712.01,809.55,1.00,4,4,4,1152.84,2.25,29501.31,1035.93,2.11,28097.29,1153.10,2.48,24041.73,1673.55,2.88,10154.00,2418.81,-3.13,14486.14
922100,707.40,822.16,1.00,4,4,4,945.51,1.92,28397.87,1084.63,2.53,31656.34,1621.56,2.74,41484.43,1663.32,2.91,4070.03,2130.82,-3.10,20899.52
943300,680.55,831.56,1.00,4,4,4,1341.76,2.80,49105.22,2320.83,2.96,66319.15,2410.36,2.96,42350.30,2178.16,3.00,25639.45,1916.24,-3.08,10403.81
957100,627.55,837.10,1.00,4,4,4,3861.17,3.04,186531.95,4246.03,3.09,142736.22,2781.87,3.09,36268.93,2333.07,3.10,19850.53,1580.07,-3.07,24375.20
971300,561.82,837.77,1.00,4,4,4,4629.24,3.13,60923.35,3265.91,-3.11,72600.91,3425.75,-3.11,49493.16,2457.37,-3.08,18894.39,1311.07,-3.05,18998.28
992800,511.03,833.18,1.00,4,4,4,2372.15,-3.05,106106.29,2810.20,-3.00,25863.39,3200.71,-3.00,19809.44,2521.42,-2.99,10825.49,1054.78,-3.03,11990.73
1007000,462.46,823.88,1.00,4,4,4,3482.17,-2.95,80712.12,3176.59,-2.85,40664.89,2643.22,-2.86,48829.57,2321.78,-2.90,21323.73,957.40,-2.99,7387.16
1021100,424.84,807.62,1.00,4,4,4,2906.82,-2.73,63959.34,2525.12,-2.65,62032.08,2382.40,-2.69,35457.82,1821.46,-2.76,40760.50,858.71,-2.95,7517.91
1035200,399.79,790.07,1.00,1,1,1,2169.06,-2.53,63587.47,1724.98,-2.38,69370.97,1481.55,-2.39,74881.12,1203.92,-2.50,51615.68,861.05,-2.92,2078.71
1049800,389.13,773.33,1.00,1,1,1,1359.37,-2.14,71966.31,881.07,-1.78,76129.26,928.95,-1.81,59636.07,803.55,-2.01,42447.15,1088.33,-2.91,15578.71
1070900,393.23,759.31,1.00,1,1,1,692.39,-1.29,49415.67,900.69,-0.84,38467.33,917.42,-0.87,39615.32,639.34,-1.15,29467.18,2321.78,-2.90,58463.26
1085500,410.71,749.49,1.00,1,1,1,1372.96,-0.51,68677.28,1626.33,-0.31,65505.37,1322.77,-0.34,48296.03,756.68,-0.58,28005.85,1821.46,-2.76,39364.59
1099900,438.08,744.71,1.00,1,1,1,1929.60,-0.17,54307.44,2052.80,-0.08,42183.02,1603.61,-0.10,31108.11,639.70,-0.37,13014.40,1203.92,-2.50,50540.36
1114200,469.45,744.94,1.00,1,1,1,2193.53,0.01,31768.12,1640.32,0.07,34768.44,1491.11,0.05,18189.44,217.37,-0.73,30978.05,803.55,-2.01,43337.65
1135400,496.15,749.02,1.00,1,1,1,1274.32,0.15,44831.09,1073.66,0.25,28967.12,622.98,0.26,42034.33,1603.61,-0.10,67607.77,639.34,-1.15,29328.18
1149800,506.46,754.49,1.00,2,2,2,810.11,0.49,39960.60,320.87,2.49,90104.69,658.30,3.02,87369.66,1491.11,0.05,18063.12,756.68,-0.58,28394.82
1178200,485.21,757.31,1.00,1,1,1,754.85,3.01,52480.77,1859.97,-3.11,57138.68,320.87,2.49,14581.75,622.98,0.26,31377.74,639.70,-0.37,6598.85
1199800,413.50,751.66,1.00,1,1,1,3329.93,-3.06,120210.61,3329.93,-3.06,68279.63,1859.97,-3.11,75126.79,658.30,3.02,58246.44,217.37,-0.73,20508.62
