@RELATION gaze_labels

%@METADATA width_px 1920
%@METADATA height_px 1080
%@METADATA width_mm 540.00
%@METADATA height_mm 254.00
%@METADATA distance_mm 620.00


@ATTRIBUTE time INTEGER
@ATTRIBUTE x NUMERIC
@ATTRIBUTE y NUMERIC
@ATTRIBUTE confidence NUMERIC
@ATTRIBUTE handlabeller1 INTEGER
@ATTRIBUTE handlabeller2 INTEGER
@ATTRIBUTE handlabeller_final INTEGER
@ATTRIBUTE speed_1 numeric
@ATTRIBUTE direction_1 numeric
@ATTRIBUTE acceleration_1 numeric
@ATTRIBUTE speed_2 numeric
@ATTRIBUTE direction_2 numeric
@ATTRIBUTE acceleration_2 numeric
@ATTRIBUTE speed_4 numeric
@ATTRIBUTE direction_4 numeric
@ATTRIBUTE acceleration_4 numeric
@ATTRIBUTE speed_8 numeric
@ATTRIBUTE direction_8 numeric
@ATTRIBUTE acceleration_8 numeric
@ATTRIBUTE speed_16 numeric
@ATTRIBUTE direction_16 numeric
@ATTRIBUTE acceleration_16 numeric

%The number after speed, direction denotes the step size that was used for the calculation.
%Acceleration was calculated between two adjacent samples of the already low pass filtered velocity

@DATA
0,72.43,786.01,1.00,1,1,1,0.00,0.00,0.00,1073.96,-0.16,0.00,623.88,-0.14,0.00,288.16,-0.12,0.00,86.19,-3.13,0.00
14600,87.92,783.55,1.00,1,1,1,1073.96,-0.16,73559.04,623.88,-0.14,30841.65,214.55,-0.07,28091.64,72.90,2.93,24713.91,207.30,3.06,8339.54
37000,95.29,782.77,1.00,1,1,1,330.82,-0.11,33204.44,214.55,-0.07,18309.73,288.16,-0.12,3335.78,370.95,3.02,13323.98,214.40,3.05,336.33
51500,95.81,782.99,1.00,1,1,1,39.56,0.40,20472.83,148.32,2.92,24953.35,72.90,2.93,24884.35,467.76,3.05,6719.05,105.20,3.01,7542.51
65500,91.17,783.71,1.00,1,1,1,336.00,2.99,26444.32,447.96,3.02,21483.87,370.95,3.02,21318.37,86.19,-3.13,27297.13,128.14,0.06,16593.92
79700,83.28,784.55,1.00,1,1,1,558.58,3.04,15740.33,593.85,3.05,10338.84,467.76,3.05,6861.00,207.30,3.06,8574.45,511.77,-0.00,27037.70
94100,74.25,785.27,1.00,1,1,1,628.74,3.06,4996.80,483.89,3.07,7686.05,471.32,3.07,706.62,214.40,3.05,523.18,879.97,-0.02,25576.34
115000,66.24,785.72,1.00,1,1,1,384.14,3.09,11716.04,371.13,3.10,5415.73,346.31,3.09,5993.58,105.20,3.01,5232.84,1245.64,-0.01,17503.49
129000,61.31,785.86,1.00,1,1,1,351.81,3.11,2433.89,173.25,-3.13,14165.95,87.88,3.14,18469.72,128.14,0.06,16593.92,697.60,-0.00,39145.34
143000,61.39,785.69,1.00,1,1,1,13.10,-1.16,25536.35,190.89,-0.08,25983.36,257.10,-0.06,24633.94,511.77,-0.00,27423.95,732.36,0.01,2543.14
164500,68.07,785.29,1.00,1,1,1,311.26,-0.06,14213.90,595.35,-0.04,18822.81,724.37,-0.03,21742.83,879.97,-0.02,17130.20,778.19,0.01,2140.79
178600,82.56,784.76,1.00,1,1,1,1028.63,-0.04,50885.66,1396.40,-0.02,56838.64,1357.53,-0.02,44912.19,1245.64,-0.01,25944.88,828.07,0.01,3550.84
192700,107.44,784.62,1.00,2,2,2,1764.48,-0.01,52272.07,2306.65,-0.01,64569.68,1944.60,-0.02,41635.97,1316.00,-0.00,4993.84,923.63,0.00,6779.17
207200,148.53,784.33,1.00,2,2,2,2833.85,-0.01,73750.04,2376.42,-0.02,5004.55,2048.91,-0.00,7486.07,1467.05,-0.00,10417.54,1032.98,0.00,7541.23
228500,192.51,783.34,1.00,2,2,2,2065.14,-0.02,36131.09,1900.63,0.00,22415.06,1693.77,0.00,16674.85,1517.07,0.00,2367.10,1144.20,-0.00,5227.78
256900,242.99,784.66,1.00,1,1,1,1778.23,0.03,10621.87,1312.33,0.02,20735.09,1537.53,0.00,5501.78,1491.17,-0.00,914.75,1288.65,-0.00,5087.81
292500,276.48,785.02,1.00,1,1,1,940.72,0.01,23532.08,1178.05,0.00,3819.52,1261.89,0.02,7757.93,1488.10,0.00,98.33,1386.55,-0.00,2750.03
307100,302.13,784.83,1.00,1,1,1,1756.90,-0.01,55926.10,1187.05,0.01,772.19,1056.21,-0.00,14148.29,1405.28,0.01,5695.86,1540.43,-0.00,10544.22
335600,327.64,785.46,1.00,1,1,1,895.35,0.02,30263.30,934.39,-0.01,8880.29,1229.92,-0.00,6095.74,1351.52,0.01,1887.02,1743.56,0.00,7129.26
357300,349.03,784.58,1.00,1,1,1,986.83,-0.04,5098.08,1280.89,-0.02,15975.67,1237.20,0.01,767.74,1327.48,-0.00,1250.07,1845.83,0.00,4719.04
372000,374.26,784.74,1.00,1,1,1,1715.87,0.01,49775.65,1772.79,0.02,33693.97,1501.01,-0.01,18002.42,1467.10,-0.01,9502.17,1832.94,0.00,879.06
385700,399.37,785.73,1.00,2,2,2,1834.36,0.04,9640.63,1788.33,0.00,2863.77,1806.98,-0.00,22334.35,1624.76,0.00,11526.73,1789.60,0.01,3178.94
399900,424.15,784.87,1.00,2,2,2,1746.32,-0.03,11187.83,1842.50,-0.03,5790.64,1763.12,-0.01,3117.37,2043.49,0.00,29488.70,1732.61,0.01,4038.58
414100,451.67,784.09,1.00,2,2,2,1938.69,-0.03,13568.87,1743.61,-0.02,7205.47,2099.36,-0.01,23679.95,2366.64,0.01,22781.18,1653.73,0.01,5555.94
435700,486.56,783.83,1.00,1,1,1,1615.53,-0.01,15061.96,2303.87,0.01,26051.07,2581.03,0.01,22341.47,2316.02,0.01,2344.06,1582.29,0.01,3317.52
449900,534.14,784.87,1.00,1,1,1,3351.52,0.02,122346.60,3612.15,0.02,92157.72,2856.67,0.02,19496.59,2323.89,0.01,555.27,1432.37,0.02,10560.04
464800,591.66,785.93,1.00,1,1,1,3860.55,0.02,34172.34,3536.86,0.02,5057.71,2864.13,0.02,685.68,2241.35,0.01,5606.77,1349.55,0.02,5560.10
479000,637.04,787.01,1.00,1,1,1,3197.25,0.02,46730.95,2245.75,0.02,90929.14,2548.81,0.02,22207.88,2053.07,0.02,13286.08,1303.71,0.02,3253.43
500000,670.70,787.19,1.00,1,1,1,1602.51,0.01,75966.98,1729.66,0.02,24576.54,1894.36,0.02,31167.30,1710.70,0.03,16335.20,1224.91,0.02,3752.27
514100,697.74,788.13,1.00,1,1,1,1919.50,0.03,22783.15,1457.57,0.04,19444.69,1233.11,0.03,46898.84,1219.58,0.04,34838.32,1134.10,0.02,6445.87
528300,711.91,788.82,1.00,1,1,1,998.95,0.05,64841.41,621.98,0.06,58859.74,565.75,0.09,47157.29,650.60,0.06,40102.84,1113.82,0.02,1437.57
542600,715.44,789.19,1.00,1,1,1,247.94,0.10,52553.07,140.08,2.78,52595.18,110.43,2.76,46574.09,295.38,0.12,24891.92,1090.48,0.02,1646.33
564700,707.14,790.61,1.00,1,1,1,381.07,2.97,28207.67,675.23,3.08,24556.86,575.28,3.08,21332.50,139.00,0.24,7166.08,996.57,0.03,4253.10
578700,691.11,790.76,1.00,1,1,1,1144.68,3.13,55067.05,1146.00,3.12,33747.61,633.66,3.09,4196.87,72.04,0.32,4814.31,863.11,0.03,9532.66
592900,674.83,791.23,1.00,1,1,1,1147.41,3.11,1584.76,580.95,3.10,39807.34,301.57,3.10,23390.13,103.70,0.15,2452.67,689.25,0.03,12244.12
607100,674.63,791.39,1.00,1,1,1,18.12,2.46,79790.50,373.37,0.01,67183.77,208.87,0.03,35920.45,228.03,0.05,8814.78,535.09,0.03,10856.45
628200,688.01,791.42,1.00,1,1,1,634.08,0.00,30724.13,653.49,-0.00,13280.83,658.69,-0.00,21329.66,407.60,0.01,8530.12,450.65,0.04,4009.85
657500,707.56,791.34,1.00,1,1,1,667.47,-0.00,1146.63,891.36,-0.01,8121.89,931.12,-0.01,9298.13,570.66,0.01,5566.20,373.36,0.05,2646.27
671500,726.60,791.01,1.00,2,2,2,1360.00,-0.02,49475.15,1422.11,-0.01,37910.83,892.09,0.00,2822.78,721.26,-0.00,10763.02,362.32,0.06,855.39
686000,748.09,790.94,1.00,2,2,2,1482.15,-0.00,8541.29,892.81,0.01,36537.32,935.79,0.00,3013.86,723.09,-0.00,159.36,386.01,0.08,1659.20
721100,770.88,791.47,1.00,1,1,1,649.46,0.02,23734.75,656.45,0.01,6734.41,783.36,0.00,4342.91,706.35,0.00,499.84,453.75,0.06,1935.27
735600,780.65,791.39,1.00,1,1,1,673.59,-0.01,2167.56,600.12,-0.02,4122.85,531.14,0.00,17394.61,678.72,0.02,2121.08,566.55,0.07,7780.08
750700,788.64,791.15,1.00,1,1,1,529.65,-0.03,9577.79,358.20,-0.02,16022.96,440.94,0.02,5988.90,621.18,0.05,3977.78,675.66,0.06,7234.41
771500,793.50,791.07,1.00,1,1,1,233.74,-0.02,14228.78,308.62,0.07,2845.22,369.66,0.10,3756.00,536.81,0.08,4164.94,741.20,0.05,3152.93
786100,799.54,791.94,1.00,1,1,1,417.57,0.14,13030.48,390.89,0.23,6812.65,424.52,0.16,4158.78,510.71,0.11,2040.15,761.91,0.06,1419.03
800300,804.46,793.68,1.00,1,1,1,367.35,0.34,6507.30,570.00,0.22,12620.70,549.64,0.19,8861.60,564.30,0.14,3914.92,802.55,0.05,2863.38
814800,815.50,795.52,1.00,1,1,1,772.23,0.16,28653.92,677.08,0.17,7712.33,584.60,0.18,2417.13,623.42,0.14,4077.81,774.43,0.05,1940.19
836300,828.48,797.77,1.00,2,2,2,612.92,0.17,7413.09,596.82,0.16,3747.67,759.48,0.16,8167.12,768.93,0.13,6785.33,710.65,0.06,2967.81
850600,836.60,798.87,1.00,2,2,2,572.87,0.13,3202.91,862.88,0.15,18606.77,821.20,0.13,4615.17,831.78,0.11,4522.61,661.64,0.06,3439.13
865000,852.96,801.56,1.00,3,3,3,1151.04,0.16,40183.84,1101.51,0.11,16787.74,1014.17,0.09,13668.85,939.59,0.08,7713.44,646.06,0.07,1093.04
879300,868.01,802.46,1.00,1,1,1,1054.58,0.06,10426.33,1163.35,0.04,7107.01,1078.97,0.07,4830.80,944.55,0.06,1325.29,595.78,0.07,3521.77
894700,887.48,803.04,1.00,1,1,1,1264.61,0.03,13829.44,1063.04,0.03,6609.99,1123.59,0.02,4344.13,925.07,0.04,1757.78,497.28,0.08,6398.01
915800,906.80,803.52,1.00,1,1,1,915.92,0.02,16527.08,1090.50,0.00,1856.93,1071.64,0.00,2658.88,814.75,0.03,5233.12,438.37,0.08,2794.11
929900,925.86,803.08,1.00,1,1,1,1352.51,-0.02,31192.25,1083.84,-0.03,2529.10,845.95,-0.02,16064.08,731.15,0.01,6054.87,367.41,0.08,5033.37
943900,937.24,802.57,1.00,1,1,1,813.38,-0.04,38544.71,544.81,-0.07,38553.51,544.53,-0.04,21547.44,571.34,-0.01,11438.69,329.10,0.07,2743.54
958400,941.36,802.04,1.00,1,1,1,286.25,-0.13,36461.31,114.10,-0.08,29704.66,330.36,-0.03,14772.39,274.66,-0.04,20485.31,308.61,0.05,1512.23
979100,941.24,802.26,1.00,1,1,1,12.01,2.04,14162.30,157.05,0.08,2321.66,65.29,-0.13,12825.73,81.39,-0.17,9383.24,300.83,0.02,508.79
993400,946.83,802.50,1.00,1,1,1,391.22,0.04,27714.43,9.06,-1.06,10737.15,155.06,-3.08,15353.07,106.73,-3.07,13057.66,312.76,-0.01,1058.45
1007700,941.37,802.03,1.00,1,1,1,383.43,-3.06,54158.98,374.39,-3.08,26458.99,294.09,-3.11,9730.13,155.87,-3.13,3480.39,354.82,-0.02,2947.39
1043200,928.23,801.29,1.00,1,1,1,370.79,-3.08,462.84,465.06,-3.12,2604.70,404.97,-3.12,3126.38,150.42,-3.13,153.88,386.19,-0.02,883.73
1057600,918.17,801.54,1.00,1,1,1,698.76,3.12,22957.05,441.28,3.11,2303.70,296.47,3.13,7557.09,119.97,-3.06,2210.08,457.44,-0.01,4947.98
1086300,909.22,801.85,1.00,1,1,1,312.11,3.11,13473.38,129.75,3.03,10874.79,145.83,3.10,5254.82,31.69,-2.80,3127.63,505.34,-0.01,1669.95
1107800,911.69,802.24,1.00,1,1,1,116.62,0.16,19868.65,206.97,-0.01,15643.61,55.66,-0.18,9354.17,184.87,-0.04,9979.31,535.02,-0.01,1381.49
1122400,916.69,801.77,1.00,1,1,1,343.60,-0.09,15918.19,384.31,-0.14,12386.72,515.72,-0.03,31557.63,502.66,-0.00,21783.23,585.14,0.00,3454.93
1136100,922.47,800.76,1.00,2,2,2,428.32,-0.17,6566.13,916.73,-0.04,39100.19,944.70,-0.03,31313.96,834.06,0.00,24190.17,642.43,-0.00,4182.36
1150200,942.16,800.82,1.00,2,2,2,1396.25,0.00,69321.05,1398.88,-0.00,34322.33,1315.19,-0.01,26314.97,1253.37,-0.00,29739.44,630.35,-0.01,891.30
1171200,971.57,800.74,1.00,3,3,3,1400.65,-0.00,440.17,1628.59,0.01,10949.61,1797.48,0.01,22990.35,1418.95,-0.01,7887.59,635.52,-0.01,246.87
1185600,999.81,801.19,1.00,1,1,1,1961.17,0.02,38984.73,2290.22,0.01,45956.14,1990.14,0.00,13383.32,1532.75,0.00,7948.16,730.19,-0.01,6574.30
1199600,1036.60,801.61,1.00,1,1,1,2628.68,0.01,47685.06,2437.66,0.00,10663.29,1883.92,0.00,7589.19,1574.95,0.01,3063.90,749.89,-0.01,1417.00
1214200,1069.52,801.43,1.00,1,1,1,2254.65,-0.01,25770.69,1566.24,-0.01,59705.67,1747.34,0.01,9382.66,1434.66,0.00,9616.51,790.74,-0.01,2798.67
1235900,1093.46,801.15,1.00,1,1,1,1103.09,-0.01,53069.44,1191.29,0.02,17360.51,1356.89,0.01,17994.16,1205.11,0.00,10579.35,773.33,-0.01,803.73
1249700,1111.81,802.22,1.00,1,1,1,1331.83,0.06,17675.66,1090.87,0.03,7393.81,885.19,0.00,34184.15,981.76,-0.01,16208.85,801.01,-0.01,2011.98
1264400,1124.53,802.23,1.00,1,1,1,865.52,0.00,32002.71,513.92,-0.05,39478.19,526.33,-0.01,24416.02,657.29,-0.03,22088.36,741.46,-0.01,4051.52
1278900,1126.79,801.49,1.00,1,1,1,164.34,-0.32,49044.18,90.25,-0.42,29731.93,226.11,-0.16,21015.72,330.84,-0.04,22520.37,676.45,-0.01,4490.60
1300600,1127.51,800.89,1.00,1,1,1,42.96,-0.70,5781.39,47.22,-1.90,4515.67,66.22,-2.43,12612.00,129.53,-0.08,9283.50,596.35,-0.00,3691.39
1314400,1126.25,799.90,1.00,1,1,1,116.04,-2.48,9556.48,228.26,-2.92,15019.17,232.84,-3.02,13135.11,80.99,-0.23,3691.97,463.76,-0.01,9610.68
1328500,1121.30,799.47,1.00,1,1,1,352.24,-3.05,18637.60,500.78,-3.12,19951.79,274.79,-3.08,3191.44,25.81,-1.88,6172.20,360.77,-0.01,7304.41
1342800,1112.03,799.64,1.00,1,1,1,648.50,3.12,21018.95,314.83,3.11,13081.47,66.44,-3.13,14575.75,27.25,-0.41,2499.70,258.90,-0.01,7124.10
1364300,1110.04,799.84,1.00,1,1,1,93.16,3.04,25847.01,277.16,0.02,27524.81,28.25,-0.34,4345.26,43.39,-0.10,894.89,168.66,-0.01,4197.04
1378700,1121.98,799.84,1.00,1,1,1,829.22,-0.00,64025.05,313.15,-0.08,3273.45,215.53,0.01,13146.07,38.83,0.03,485.33,79.77,-0.07,6195.00
1407100,1123.39,798.72,1.00,1,1,1,63.45,-0.67,27477.92,171.29,0.00,5045.87,300.17,0.02,2980.63,118.41,0.06,2803.05,7.32,-1.68,2829.70
1428700,1130.54,799.87,1.00,1,1,1,335.27,0.16,13704.94,289.12,0.15,5656.46,111.84,0.02,8718.98,202.97,0.03,3918.30,54.13,-3.02,2449.65
1443000,1133.66,800.27,1.00,1,1,1,219.51,0.13,8119.82,42.42,0.11,17254.11,210.72,0.11,6973.45,200.98,0.03,152.02,112.89,-3.07,4120.74
1471400,1132.34,800.07,1.00,1,1,1,46.76,-3.00,9375.28,145.84,0.04,3647.02,189.36,0.06,828.58,80.25,0.06,4252.80,169.92,-3.10,2011.62
1486000,1139.92,800.50,1.00,1,1,1,520.02,0.06,38808.29,364.21,0.05,14958.35,101.86,0.06,5993.38,11.81,1.00,5067.00,218.23,-3.10,3309.28
1507300,1145.40,800.73,1.00,1,1,1,257.42,0.04,12330.93,49.07,0.14,14804.95,35.44,0.21,3147.36,136.61,-3.12,6735.80,246.63,-3.09,1335.01
1521700,1141.66,800.74,1.00,1,1,1,259.90,3.14,35916.46,377.04,-3.13,29569.55,243.40,-3.12,19326.05,268.64,-3.10,9173.84,310.98,-3.10,4469.40
1536000,1134.58,800.55,1.00,1,1,1,495.07,-3.12,16460.32,609.40,-3.11,16259.70,538.72,-3.11,20654.24,425.75,-3.10,10986.44,413.24,-3.12,7162.86
1550200,1124.30,800.15,1.00,1,1,1,724.57,-3.10,16171.64,671.38,-3.10,4387.42,726.37,-3.10,13219.89,632.44,-3.10,14556.43,469.06,3.14,4016.33
1571000,1111.11,799.52,1.00,2,2,2,635.07,-3.09,4310.63,821.10,-3.09,7201.45,894.43,-3.09,8082.20,821.74,-3.10,9100.91,136.61,-3.12,15985.00
1585400,1095.43,798.71,1.00,2,2,2,1089.82,-3.09,31580.63,1168.37,-3.09,24116.40,1024.00,-3.09,8997.94,935.63,-3.10,7913.18,268.64,-3.10,9173.84
1599500,1077.85,797.79,1.00,1,1,1,1248.60,-3.09,11260.99,1273.72,-3.09,7474.41,1099.54,-3.10,5365.72,1014.94,-3.11,5667.09,425.75,-3.10,11142.28
1614000,1059.05,796.91,1.00,1,1,1,1298.15,-3.09,3447.47,1045.68,-3.10,15743.74,1139.79,-3.11,2902.25,942.19,-3.13,5178.78,632.44,-3.10,14255.26
1635900,1039.82,796.27,1.00,1,1,1,878.56,-3.11,19170.28,1035.63,-3.12,1036.14,1132.10,-3.13,1196.84,1099.54,-3.10,7381.54,821.74,-3.10,8643.79
1650700,1021.05,796.14,1.00,1,1,1,1268.27,-3.13,26398.97,1241.21,3.13,14176.60,878.23,3.11,17372.85,1139.79,-3.11,2843.42,935.63,-3.10,7699.31
1665000,1003.71,796.87,1.00,1,1,1,1213.96,3.10,5718.97,747.11,3.06,34866.35,1241.21,3.13,25397.72,1132.10,-3.13,1832.92,1014.94,-3.11,5587.83
1694000,988.82,798.91,1.00,1,1,1,518.14,3.01,24131.97,518.14,3.01,7969.68,747.11,3.06,17192.72,878.23,3.11,8866.15,942.19,-3.13,2589.39
