@RELATION gaze_labels

%@METADATA width_px 1920
%@METADATA height_px 1080
%@METADATA width_mm 540.00
%@METADATA height_mm 254.00
%@METADATA distance_mm 620.00


@ATTRIBUTE time INTEGER
@ATTRIBUTE x NUMERIC
@ATTRIBUTE y NUMERIC
@ATTRIBUTE confidence NUMERIC
@ATTRIBUTE handlabeller1 INTEGER
@ATTRIBUTE handlabeller2 INTEGER
@ATTRIBUTE handlabeller_final INTEGER
@ATTRIBUTE speed_1 numeric
@ATTRIBUTE direction_1 numeric
@ATTRIBUTE acceleration_1 numeric
@ATTRIBUTE speed_2 numeric
@ATTRIBUTE direction_2 numeric
@ATTRIBUTE acceleration_2 numeric
@ATTRIBUTE speed_4 numeric
@ATTRIBUTE direction_4 numeric
@ATTRIBUTE acceleration_4 numeric
@ATTRIBUTE speed_8 numeric
@ATTRIBUTE direction_8 numeric
@ATTRIBUTE acceleration_8 numeric
@ATTRIBUTE speed_16 numeric
@ATTRIBUTE direction_16 numeric
@ATTRIBUTE acceleration_16 numeric

%The number after speed, direction denotes the step size that was used for the calculation.
%Acceleration was calculated between two adjacent samples of the already low pass filtered velocity

@DATA
0,75.93,766.00,1.00,1,1,1,0.00,0.00,0.00,2098.92,-0.01,0.00,1219.60,-0.02,0.00,160.06,-3.12,0.00,27.16,1.75,0.00
21200,120.42,765.49,1.00,1,1,1,2098.92,-0.01,99005.75,1219.60,-0.02,41480.18,926.00,-3.14,101200.38,1181.48,3.13,48185.83,44.13,2.15,1027.10
35000,118.61,765.25,1.00,1,1,1,132.74,-3.01,161616.73,926.00,-3.14,155467.25,160.06,-3.12,55504.63,1251.10,3.11,5186.27,395.14,0.11,30208.39
49200,94.49,765.33,1.00,1,1,1,1698.08,3.14,110333.26,1830.69,3.13,63727.77,1181.48,3.13,71939.41,723.46,3.08,37252.02,1011.04,0.04,43473.06
63900,65.70,765.76,1.00,1,1,1,1958.86,3.13,17795.66,1377.66,3.12,30851.31,1251.10,3.11,4868.74,27.16,1.75,48799.58,1354.16,0.02,23398.51
85700,44.22,766.49,1.00,1,1,1,985.86,3.11,44649.19,788.98,3.08,27056.14,723.46,3.08,24265.08,44.13,2.15,998.83,1713.10,0.01,16494.79
100100,37.19,767.42,1.00,1,1,1,492.70,3.01,34574.11,138.81,0.52,63085.70,159.90,0.36,60507.58,395.14,0.11,28949.70,1755.35,-0.00,3217.92
114100,47.64,768.45,1.00,1,1,1,750.39,0.10,88233.39,1358.42,0.05,88288.84,1149.39,0.05,71320.51,1011.04,0.04,44094.10,1890.03,-0.01,9643.37
128200,75.31,769.43,1.00,1,1,1,1963.17,0.04,86179.14,1975.09,0.03,43847.41,2078.36,0.03,65946.07,1354.16,0.02,24394.19,1033.20,-0.00,60770.34
149400,117.34,770.24,1.00,1,1,1,1983.12,0.02,1784.34,2650.40,0.01,31878.96,2758.56,0.01,32111.71,1713.10,0.01,16961.63,1031.63,-0.00,75.89
163600,169.12,770.75,1.00,2,2,2,3646.69,0.01,117166.07,3712.51,0.01,74818.92,2335.41,0.00,29858.97,1755.35,-0.00,3263.25,1190.96,0.00,11223.64
178400,225.00,770.87,1.00,2,2,2,3775.72,0.00,8937.43,2079.35,-0.01,110381.36,2166.03,-0.01,11635.51,1890.03,-0.01,9122.10,1425.77,0.00,15868.57
207100,259.57,769.99,1.00,1,1,1,1204.84,-0.03,89600.88,1278.73,-0.04,27947.96,1539.39,-0.03,21865.36,1838.93,-0.01,1821.81,1652.83,0.01,7915.47
228900,289.53,768.39,1.00,1,1,1,1376.31,-0.05,8039.98,1079.83,-0.06,9219.88,1293.88,-0.04,11286.76,1886.87,-0.02,2229.18,1924.83,0.01,12477.52
258100,314.53,766.53,1.00,1,1,1,858.59,-0.07,17747.02,1311.68,-0.04,7980.55,1385.83,-0.04,3149.05,1837.61,-0.02,1687.58,2124.64,0.01,6843.21
271900,345.88,765.95,1.00,1,1,1,2271.98,-0.02,102575.24,1828.63,-0.02,37533.50,1605.39,-0.03,15961.63,1765.98,-0.01,5225.95,2277.88,0.01,11113.79
293400,379.07,765.08,1.00,1,1,1,1544.08,-0.03,33861.95,1958.46,-0.02,6051.42,2276.18,-0.01,31262.51,1937.37,0.00,8061.95,2244.44,0.01,1556.14
307700,415.98,764.69,1.00,2,2,2,2581.61,-0.01,72586.85,2821.44,0.01,60468.64,2452.65,0.01,12573.95,2137.01,0.01,14054.45,2217.21,0.01,1904.31
322400,460.89,765.52,1.00,2,2,2,3055.31,0.02,32694.12,3072.70,0.03,17691.91,2682.68,0.03,16114.88,2579.36,0.02,30114.91,2057.14,0.01,10891.24
336300,503.83,767.16,1.00,2,2,2,3091.40,0.04,5116.85,2569.37,0.05,36529.23,2793.42,0.04,8282.52,2753.51,0.02,12529.72,1867.33,0.01,13655.91
357500,550.95,770.20,1.00,3,3,3,2227.46,0.06,40879.43,2568.84,0.05,245.60,2884.91,0.04,4317.96,2767.56,0.02,1047.60,1838.64,0.01,1363.86
371800,594.89,772.08,1.00,1,1,1,3075.30,0.04,59420.93,3267.23,0.03,49097.27,3054.63,0.03,12174.39,2627.48,0.03,9833.06,1766.30,0.01,5082.24
386500,645.66,772.96,1.00,1,1,1,3454.46,0.02,26406.10,3653.47,0.00,26926.74,2852.37,0.02,13833.90,2331.24,0.03,20166.28,1845.82,0.02,5461.54
400700,700.47,772.51,1.00,1,1,1,3860.09,-0.01,29306.42,2510.81,0.01,80479.69,2461.20,0.02,27559.15,1993.36,0.03,23794.61,1851.98,0.03,767.81
421700,734.04,773.87,1.00,1,1,1,1599.61,0.04,107794.71,1474.53,0.04,49418.66,1775.13,0.02,32678.37,1717.02,0.02,13178.23,1999.46,0.03,7035.79
435600,751.89,774.54,1.00,1,1,1,1285.56,0.04,22595.93,870.79,0.07,43496.17,920.65,0.05,61532.86,1355.03,0.02,26049.76,1886.89,0.03,8120.74
450300,758.88,775.55,1.00,1,1,1,480.58,0.14,55059.40,250.69,0.15,42255.89,451.88,0.06,31890.33,1111.70,0.02,16558.09,1927.93,0.04,2805.16
464400,759.04,775.58,1.00,1,1,1,11.02,0.17,33302.43,39.55,-0.14,15107.05,269.44,0.05,12940.59,948.63,0.05,11680.86,1797.38,0.04,9258.42
479300,760.02,775.40,1.00,1,1,1,67.13,-0.19,3822.49,285.86,-0.01,16554.51,455.49,0.03,12497.73,1190.52,0.04,16235.10,1847.57,0.03,3381.94
500600,769.38,775.43,1.00,1,1,1,439.63,0.00,17555.08,795.73,0.04,23963.86,976.17,0.04,24448.38,1227.83,0.05,1752.15,1829.65,0.03,845.96
514800,788.25,776.39,1.00,1,1,1,1330.38,0.05,62780.84,1850.59,0.05,74299.58,1853.28,0.04,61768.57,1567.48,0.04,23922.17,1706.06,0.03,8704.29
529200,822.24,778.18,1.00,2,2,2,2363.57,0.05,71749.55,3161.42,0.04,91042.73,2019.39,0.04,11544.11,1644.98,0.04,5382.38,1451.59,0.04,17675.60
543500,878.90,780.28,1.00,2,2,2,3965.03,0.04,112039.98,2115.80,0.04,73121.68,2480.03,0.04,32213.22,1944.80,0.04,20966.72,1256.21,0.03,13663.06
579300,928.15,782.49,1.00,1,1,1,1377.16,0.04,72288.63,2088.13,0.04,786.54,2078.81,0.04,11208.55,2220.69,0.04,7706.21,1009.82,0.04,6882.61
593400,983.00,784.78,1.00,1,1,1,3893.28,0.04,178449.42,2041.59,0.04,3328.39,2003.86,0.04,5315.43,2192.74,0.04,2094.12,768.78,0.03,17094.94
629100,1029.74,786.58,1.00,1,1,1,1310.26,0.04,72354.02,1919.10,0.04,3434.21,2424.60,0.04,11787.32,1848.39,0.03,9649.09,503.92,0.03,7419.51
643000,1078.12,788.36,1.00,1,1,1,3482.81,0.04,156299.36,3108.29,0.03,85556.30,1903.76,0.03,37502.76,1305.22,0.03,39079.12,272.13,0.01,16680.82
657000,1116.41,789.51,1.00,1,1,1,2736.48,0.03,53330.74,1877.56,0.01,88015.07,1483.42,0.01,30077.01,788.88,0.02,36885.77,25.57,-0.34,17735.49
671500,1131.63,788.83,1.00,1,1,1,1050.32,-0.04,116610.76,199.52,-0.26,116259.33,222.68,-0.15,87174.82,38.26,-2.81,56926.38,232.38,-3.04,17639.78
692100,1123.19,787.74,1.00,1,1,1,413.06,-3.01,70822.47,1112.45,-3.08,63269.74,1197.60,-3.08,68748.64,976.01,-3.09,45593.88,502.26,-3.07,13106.31
707000,1092.22,786.28,1.00,1,1,1,2080.89,-3.09,112050.38,2883.37,-3.11,118905.45,2411.89,-3.10,81541.86,1880.81,-3.09,60725.84,808.21,-3.08,20539.01
721000,1039.91,784.78,1.00,1,1,1,3737.68,-3.11,118399.01,4042.61,-3.11,82821.32,3396.32,-3.11,70317.30,2677.60,-3.09,56913.90,1127.00,-3.08,22771.65
735300,977.86,783.03,1.00,2,2,2,4341.15,-3.11,42201.35,3818.66,-3.11,15796.82,4006.85,-3.10,42701.32,3065.42,-3.10,27123.49,1358.57,-3.08,16196.32
756100,905.97,779.97,1.00,2,2,2,3459.61,-3.10,42467.15,3978.17,-3.09,7953.79,4176.48,-3.10,8238.09,3490.77,-3.10,20449.37,1619.89,-3.09,12564.82
770200,839.18,776.49,1.00,3,3,3,4743.25,-3.09,91079.40,4623.80,-3.09,45831.25,3658.65,-3.09,36773.78,3526.33,-3.09,2535.25,1804.55,-3.09,13101.42
784200,776.22,773.02,1.00,3,3,3,4503.51,-3.09,17155.38,3343.72,-3.09,91437.36,3585.42,-3.09,5355.78,3255.72,-3.09,19342.19,1981.41,-3.09,12638.42
805600,721.00,769.82,1.00,1,1,1,2584.99,-3.08,89651.12,2774.93,-3.08,26581.45,3051.39,-3.08,24956.84,2827.26,-3.09,20028.90,1985.22,-3.10,380.20
820200,676.50,767.15,1.00,1,1,1,3053.33,-3.08,32080.69,2688.30,-3.08,5943.31,2350.90,-3.08,47980.25,2257.24,-3.09,39043.52,3490.77,-3.10,103119.76
834100,644.52,765.18,1.00,1,1,1,2304.90,-3.08,53844.87,1811.49,-3.08,63079.99,1809.07,-3.08,38980.55,1729.02,-3.09,38002.16,3526.33,-3.09,2571.72
848500,625.33,764.00,1.00,1,1,1,1335.22,-3.08,67338.56,942.00,-3.08,60382.40,931.14,-3.09,60968.38,1292.26,-3.09,30333.34,3255.72,-3.09,18804.91
863000,617.34,763.61,1.00,1,1,1,551.52,-3.09,54052.96,237.32,-3.12,48613.31,419.07,-3.11,35330.01,967.98,-3.10,22370.84,2827.26,-3.09,29559.89
884400,616.81,763.82,1.00,1,1,1,26.75,2.76,24643.46,20.38,1.34,11360.10,232.95,3.10,8754.54,931.14,-3.09,1799.85,2257.24,-3.09,26637.16
898600,617.50,764.31,1.00,1,1,1,59.86,0.62,5465.52,228.59,3.03,16321.65,400.64,3.14,11828.18,419.07,-3.11,36076.42,1729.02,-3.09,37199.30
912700,610.38,764.55,1.00,1,1,1,505.30,3.11,39297.98,692.71,-3.13,33116.14,228.59,3.03,12419.98,232.95,3.10,13287.04,1292.26,-3.09,30978.73
948000,583.29,763.78,1.00,1,1,1,767.88,-3.11,7518.37,767.88,-3.11,2145.93,692.71,-3.13,13227.69,400.64,3.14,4758.08,967.98,-3.10,9189.15
