@RELATION gaze_labels

%@METADATA width_px 1920
%@METADATA height_px 1080
%@METADATA width_mm 540.00
%@METADATA height_mm 254.00
%@METADATA distance_mm 620.00


@ATTRIBUTE time INTEGER
@ATTRIBUTE x NUMERIC
@ATTRIBUTE y NUMERIC
@ATTRIBUTE confidence NUMERIC
@ATTRIBUTE handlabeller1 INTEGER
@ATTRIBUTE handlabeller2 INTEGER
@ATTRIBUTE handlabeller_final INTEGER
@ATTRIBUTE speed_1 numeric
@ATTRIBUTE direction_1 numeric
@ATTRIBUTE acceleration_1 numeric
@ATTRIBUTE speed_2 numeric
@ATTRIBUTE direction_2 numeric
@ATTRIBUTE acceleration_2 numeric
@ATTRIBUTE speed_4 numeric
@ATTRIBUTE direction_4 numeric
@ATTRIBUTE acceleration_4 numeric
@ATTRIBUTE speed_8 numeric
@ATTRIBUTE direction_8 numeric
@ATTRIBUTE acceleration_8 numeric
@ATTRIBUTE speed_16 numeric
@ATTRIBUTE direction_16 numeric
@ATTRIBUTE acceleration_16 numeric

%The number after speed, direction denotes the step size that was used for the calculation.
%Acceleration was calculated between two adjacent samples of the already low pass filtered velocity

@DATA
0,523.22,953.30,1.00,1,1,1,0.00,0.00,0.00,427.00,-2.80,0.00,621.47,-3.01,0.00,1292.59,-3.08,0.00,1583.17,-3.11,0.00
16000,516.78,951.04,1.00,1,1,1,427.00,-2.80,26687.75,621.47,-3.01,13866.63,1187.21,-3.09,35626.25,1437.79,-3.11,9323.64,1698.37,-3.11,7247.20
48000,493.65,949.43,1.00,2,2,2,724.64,-3.07,10399.97,1187.21,-3.09,17813.13,1292.59,-3.08,3312.14,1944.95,-3.12,15855.50,1658.67,-3.12,1251.21
64100,459.74,948.25,1.00,2,2,2,2107.12,-3.11,85909.35,2302.67,-3.11,69313.78,1437.79,-3.11,9265.73,1981.60,-3.12,2305.04,1532.77,-3.12,7819.75
80000,419.99,947.31,1.00,3,3,3,2500.76,-3.12,24809.70,1688.11,-3.12,38661.76,1944.95,-3.12,31910.43,1583.17,-3.11,25114.99,1322.52,-3.11,13225.04
112300,378.39,946.49,1.00,1,1,1,1288.09,-3.12,37544.52,1706.50,-3.12,579.70,1981.60,-3.12,1148.95,1698.37,-3.11,3589.94,1166.74,-3.11,4823.09
128000,338.09,945.71,1.00,1,1,1,2567.33,-3.12,81480.19,2427.85,-3.12,45945.74,1874.27,-3.12,6836.20,1658.67,-3.12,2550.24,827.15,-3.12,21638.53
144000,301.45,944.93,1.00,1,1,1,2290.99,-3.12,17272.91,2125.93,-3.12,18873.47,2091.73,-3.12,13593.15,1532.77,-3.12,7868.62,547.46,-3.14,17493.17
160000,270.08,944.16,1.00,1,1,1,1960.87,-3.12,20637.54,1759.81,-3.11,22887.19,1376.27,-3.12,44717.70,1322.52,-3.11,13142.38,1010.70,-3.12,28969.11
176100,244.98,943.42,1.00,1,1,1,1560.02,-3.11,24903.28,887.71,-3.11,54169.44,1085.10,-3.11,18087.79,1166.74,-3.11,9676.14,989.37,-3.14,1741.25
209100,226.52,942.78,1.00,1,1,1,559.71,-3.11,30312.67,633.90,-3.10,7692.16,770.18,-3.10,9546.89,827.15,-3.12,10294.69,1002.82,3.14,536.14
224100,214.57,942.30,1.00,1,1,1,797.12,-3.10,15829.07,583.01,-3.08,3533.28,429.16,-3.09,22735.89,547.46,-3.14,18659.38,856.92,3.11,9827.42
239900,208.59,941.67,1.00,1,1,1,380.24,-3.04,26476.62,122.46,-3.02,29167.09,121.15,3.04,19607.03,376.31,3.11,10888.03,753.43,3.09,6641.58
256100,210.68,941.82,1.00,1,1,1,129.09,0.07,31436.26,325.85,0.18,27665.23,131.47,0.29,15296.34,205.59,2.94,10932.73,628.88,3.06,7834.32
272100,218.92,943.53,1.00,1,1,1,526.06,0.20,24911.37,384.98,0.24,3936.84,132.16,0.55,2085.40,183.41,2.77,2455.00,509.98,3.02,7539.10
288000,222.61,944.72,1.00,1,1,1,243.99,0.31,17906.33,124.59,2.45,29545.96,145.82,0.96,3694.93,141.29,2.42,4433.58,393.17,2.95,7576.41
304200,215.85,946.09,1.00,1,1,1,425.77,2.94,40092.35,253.79,2.52,8016.50,251.33,2.64,18756.17,169.69,2.36,1833.43,329.76,2.89,4137.91
320000,216.01,949.46,1.00,2,2,2,213.09,1.52,28245.58,382.41,2.70,8914.36,321.67,2.70,4569.35,195.29,2.40,1696.83,270.57,2.82,3974.00
336000,204.84,951.25,1.00,2,2,2,707.35,2.98,44735.05,370.70,2.78,1894.21,347.69,2.66,1788.50,253.81,2.60,4537.03,270.80,2.82,77.12
368100,199.35,955.80,1.00,1,1,1,222.10,2.45,16455.23,325.09,2.63,2148.52,325.72,2.70,793.96,279.17,2.61,801.58,262.81,2.83,264.25
384000,191.24,958.90,1.00,1,1,1,546.05,2.78,21577.73,284.08,2.60,2637.07,255.73,2.57,5007.52,303.96,2.66,1741.78,244.26,2.80,1233.37
417100,187.42,962.97,1.00,1,1,1,168.62,2.32,12116.59,187.99,2.46,3054.98,239.20,2.50,717.34,330.84,2.76,1290.75,253.77,2.83,329.38
432000,184.21,964.56,1.00,1,1,1,240.28,2.68,6787.08,176.03,2.24,2856.95,260.35,2.65,2853.35,340.37,2.84,1906.83,268.54,2.85,1057.85
447900,184.06,967.23,1.00,1,1,1,167.96,1.63,13499.74,377.16,2.78,15371.76,341.00,2.85,6324.07,400.47,2.97,4862.14,298.35,2.88,1954.06
464000,172.90,968.78,1.00,1,1,1,699.66,3.00,42683.72,538.59,3.03,12149.10,492.28,3.05,10700.05,343.24,3.02,3713.85,261.59,2.85,2351.37
480000,166.88,969.15,1.00,1,1,1,377.23,3.08,20302.89,628.60,-3.07,8605.80,648.58,-3.10,10821.77,364.25,3.11,2378.09,335.46,2.95,5001.22
496000,152.84,967.41,1.00,2,2,2,884.44,-3.02,32387.56,769.99,-2.99,9505.54,483.67,-3.02,10704.16,307.03,3.11,3576.84,465.72,3.02,8315.98
511900,142.59,965.52,1.00,1,1,1,655.51,-2.96,14684.65,341.53,-2.91,27065.17,407.52,-2.96,5036.03,346.38,-3.14,2592.53,695.48,3.09,14674.56
528000,142.19,964.96,1.00,1,1,1,42.66,-2.19,38845.13,52.33,-2.49,18303.52,125.15,-2.96,17538.75,229.64,3.13,7257.49,836.90,3.11,8846.46
543900,141.26,964.50,1.00,1,1,1,65.19,-2.68,2136.19,92.90,0.35,9038.21,53.93,2.65,5628.45,353.92,-3.14,7823.96,996.81,3.14,10158.94
559900,144.97,965.98,1.00,1,1,1,249.71,0.38,19670.67,97.61,2.15,9321.91,61.73,2.07,2117.03,614.61,3.13,16302.36,980.45,-3.14,1123.72
576500,139.52,967.16,1.00,1,1,1,336.06,2.93,33780.42,127.13,2.57,3311.15,321.25,2.97,17279.87,993.52,3.14,22830.22,836.77,-3.12,8704.09
608100,139.82,969.30,1.00,1,1,1,68.30,1.43,10695.69,497.96,3.07,12370.92,1007.16,3.11,21851.21,1332.06,3.14,10713.42,687.07,-3.10,4766.27
624100,115.88,968.95,1.00,1,1,1,1496.17,-3.13,94261.97,2366.10,-3.13,116895.72,1761.25,-3.14,47250.28,1553.58,-3.14,13858.66,461.04,-3.08,14152.85
640000,64.34,968.71,1.00,2,2,2,3241.54,-3.14,109779.96,3643.40,-3.12,80383.48,2962.56,-3.12,75568.25,1575.51,-3.13,1607.97,144.32,-2.97,20000.40
656100,-0.68,966.25,1.00,2,2,2,4041.24,-3.10,50224.95,3555.46,-3.12,5463.92,3107.17,-3.12,9065.39,1231.95,-3.12,21374.26,216.88,-0.08,22264.37
672100,-49.76,966.14,1.00,1,1,1,3067.75,-3.14,61343.61,2569.26,-3.12,61637.72,2280.92,-3.11,51664.16,1145.89,-3.09,5799.68,604.06,-0.02,24234.43
688000,-82.61,964.35,1.00,1,1,1,2069.32,-3.09,63334.85,1026.69,-3.07,97118.03,706.16,-3.08,99075.07,569.26,-3.04,36360.34,1035.77,0.00,27168.12
704700,-83.16,963.91,1.00,1,1,1,41.78,-2.46,121892.06,532.72,-0.07,93185.90,321.03,-0.22,60989.84,288.93,-0.20,50873.91,1427.83,0.00,23477.72
736100,-57.05,962.59,1.00,1,1,1,832.47,-0.05,27516.88,1239.65,-0.06,22516.28,1458.51,-0.03,36441.84,1208.49,-0.03,29454.75,1821.54,0.01,12539.86
751900,-24.74,960.66,1.00,1,1,1,2048.92,-0.06,76994.33,2846.39,-0.02,101763.93,2025.83,-0.02,35928.69,2190.13,-0.01,62151.73,2216.94,0.01,25025.05
768200,34.29,960.44,1.00,2,2,2,3621.42,-0.00,96926.82,2799.91,-0.01,4031.79,2803.69,-0.01,47759.87,3155.80,0.00,59281.44,2508.03,0.01,17860.82
799900,109.66,959.72,1.00,2,2,2,2377.51,-0.01,39243.87,2782.44,-0.00,766.31,3748.11,0.00,29814.33,3910.03,0.01,23798.71,2836.31,0.01,10357.34
832000,211.81,960.28,1.00,1,1,1,3182.48,0.01,25110.35,4694.54,0.01,59575.93,4577.63,0.01,25862.86,4871.11,0.01,29950.17,3124.81,0.01,8990.97
848000,335.46,961.58,1.00,1,1,1,7728.16,0.01,284109.32,8157.41,0.02,216466.09,6153.53,0.02,98516.43,5230.92,0.02,22535.55,3314.45,0.01,11852.53
864000,472.81,965.12,1.00,2,2,2,8587.13,0.03,54243.94,8353.95,0.02,12652.55,7975.20,0.02,113880.32,5277.46,0.02,3007.04,3473.91,0.02,9978.67
879900,601.87,968.09,1.00,2,2,2,8119.32,0.02,29458.12,7792.56,0.03,35327.45,7448.00,0.03,33223.41,5670.27,0.02,24759.42,3550.23,0.02,4806.24
895900,721.30,971.77,1.00,2,2,2,7467.95,0.03,40886.84,6556.09,0.03,77292.47,6322.23,0.03,70361.66,5760.19,0.03,5736.52,3660.38,0.02,6898.76
912300,814.19,974.45,1.00,3,3,3,5666.47,0.03,109849.03,4870.11,0.03,102804.69,5067.55,0.03,76531.33,4862.34,0.03,54757.53,3537.82,0.02,7505.02
928200,878.54,976.29,1.00,1,1,1,4048.70,0.03,101746.87,3546.26,0.04,83312.03,3552.32,0.04,95300.34,3912.69,0.03,59731.51,3377.84,0.03,10079.80
944000,926.52,978.93,1.00,1,1,1,3041.26,0.06,64035.83,2214.26,0.05,84334.59,2248.38,0.04,82531.82,3060.99,0.04,53913.07,3342.06,0.03,2361.26
960000,948.85,979.99,1.00,1,1,1,1397.62,0.05,102732.84,958.64,0.04,78480.29,1484.74,0.06,47760.52,2150.71,0.04,56895.95,3183.03,0.03,9944.36
975900,957.07,980.26,1.00,1,1,1,516.95,0.03,55393.24,757.56,0.07,12706.28,1067.09,0.06,26267.53,1413.53,0.05,46376.72,2550.40,0.03,39788.52
991900,972.97,981.59,1.00,1,1,1,997.11,0.08,30097.50,1173.32,0.06,25985.04,747.16,0.06,20002.13,1002.56,0.07,25720.30,2056.75,0.03,30855.63
1008500,995.24,982.73,1.00,1,1,1,1343.46,0.05,20988.75,736.83,0.06,26294.65,587.08,0.09,9701.57,721.80,0.07,16914.61,1416.41,0.02,38576.39
1024000,996.57,983.08,1.00,1,1,1,88.91,0.26,81067.34,36.46,2.16,48753.64,524.60,0.11,4062.56,606.20,0.06,7473.14,806.21,0.01,39374.25
1040100,994.60,983.69,1.00,1,1,1,128.08,2.84,12975.71,314.60,0.20,20488.92,371.74,0.12,9509.67,509.70,0.02,6131.16,162.87,-0.06,39988.77
1056100,1006.46,985.13,1.00,1,1,1,746.52,0.12,54059.97,756.72,0.08,27885.74,465.25,0.06,6103.65,416.93,-0.03,5976.57,504.22,-3.09,41649.70
1072000,1018.66,985.66,1.00,1,1,1,768.12,0.04,3944.17,622.06,-0.02,9505.27,450.27,-0.05,3082.93,97.05,-0.34,20507.00,1206.63,-3.11,44182.79
1088000,1026.30,984.77,1.00,1,1,1,480.66,-0.12,18958.40,261.54,-0.29,23522.66,339.13,-0.19,7776.79,273.89,-2.95,22555.25,1865.42,-3.11,41179.55
1120800,1030.90,982.05,1.00,1,1,1,163.02,-0.53,10310.70,173.67,-0.60,3350.62,124.98,-2.40,12978.39,838.99,-3.05,17293.53,2432.24,-3.12,17284.59
1136600,1033.28,980.02,1.00,1,1,1,197.67,-0.71,2948.25,456.64,-2.93,37349.04,764.99,-3.00,42157.79,1707.88,-3.08,55038.08,2863.82,-3.12,27319.61
1168000,1009.83,977.55,1.00,1,1,1,751.00,-3.04,28613.20,1685.72,-3.08,39349.91,2149.45,-3.08,44201.94,2745.22,-3.10,33053.81,2844.56,-3.12,674.34
1184000,953.55,974.76,1.00,2,2,2,3521.70,-3.09,173260.44,4655.03,-3.10,185644.20,3768.51,-3.10,101276.09,3842.48,-3.11,68614.44,2408.70,-3.13,27250.36
1200000,860.98,971.82,1.00,2,2,2,5788.70,-3.11,141777.53,6835.92,-3.12,136373.04,6695.98,-3.12,183000.39,5411.19,-3.12,98080.61,838.99,-3.05,98337.19
1216200,733.51,968.97,1.00,2,2,2,7870.34,-3.12,128555.07,8712.31,-3.12,115879.80,8465.77,-3.12,109296.02,6171.58,-3.12,46990.72,1707.88,-3.08,53679.11
1232400,578.75,966.48,1.00,3,3,3,9554.35,-3.13,104005.79,10116.46,-3.13,86738.11,9456.22,-3.13,61219.03,6084.84,-3.13,5832.44,2745.22,-3.10,64067.27
1248000,411.83,964.69,1.00,1,1,1,10700.27,-3.13,73539.35,10221.69,-3.13,7682.66,9166.47,-3.13,18915.36,4782.54,-3.14,83543.47,3842.48,-3.11,70373.78
1263900,256.77,964.01,1.00,1,1,1,9752.25,-3.14,59762.27,8225.81,3.14,125622.58,5594.63,3.14,224690.46,9456.22,-3.13,293981.37,5411.19,-3.12,98697.47
1280100,147.78,964.91,1.00,1,1,1,6727.95,3.13,186791.37,2597.00,3.11,347563.52,1847.83,3.08,231562.83,9166.47,-3.13,18214.79,6171.58,-3.12,46990.72
1312500,130.62,967.92,1.00,1,1,1,537.85,2.97,191298.21,2421.02,0.08,154659.95,2597.00,3.11,23208.46,5594.63,3.14,110264.76,6084.84,-3.13,2916.22
1328200,263.91,973.65,1.00,1,1,1,8497.50,0.04,574747.92,8497.50,0.04,387148.29,2421.02,0.08,319170.85,1847.83,3.08,238937.44,4782.54,-3.14,83011.34
