@RELATION gaze_labels

%@METADATA width_px 1920
%@METADATA height_px 1080
%@METADATA width_mm 540.00
%@METADATA height_mm 254.00
%@METADATA distance_mm 620.00


@ATTRIBUTE time INTEGER
@ATTRIBUTE x NUMERIC
@ATTRIBUTE y NUMERIC
@ATTRIBUTE confidence NUMERIC
@ATTRIBUTE handlabeller1 INTEGER
@ATTRIBUTE handlabeller2 INTEGER
@ATTRIBUTE handlabeller_final INTEGER
@ATTRIBUTE speed_1 numeric
@ATTRIBUTE direction_1 numeric
@ATTRIBUTE acceleration_1 numeric
@ATTRIBUTE speed_2 numeric
@ATTRIBUTE direction_2 numeric
@ATTRIBUTE acceleration_2 numeric
@ATTRIBUTE speed_4 numeric
@ATTRIBUTE direction_4 numeric
@ATTRIBUTE acceleration_4 numeric
@ATTRIBUTE speed_8 numeric
@ATTRIBUTE direction_8 numeric
@ATTRIBUTE acceleration_8 numeric
@ATTRIBUTE speed_16 numeric
@ATTRIBUTE direction_16 numeric
@ATTRIBUTE acceleration_16 numeric

%The number after speed, direction denotes the step size that was used for the calculation.
%Acceleration was calculated between two adjacent samples of the already low pass filtered velocity

@DATA
0,754.91,918.40,1.00,0,0,0,0.00,0.00,0.00,3304.07,-3.10,0.00,2307.69,-3.11,0.00,2705.40,-3.14,0.00,2456.67,3.11,0.00
16500,700.45,916.01,1.00,0,0,0,3304.07,-3.10,200246.72,2307.69,-3.11,60445.93,2344.34,-3.14,4470.55,2599.41,3.12,7450.04,2210.12,3.09,15226.19
48100,643.96,915.30,1.00,1,1,1,1787.86,-3.13,48042.10,2344.34,-3.14,2334.31,2705.40,-3.14,11428.50,2884.12,3.10,9202.63,2141.51,3.07,2594.49
64000,589.09,915.97,1.00,1,1,1,3450.82,3.13,104659.53,3307.26,3.12,60695.17,2599.41,3.12,7731.17,2558.37,3.08,20821.21,1788.01,3.05,22384.61
80000,538.48,917.69,1.00,1,1,1,3164.99,3.11,18432.11,2979.62,3.10,20911.34,2884.12,3.10,18175.20,2456.67,3.11,8081.44,1439.93,3.03,21833.42
96000,493.84,920.19,1.00,1,1,1,2794.60,3.09,23497.98,2480.10,3.08,31444.54,2558.37,3.08,20691.08,2210.12,3.09,15702.01,1179.88,3.01,16293.78
113300,456.08,923.17,1.00,1,1,1,2189.55,3.06,35128.46,2139.75,3.05,19931.92,2150.59,3.05,23780.46,2141.51,3.07,4739.07,962.96,3.01,12551.68
128100,425.43,926.38,1.00,1,1,1,2081.92,3.04,8167.54,1793.42,3.02,23676.32,1731.37,3.03,28524.51,1788.01,3.05,24048.33,786.53,3.01,11921.57
143900,401.58,929.60,1.00,1,1,1,1523.55,3.01,35497.08,1321.82,2.99,30002.25,1373.95,3.00,22794.63,1439.93,3.03,22109.79,1585.60,3.09,50939.53
160000,383.73,932.63,1.00,1,1,1,1124.20,2.97,24956.22,975.40,2.96,21650.80,1018.28,2.97,22203.27,1179.88,3.01,16192.57,1440.70,3.08,9090.70
176000,370.79,935.30,1.00,1,1,1,825.96,2.94,18759.94,715.73,2.93,16310.16,739.75,2.95,17428.83,962.96,3.01,13571.51,1347.27,3.07,5886.13
191900,361.42,937.48,1.00,1,1,1,604.92,2.91,13948.13,507.03,2.95,13144.45,630.77,2.98,6915.45,786.53,3.01,11096.81,1124.04,3.06,14054.83
208500,354.62,938.50,1.00,1,1,1,414.02,2.99,11746.27,548.74,3.04,3850.57,560.39,3.02,4501.61,609.22,3.02,10690.11,941.24,3.05,11027.90
224200,343.79,939.32,1.00,1,1,1,691.93,3.07,17881.91,617.96,3.08,4666.17,558.17,3.07,1999.07,578.05,3.04,2134.09,854.02,3.05,5555.77
240000,335.20,939.72,1.00,1,1,1,544.58,3.09,9389.48,568.43,3.11,3335.12,480.27,3.12,5120.85,555.54,3.08,2082.74,738.44,3.05,7315.35
256100,325.67,939.90,1.00,1,1,1,591.96,3.12,3104.63,345.90,-3.10,13965.04,527.62,3.11,2942.53,536.26,3.11,1509.92,674.29,3.05,3989.00
272000,324.14,939.27,1.00,1,1,1,103.99,-2.75,31328.82,486.68,3.12,9008.47,552.90,-3.14,1893.76,540.53,3.11,281.81,626.80,3.05,2989.60
287900,310.20,940.27,1.00,1,1,1,879.04,3.07,49506.36,758.34,3.13,17088.67,519.17,3.14,2134.33,594.83,3.12,3441.04,573.15,3.05,3376.41
304300,299.64,939.66,1.00,1,1,1,644.42,-3.08,15497.16,540.65,-3.14,13301.13,580.43,3.10,3940.80,578.51,3.11,1031.84,580.87,3.07,965.86
336200,284.08,940.11,1.00,1,1,1,488.05,3.11,5139.34,490.47,3.08,1937.00,639.28,3.12,1885.00,593.72,3.09,615.01,584.63,3.08,198.20
368000,268.47,941.65,1.00,1,1,1,493.46,3.04,1074.16,738.93,3.10,7822.81,593.54,3.09,1537.74,640.00,3.07,1478.77,564.50,3.08,635.90
384200,248.65,941.65,1.00,1,1,1,1223.35,3.14,45299.14,730.43,3.10,570.41,656.70,3.06,4121.44,569.63,3.06,4405.36,550.91,3.10,936.82
416000,233.43,943.00,1.00,3,3,3,480.37,3.05,23460.39,576.10,3.00,5264.35,711.72,3.05,1734.12,599.39,3.07,956.97,519.47,3.10,988.95
432300,221.20,945.48,1.00,1,1,1,765.50,2.94,17979.49,687.64,2.97,6970.10,489.76,2.95,14062.63,628.62,3.06,1809.01,460.84,3.10,3597.44
448200,211.62,946.81,1.00,1,1,1,608.48,3.00,10229.82,362.72,2.84,20853.23,610.46,3.02,7956.31,591.29,3.06,2350.03,447.18,3.09,869.54
464100,210.20,948.95,1.00,1,1,1,161.32,2.16,32454.83,534.95,3.09,12968.99,586.28,3.07,2190.47,502.36,3.07,5596.49,414.88,3.08,2044.17
480100,194.57,947.62,1.00,1,1,1,980.29,-3.06,57117.31,822.69,-3.12,18222.11,440.31,3.09,9144.87,438.53,3.07,3994.30,371.41,3.06,2783.34
496000,183.96,948.33,1.00,1,1,1,668.71,3.07,21068.23,346.03,3.07,30146.61,526.78,-3.08,6473.76,298.19,3.11,8872.36,338.48,3.03,2134.32
512100,183.53,948.40,1.00,1,1,1,27.48,2.98,39837.22,233.26,-2.96,8338.39,268.95,-3.09,16016.14,211.24,-3.13,5431.73,298.79,3.02,2489.58
527900,176.65,946.95,1.00,1,1,1,444.78,-2.93,26539.07,198.78,-2.88,2405.28,73.58,-2.85,12546.38,226.48,-3.12,989.38,192.90,2.96,6767.20
544100,177.38,946.76,1.00,1,1,1,46.50,-0.25,30055.75,34.86,-0.18,14244.70,37.00,-2.44,2608.75,93.09,3.00,8376.60,139.21,2.93,3321.19
576200,178.31,946.65,1.00,1,1,1,29.08,-0.13,561.21,81.42,-0.07,1463.06,18.77,0.87,1731.45,23.90,2.23,2421.96,77.83,2.89,1916.78
591900,181.27,946.50,1.00,1,1,1,188.56,-0.05,10164.66,50.53,2.01,7313.08,60.47,0.62,2710.59,27.59,1.72,848.37,23.65,2.62,3529.64
608000,177.62,948.10,1.00,1,1,1,247.01,2.73,26613.65,95.29,1.55,3402.71,89.00,0.89,2163.10,96.42,0.37,5863.34,49.93,3.00,1818.96
624000,181.32,949.56,1.00,1,1,1,248.59,0.38,28592.86,162.29,0.61,8220.94,93.92,1.29,2300.13,108.88,0.26,1033.10,135.32,3.07,5347.41
639900,181.87,951.06,1.00,1,1,1,100.08,1.22,12355.96,98.74,1.05,5281.79,176.71,0.32,9211.72,128.52,0.23,1259.64,303.54,-3.14,10628.05
656500,182.93,952.34,1.00,1,1,1,100.22,0.88,2017.88,193.30,0.16,9147.76,162.39,0.13,2072.45,152.70,0.16,1569.26,452.70,-3.14,8985.62
688000,191.06,952.50,1.00,1,1,1,258.01,0.02,6576.05,238.30,-0.09,2223.22,171.14,0.01,678.11,110.44,0.17,1342.29,519.06,3.13,2114.08
704000,194.20,951.27,1.00,1,1,1,210.96,-0.37,6412.94,153.27,-0.16,5379.03,236.29,-0.09,4267.49,170.11,3.10,17438.70,519.18,3.13,60.14
735900,198.30,951.30,1.00,1,1,1,128.53,0.01,3238.43,234.31,-0.08,2590.45,53.28,-0.33,5799.57,540.11,-3.11,11621.20,469.51,3.12,1562.56
751900,205.39,950.38,1.00,1,1,1,446.70,-0.13,19988.78,96.05,-3.08,20606.03,445.75,-3.13,31020.16,822.39,-3.11,17642.79,244.70,3.09,14069.78
768900,195.14,951.11,1.00,1,1,1,604.57,3.07,61814.22,1122.26,3.13,60380.19,1393.57,-3.11,55762.81,1128.77,-3.12,18027.27,14.10,1.68,14285.44
800000,151.41,950.88,1.00,2,2,2,1406.00,-3.14,25867.01,2304.64,-3.11,38069.55,2083.16,-3.13,22186.32,1143.25,-3.13,543.71,251.12,0.05,8113.42
815900,86.86,947.99,1.00,1,1,1,4063.63,-3.10,167252.88,3532.81,-3.11,77243.90,2334.43,-3.13,15803.22,1128.52,-3.13,952.93,517.01,0.02,16739.41
831900,38.76,947.77,1.00,1,1,1,3006.71,-3.14,66643.03,2378.71,3.14,72332.83,2189.53,-3.12,9063.60,682.49,3.14,27887.03,824.24,0.01,19204.90
848000,10.51,948.16,1.00,1,1,1,1754.79,3.13,77801.11,855.34,3.12,94629.82,798.46,3.12,86467.97,125.05,3.07,34646.36,1190.94,0.01,22776.52
864000,11.30,948.27,1.00,1,1,1,50.39,0.15,112785.07,787.73,0.04,102650.11,1060.66,0.04,116141.56,826.42,0.02,59437.61,1533.52,0.01,21413.13
880000,35.69,949.14,1.00,1,1,1,1525.37,0.04,92206.16,2969.73,0.02,136384.03,2564.72,0.03,94014.17,1808.09,0.02,61353.83,1925.90,0.01,24523.70
896200,106.90,950.42,1.00,2,2,2,4396.43,0.02,177247.98,4287.95,0.02,81371.96,3809.74,0.02,76857.93,2826.97,0.02,62899.16,2185.36,0.01,16019.44
913000,177.16,952.37,1.00,2,2,2,4183.46,0.03,12924.70,4642.00,0.02,21092.32,3896.04,0.01,5301.58,3766.50,0.01,55928.09,2473.53,0.01,17154.00
928700,257.74,953.37,1.00,2,2,2,5132.96,0.01,60649.29,3621.04,0.01,65094.72,4248.67,0.01,22471.14,4505.64,0.01,47079.17,2782.83,0.02,19701.26
960000,347.34,953.81,1.00,1,1,1,2862.70,0.00,72538.16,3979.13,0.01,11443.08,4754.27,0.01,16165.51,4980.31,0.01,15166.75,2979.08,0.02,6273.41
976100,446.35,954.60,1.00,1,1,1,6149.60,0.01,204157.06,6413.51,0.01,151203.79,5072.85,0.01,19788.15,5063.12,0.01,5143.47,3309.72,0.02,20538.01
992100,553.21,955.35,1.00,1,1,1,6679.07,0.01,33093.61,6692.94,0.01,17473.47,6333.60,0.01,78796.83,5091.66,0.01,1811.74,3473.20,0.02,10217.47
1008100,660.51,956.50,1.00,1,1,1,6706.83,0.01,2318.31,6253.44,0.01,27470.52,6081.49,0.01,15782.35,4363.45,0.01,45517.00,3679.43,0.02,12890.28
1024100,753.31,957.29,1.00,1,1,1,5800.06,0.01,56680.28,5468.16,0.01,49098.52,5509.44,0.02,35833.00,4034.38,0.02,20571.53,3763.78,0.02,5271.68
1040000,834.93,958.84,1.00,1,1,1,5134.34,0.02,42023.97,4763.56,0.03,44556.46,3658.75,0.02,116409.20,3744.80,0.02,18247.36,3622.59,0.02,8879.75
1056000,905.21,961.52,1.00,2,2,2,4395.53,0.04,46523.20,2456.74,0.04,144196.84,2496.31,0.03,72660.13,3232.89,0.02,32006.60,3391.59,0.02,14440.33
1088000,952.76,963.47,1.00,2,2,2,1487.35,0.04,90880.92,1364.46,0.03,34136.64,2191.63,0.04,9548.90,3003.18,0.03,7186.54,2852.33,0.02,16852.21
1119900,992.35,964.28,1.00,1,1,1,1241.33,0.02,7762.65,1927.06,0.04,17640.40,1933.10,0.04,8105.62,2766.96,0.03,7412.22,2452.86,0.02,12523.43
1136100,1045.39,967.09,1.00,1,1,1,3278.11,0.05,125792.56,2690.14,0.04,47104.20,2458.20,0.03,32415.52,2445.98,0.03,19814.68,1762.06,0.01,42646.91
1167900,1121.38,969.50,1.00,1,1,1,2390.84,0.03,27963.92,2990.47,0.03,9482.60,3091.09,0.03,19902.37,2010.49,0.03,13696.03,940.26,-0.01,25852.11
1184100,1188.86,971.52,1.00,1,1,1,4167.55,0.03,109674.02,3692.65,0.03,43346.99,2751.99,0.03,20968.02,1488.52,0.02,32226.45,56.55,-0.71,55427.38
1199900,1239.49,972.85,1.00,1,1,1,3205.74,0.03,60879.79,2393.21,0.02,82251.13,2145.78,0.02,38384.66,873.31,0.01,38947.21,837.32,-3.06,55561.39
1216000,1265.18,973.21,1.00,1,1,1,1595.91,0.01,100004.52,604.53,-0.03,111159.58,330.75,-0.06,112809.19,225.15,-2.96,68061.93,2445.98,0.03,203884.00
1232000,1258.89,972.32,1.00,1,1,1,397.22,-3.00,124413.05,1028.48,-3.08,101962.75,1342.67,-3.08,104467.24,1858.95,-3.08,102236.48,2010.49,0.03,27220.85
1264500,1215.41,969.98,1.00,2,2,2,1339.89,-3.09,29069.54,2643.46,-3.09,49697.59,3193.79,-3.09,56963.72,3581.26,-3.09,52998.49,1488.52,0.02,16063.65
1280000,1132.16,966.05,1.00,2,2,2,5376.79,-3.09,260447.39,6527.88,-3.10,250609.14,5066.82,-3.09,120843.17,5239.04,-3.09,106954.97,873.31,0.01,39701.02
1296000,1010.00,960.46,1.00,3,3,3,7643.00,-3.10,141639.79,8701.87,-3.10,135874.78,8532.01,-3.09,216574.32,3193.79,-3.09,127828.28,225.15,-2.96,68487.32
1312000,853.99,953.28,1.00,1,1,1,9760.75,-3.10,132358.89,10504.82,-3.09,112685.93,10131.04,-3.09,99942.33,5066.82,-3.09,117066.82,1858.95,-3.08,102236.48
1328000,674.22,944.69,1.00,1,1,1,11248.91,-3.09,93016.90,11569.23,-3.09,66550.90,10504.82,-3.09,23371.41,8532.01,-3.09,216574.32,3581.26,-3.09,107653.19
1343800,486.54,935.04,1.00,1,1,1,11893.65,-3.09,40894.01,11893.65,-3.09,20575.60,11569.23,-3.09,67393.31,10131.04,-3.09,101207.42,5239.04,-3.09,104924.18
