@RELATION gaze_labels

%@METADATA width_px 1920
%@METADATA height_px 1080
%@METADATA width_mm 540.00
%@METADATA height_mm 254.00
%@METADATA distance_mm 620.00


@ATTRIBUTE time INTEGER
@ATTRIBUTE x NUMERIC
@ATTRIBUTE y NUMERIC
@ATTRIBUTE confidence NUMERIC
@ATTRIBUTE handlabeller1 INTEGER
@ATTRIBUTE handlabeller2 INTEGER
@ATTRIBUTE handlabeller_final INTEGER
@ATTRIBUTE speed_1 numeric
@ATTRIBUTE direction_1 numeric
@ATTRIBUTE acceleration_1 numeric
@ATTRIBUTE speed_2 numeric
@ATTRIBUTE direction_2 numeric
@ATTRIBUTE acceleration_2 numeric
@ATTRIBUTE speed_4 numeric
@ATTRIBUTE direction_4 numeric
@ATTRIBUTE acceleration_4 numeric
@ATTRIBUTE speed_8 numeric
@ATTRIBUTE direction_8 numeric
@ATTRIBUTE acceleration_8 numeric
@ATTRIBUTE speed_16 numeric
@ATTRIBUTE direction_16 numeric
@ATTRIBUTE acceleration_16 numeric

%The number after speed, direction denotes the step size that was used for the calculation.
%Acceleration was calculated between two adjacent samples of the already low pass filtered velocity

@DATA
0,359.72,936.85,1.00,1,1,1,0.00,0.00,0.00,5018.70,0.18,0.00,3608.85,0.17,0.00,1143.76,0.23,0.00,1570.97,-3.14,0.00
16000,438.72,951.21,1.00,1,1,1,5018.70,0.18,313668.71,3608.85,0.17,88126.46,966.14,0.19,165173.81,898.48,-3.10,127071.90,2598.85,-3.11,64378.61
32000,473.44,956.92,1.00,1,1,1,2199.22,0.16,176252.92,966.14,0.19,165173.81,1143.76,0.23,11451.89,2392.33,-3.07,93415.58,3058.05,-3.10,28700.49
47900,469.02,956.89,1.00,1,1,1,278.56,-3.13,155645.94,1307.30,-3.06,142796.80,898.48,-3.10,127871.09,3547.27,-3.08,72651.85,3454.58,-3.11,24980.96
64300,431.36,953.47,1.00,1,1,1,2305.53,-3.05,123663.20,2132.80,-3.06,50335.03,2392.33,-3.07,91137.15,1570.97,-3.14,120813.56,3619.05,-3.12,10258.57
95900,366.99,948.50,1.00,1,1,1,2043.22,-3.06,8351.71,3128.66,-3.07,31535.28,3547.27,-3.08,36555.83,2598.85,-3.11,32596.76,3811.77,-3.13,6273.78
111900,282.78,943.34,1.00,2,2,2,5272.70,-3.08,201868.69,5669.86,-3.09,158876.21,3119.23,-3.09,26885.60,3058.05,-3.10,28700.49,3401.22,3.14,25830.24
127900,185.80,938.94,1.00,2,2,2,6067.37,-3.10,49983.06,3112.87,-3.10,159863.22,4011.12,-3.11,55829.74,3454.58,-3.11,24824.82,2763.52,3.12,39973.26
176100,83.07,935.90,1.00,1,1,1,2132.25,-3.11,81649.93,3185.04,-3.12,1806.98,3534.37,-3.12,9956.82,3619.05,-3.12,3490.47,1911.25,3.11,17685.02
192100,-18.63,934.49,1.00,1,1,1,6356.98,-3.13,264070.68,4101.50,-3.14,57391.61,3390.77,-3.14,9567.96,3811.77,-3.13,12390.72,1948.23,3.13,3200.81
223900,-112.98,934.75,1.00,1,1,1,2966.88,3.14,106631.25,3667.60,3.13,13808.60,4317.91,3.13,29215.37,3401.22,3.14,12996.35,1858.47,3.14,2831.11
240000,-194.30,936.52,1.00,1,1,1,5052.13,3.12,129598.66,4636.78,3.11,60356.98,3576.84,3.11,46302.46,2763.52,3.12,39724.98,1723.23,3.13,8410.99
256500,-264.07,939.09,1.00,1,1,1,4231.76,3.10,49898.03,3444.16,3.08,72642.76,3174.71,3.08,25000.96,2329.69,3.09,26771.19,1467.04,3.12,15551.71
272200,-305.01,943.02,1.00,1,1,1,2619.28,3.05,103462.03,1664.33,3.00,114029.44,1673.28,3.02,96054.62,1164.09,3.01,74737.60,1179.95,3.10,18400.09
287900,-315.83,946.34,1.00,1,1,1,720.96,2.84,122200.35,240.43,0.93,114122.84,306.77,0.86,118533.33,210.06,1.88,69490.62,733.02,3.04,28671.80
303900,-300.47,949.14,1.00,1,1,1,975.56,0.18,103081.60,2025.45,0.12,116816.01,1904.94,0.12,105811.71,895.79,0.23,58507.92,279.18,2.83,28962.97
319900,-251.45,953.89,1.00,2,2,2,3077.94,0.10,131710.80,3633.09,0.07,100804.13,3051.00,0.07,71943.32,1785.83,0.10,56487.06,180.99,0.61,25951.36
335900,-184.49,957.14,1.00,2,2,2,4190.29,0.05,70352.80,4079.56,0.05,28275.70,3405.63,0.06,22292.27,2461.45,0.07,42479.92,546.52,0.20,24201.47
351900,-121.07,960.39,1.00,3,3,3,3968.84,0.05,13858.80,3179.18,0.05,56274.28,3339.31,0.04,6021.32,2945.64,0.05,30370.29,892.94,0.12,21918.14
368000,-82.56,962.27,1.00,3,3,3,2394.42,0.05,97791.43,2601.93,0.02,36179.17,3019.17,0.04,19898.64,2788.27,0.04,9920.62,1107.34,0.09,13463.75
384000,-37.57,962.33,1.00,1,1,1,2812.20,0.00,27225.33,2858.88,0.02,16073.74,2841.76,0.03,11138.88,2625.22,0.03,10370.11,1244.98,0.06,8791.65
399900,8.62,964.04,1.00,1,1,1,2906.76,0.04,8721.66,3082.44,0.04,14382.84,2293.95,0.02,34484.82,2224.97,0.03,25187.93,1234.89,0.04,1577.84
416000,61.01,965.84,1.00,1,1,1,3255.94,0.03,21693.23,1918.51,0.02,72322.25,2051.13,0.02,15083.17,1731.24,0.01,30708.37,1064.98,0.03,10596.27
447900,100.68,966.07,1.00,1,1,1,1243.79,0.01,63102.50,1359.93,-0.00,17563.78,1589.17,0.01,14494.04,1306.45,0.00,13325.84,878.27,0.02,5857.71
463700,125.87,965.52,1.00,1,1,1,1594.80,-0.02,22353.40,1094.56,-0.03,16878.21,841.69,-0.04,47426.50,817.01,-0.01,30986.46,596.25,0.00,17869.32
479800,135.59,965.15,1.00,1,1,1,603.70,-0.04,61567.12,98.71,-0.74,63496.02,111.42,-0.52,46247.72,261.48,-0.14,34704.74,316.75,-0.04,17392.18
495900,128.21,963.37,1.00,1,1,1,471.27,-2.90,66145.47,862.12,-3.05,57831.72,412.99,-3.00,31430.61,307.05,-2.96,34849.08,118.00,-0.17,12443.45
513100,107.00,962.49,1.00,1,1,1,1234.20,-3.10,45196.14,733.92,-3.07,7545.09,1069.80,-3.06,38248.01,841.78,-3.06,31236.48,85.73,-0.28,1995.90
543900,93.06,960.99,1.00,3,3,3,455.13,-3.03,25344.47,1217.32,-3.07,15696.66,1254.44,-3.08,6036.81,1224.70,-3.09,12463.35,113.67,-0.19,949.99
560000,50.07,958.20,1.00,3,3,3,2675.99,-3.08,137971.50,1773.90,-3.08,34597.69,1484.65,-3.09,14316.41,1399.98,-3.09,10894.87,269.86,-0.08,9778.42
592000,7.89,955.87,1.00,1,1,1,1320.07,-3.09,42376.58,1746.86,-3.10,1426.89,2039.06,-3.10,17341.31,1333.53,-3.10,2116.07,314.36,-0.08,1390.99
607900,-33.54,954.92,1.00,1,1,1,2606.51,-3.12,80995.93,2438.74,-3.12,43600.68,1732.18,-3.11,19319.77,1034.45,-3.10,18811.81,384.96,-0.07,4452.09
624000,-70.13,954.46,1.00,1,1,1,2273.12,-3.13,20764.90,1710.35,-3.12,45245.81,1452.44,-3.13,17460.13,672.84,-3.09,22466.19,441.25,-0.04,3557.88
639900,-88.26,953.68,1.00,1,1,1,1140.84,-3.10,71279.48,478.37,-3.14,77492.70,372.25,3.14,67941.60,280.18,-0.02,59901.64,580.28,-0.02,8773.47
656400,-85.63,954.45,1.00,1,1,1,165.67,0.28,78927.10,949.76,0.04,86536.55,1040.18,0.02,85598.02,1159.67,0.01,53315.70,757.37,-0.01,10747.09
672300,-57.51,955.00,1.00,1,1,1,1768.94,0.02,101236.49,2602.05,0.01,103954.88,2791.77,0.02,110163.61,1911.69,0.01,47296.91,1022.76,-0.00,16695.70
687900,-3.68,955.65,1.00,2,2,2,3451.22,0.01,107844.87,4680.71,0.02,133247.39,3808.80,0.01,65208.62,2291.72,0.02,24362.15,1351.44,0.01,21079.43
703900,90.38,957.34,1.00,2,2,2,5879.49,0.02,151775.69,4996.69,0.01,19761.95,4220.68,0.01,25744.25,2780.16,0.02,30532.26,1748.41,0.02,24821.24
719900,156.20,957.80,1.00,3,3,3,4114.03,0.01,110392.68,3767.86,0.01,76812.66,3288.90,0.02,58238.97,3095.04,0.02,19687.82,2263.06,0.02,32169.93
736000,211.32,958.38,1.00,1,1,1,3423.86,0.01,42875.76,2155.12,0.02,100184.08,2770.87,0.02,32181.52,3302.67,0.02,12897.20,2699.78,0.02,27131.93
768100,260.06,959.67,1.00,1,1,1,1518.87,0.03,59355.93,2103.00,0.03,1808.96,2528.52,0.02,7550.25,3375.13,0.02,2268.27,2947.61,0.02,7720.37
783900,312.01,961.41,1.00,1,1,1,3289.77,0.03,112086.53,3094.49,0.02,62771.02,2570.83,0.02,2678.46,3214.82,0.02,10149.72,3280.82,0.03,21090.57
799900,358.45,961.70,1.00,1,1,1,2902.21,0.01,24784.29,3271.46,0.01,11285.08,3483.54,0.02,57044.52,3243.12,0.02,1904.58,3622.90,0.03,21380.35
815900,416.69,962.39,1.00,1,1,1,3640.74,0.01,46171.67,3870.15,0.02,37504.66,3768.90,0.02,17836.47,3400.50,0.03,9925.34,3577.65,0.03,2829.01
831900,482.26,964.28,1.00,1,1,1,4099.85,0.03,28984.85,4265.10,0.03,24747.11,4136.40,0.03,23006.64,3605.45,0.03,12810.35,3572.90,0.03,412.35
848000,553.55,966.19,1.00,2,2,2,4429.33,0.03,20471.71,4402.71,0.03,8553.26,4433.30,0.04,18659.81,3780.87,0.03,10895.96,3389.20,0.03,11410.05
863900,623.09,968.36,1.00,2,2,2,4375.77,0.03,3579.17,4601.78,0.04,13165.96,3702.99,0.04,45931.74,4148.80,0.03,23153.87,3264.24,0.03,7871.55
880100,701.13,972.59,1.00,2,2,2,4824.20,0.05,28440.39,3235.69,0.04,84326.22,3790.73,0.04,5431.85,3824.76,0.03,20006.72,3119.69,0.03,8923.56
911800,777.94,975.03,1.00,1,1,1,2424.21,0.03,75748.53,3248.43,0.03,1085.73,4158.91,0.04,11615.71,3751.17,0.04,2324.19,3151.39,0.03,1000.02
928100,856.97,977.76,1.00,1,1,1,4851.36,0.03,148906.43,5532.32,0.04,140118.60,3416.94,0.03,45538.79,3545.67,0.04,12607.54,2996.24,0.03,9531.67
944000,955.96,981.52,1.00,1,1,1,6230.42,0.04,86740.58,3586.17,0.03,122401.02,3799.22,0.04,24044.26,3283.37,0.04,16500.15,2940.19,0.03,3525.52
975900,1028.29,983.64,1.00,1,1,1,2268.23,0.03,124210.59,2634.18,0.03,29843.01,3302.47,0.03,15576.45,2866.48,0.03,13074.49,2967.85,0.03,874.65
991900,1082.07,985.69,1.00,1,1,1,3363.87,0.04,68493.25,2890.34,0.03,16042.71,2407.88,0.03,55912.03,2698.59,0.03,10493.96,2816.99,0.02,9460.01
1008800,1123.34,986.22,1.00,1,1,1,2442.47,0.01,54686.65,2071.24,0.03,48468.13,2042.52,0.03,21620.72,2209.44,0.02,28963.76,2520.81,0.02,17529.23
1024100,1148.73,987.62,1.00,2,2,2,1662.12,0.06,51307.31,1145.66,0.04,60500.13,1321.19,0.02,47155.86,1730.10,0.01,31354.78,2373.33,0.02,9643.07
1039900,1158.95,987.50,1.00,2,2,2,646.56,-0.01,64423.43,562.07,-0.01,37016.02,812.25,-0.01,32289.49,1898.12,0.01,10683.79,2177.70,0.01,12390.16
1055900,1166.61,987.41,1.00,2,2,2,478.64,-0.01,10495.22,492.77,-0.13,5756.21,881.10,-0.04,4588.59,1650.90,-0.02,15636.64,1934.39,0.02,15207.81
1071900,1174.59,985.51,1.00,1,1,1,512.98,-0.23,7176.00,1198.57,-0.06,44233.42,1755.21,-0.02,54658.06,1371.79,-0.02,17461.82,1702.50,0.01,14496.95
1087900,1204.89,985.15,1.00,1,1,1,1894.11,-0.01,87394.98,3016.86,-0.01,113823.47,1982.07,-0.04,14336.41,1361.79,-0.03,861.81,1354.05,0.00,21799.22
1104000,1271.43,985.01,1.00,1,1,1,4132.70,-0.00,139053.59,2765.87,-0.03,16333.35,1812.63,-0.03,10622.03,1415.48,-0.02,3385.02,1139.36,-0.01,13395.66
1119900,1293.36,982.29,1.00,1,1,1,1389.53,-0.12,173492.05,1008.91,-0.07,110588.86,1745.22,-0.03,4244.74,1250.87,-0.01,10386.97,849.28,-0.05,18352.46
1152000,1319.72,981.41,1.00,1,1,1,821.91,-0.03,17936.83,1064.88,-0.02,2566.08,1143.28,-0.03,18752.05,1247.49,-0.00,394.49,635.55,-0.10,6757.45
1167900,1344.46,981.47,1.00,1,1,1,1555.90,0.00,46232.14,1348.33,0.02,18087.15,769.10,0.03,23771.33,1016.12,-0.02,14569.45,414.43,-0.22,14452.19
1184000,1362.86,982.48,1.00,1,1,1,1144.22,0.05,25932.81,482.14,0.13,54044.91,683.44,0.06,5465.98,532.58,-0.07,30132.94,235.51,-0.53,12663.33
1216800,1367.85,984.46,1.00,1,1,1,163.78,0.38,30193.42,242.42,0.18,7327.36,287.80,0.05,12062.49,269.84,-0.18,8110.17,151.89,-1.82,7364.68
1232000,1374.31,984.53,1.00,1,1,1,425.13,0.01,18328.13,58.30,-1.79,17787.00,90.94,-2.67,24518.59,90.55,-1.90,19538.94,365.57,-2.65,18864.46
1247900,1367.46,982.69,1.00,1,1,1,446.46,-2.88,54385.04,586.44,-2.85,35237.37,374.10,-2.78,17852.27,398.07,-2.81,22041.66,727.89,-2.87,23839.87
1263900,1356.39,979.17,1.00,1,1,1,725.84,-2.83,17538.44,595.53,-2.83,1000.80,770.60,-2.86,24960.07,812.34,-2.91,26100.98,1219.86,-2.97,31281.50
1296100,1340.15,973.85,1.00,2,2,2,530.79,-2.83,6059.38,893.04,-2.87,9289.36,962.84,-2.88,5987.66,1367.06,-2.94,17255.58,1573.74,-3.01,11130.10
1311900,1315.09,967.70,1.00,2,2,2,1633.18,-2.90,69914.83,1334.47,-2.91,28042.16,1415.00,-2.92,28754.31,1917.87,-2.97,34979.37,2031.48,-3.04,29150.33
1343900,1278.13,958.94,1.00,2,2,2,1187.00,-2.91,13947.39,1938.51,-2.94,18964.89,2358.14,-2.96,29573.90,2447.19,-2.99,16608.25,2256.47,-3.06,7182.29
1359900,1223.88,949.26,1.00,2,2,2,3443.77,-2.96,141226.73,3887.30,-2.99,122092.07,3058.56,-2.99,44023.24,2957.20,-3.01,32109.89,2539.44,-3.08,17867.28
1376000,1154.75,940.26,1.00,2,2,2,4330.21,-3.01,56206.48,4707.93,-3.02,51501.61,4684.19,-3.02,101207.65,3818.06,-3.03,53705.97,2900.16,-3.09,22501.60
1392600,1071.09,930.44,1.00,2,2,2,5074.47,-3.02,44978.37,5488.73,-3.04,47456.03,5279.04,-3.05,36727.31,4246.19,-3.06,26411.22,3086.28,-3.10,11388.90
1407900,980.57,922.44,1.00,2,2,2,5939.36,-3.05,57449.77,5877.15,-3.07,27656.09,5655.11,-3.07,26186.93,4540.61,-3.08,20664.96,3212.86,-3.11,8389.18
1424000,887.03,917.10,1.00,2,2,2,5819.43,-3.08,13599.12,5826.42,-3.10,12259.16,5775.20,-3.10,13481.09,4666.09,-3.11,10918.15,3316.88,-3.10,6461.30
1439900,794.27,915.02,1.00,2,2,2,5835.25,-3.12,12748.77,5681.64,-3.14,15980.88,4440.32,-3.14,84683.36,4618.90,-3.14,8102.44,3818.06,-3.03,35257.19
1455900,705.79,916.46,1.00,2,2,2,5531.10,3.13,23446.13,3525.44,3.11,135224.39,4191.93,3.11,18524.44,4424.12,3.12,14322.86,4246.19,-3.06,27401.64
1488100,624.46,921.21,1.00,1,1,1,2530.00,3.08,93329.43,3207.69,3.06,10790.20,3811.96,3.07,12694.41,4095.15,3.10,10567.87,4540.61,-3.08,9819.06
1503900,552.29,928.49,1.00,1,1,1,4590.96,3.04,130758.77,4253.74,3.03,66794.79,3374.37,3.04,28576.26,3744.13,3.10,22241.28,4666.09,-3.11,11125.46
1519900,490.10,936.88,1.00,1,1,1,3921.91,3.01,42743.75,3627.77,3.01,39406.70,3675.83,3.03,18932.57,3811.96,3.07,7345.37,4618.90,-3.14,8051.80
1535900,437.26,944.15,1.00,1,1,1,3333.63,3.00,36773.02,3101.64,3.04,33507.15,3187.87,3.08,31967.00,3374.37,3.04,28219.05,4424.12,3.12,14322.86
1551900,391.39,947.24,1.00,1,1,1,2873.38,3.07,31761.11,2770.36,-3.12,31245.02,3101.64,3.04,9233.98,3675.83,3.03,18932.57,4095.15,3.10,21267.84
1568100,348.08,942.08,1.00,1,1,1,2692.43,-3.02,33745.87,2692.43,-3.02,16768.14,2770.36,-3.12,30859.27,3187.87,3.08,31572.35,3744.13,3.10,21692.11
