@RELATION gaze_labels

%@METADATA width_px 1920
%@METADATA height_px 1080
%@METADATA width_mm 540.00
%@METADATA height_mm 254.00
%@METADATA distance_mm 620.00


@ATTRIBUTE time INTEGER
@ATTRIBUTE x NUMERIC
@ATTRIBUTE y NUMERIC
@ATTRIBUTE confidence NUMERIC
@ATTRIBUTE handlabeller1 INTEGER
@ATTRIBUTE handlabeller2 INTEGER
@ATTRIBUTE handlabeller_final INTEGER
@ATTRIBUTE speed_1 numeric
@ATTRIBUTE direction_1 numeric
@ATTRIBUTE acceleration_1 numeric
@ATTRIBUTE speed_2 numeric
@ATTRIBUTE direction_2 numeric
@ATTRIBUTE acceleration_2 numeric
@ATTRIBUTE speed_4 numeric
@ATTRIBUTE direction_4 numeric
@ATTRIBUTE acceleration_4 numeric
@ATTRIBUTE speed_8 numeric
@ATTRIBUTE direction_8 numeric
@ATTRIBUTE acceleration_8 numeric
@ATTRIBUTE speed_16 numeric
@ATTRIBUTE direction_16 numeric
@ATTRIBUTE acceleration_16 numeric

%The number after speed, direction denotes the step size that was used for the calculation.
%Acceleration was calculated between two adjacent samples of the already low pass filtered velocity

@DATA
0,363.93,966.06,1.00,1,1,1,0.00,0.00,0.00,2783.38,-2.95,0.00,1483.98,-2.93,0.00,971.67,-2.92,0.00,596.24,-3.01,0.00
17500,316.15,956.58,1.00,1,1,1,2783.38,-2.95,159050.05,1483.98,-2.93,74264.18,637.57,-2.89,48441.29,348.33,-2.88,35645.29,417.38,-3.10,10599.23
48100,294.09,951.33,1.00,1,1,1,741.21,-2.91,66760.51,637.57,-2.89,27703.35,971.67,-2.92,10947.53,85.71,-3.01,8614.74,474.99,3.09,2274.58
64200,287.35,949.03,1.00,1,1,1,442.12,-2.81,18887.63,210.28,-2.73,26766.97,348.33,-2.88,38744.88,74.25,2.63,3234.36,628.43,3.07,9551.36
80300,287.87,948.64,1.00,1,1,1,40.72,-0.64,28960.31,73.00,0.14,17471.89,85.71,-3.01,16373.36,596.24,-3.01,33477.13,857.98,3.08,14259.97
96300,289.67,949.36,1.00,1,1,1,120.90,0.38,6600.41,64.72,1.21,4426.21,74.25,2.63,3254.57,417.38,-3.10,11592.90,1028.97,3.08,10694.47
112600,288.61,950.60,1.00,1,1,1,100.27,2.28,11060.59,165.55,2.81,10993.76,239.49,2.90,10382.41,474.99,3.09,4270.06,1216.87,3.10,11584.35
144200,282.18,951.95,1.00,1,1,1,207.91,2.93,4495.47,409.52,3.01,7895.48,500.73,3.02,8369.55,628.43,3.07,4866.36,1436.58,3.11,6965.65
160200,269.28,953.18,1.00,2,2,2,809.46,3.05,37708.97,1011.04,3.07,37684.97,788.56,3.07,18109.88,857.98,3.08,14349.10,941.89,-3.11,31207.37
176100,250.00,954.15,1.00,2,2,2,1214.37,3.09,25616.40,1340.47,3.10,20836.42,1330.79,3.10,34148.37,1028.97,3.08,10761.73,736.64,3.13,13083.00
193000,225.35,954.84,1.00,3,3,3,1459.27,3.11,14594.05,1649.20,3.12,18319.46,1635.55,3.11,18045.19,1216.87,3.10,11173.07,668.34,3.10,4273.86
208200,197.07,955.32,1.00,1,1,1,1860.42,3.12,26419.62,1945.80,3.11,19524.61,1687.27,3.11,3408.92,1436.58,3.11,14481.22,552.19,3.08,7677.85
224200,164.66,956.53,1.00,1,1,1,2027.10,3.10,10706.37,1725.56,3.10,13908.07,1763.17,3.12,4833.72,1379.75,3.11,3552.36,480.57,3.05,4534.87
240300,141.74,957.83,1.00,1,1,1,1426.04,3.09,37387.34,1584.57,3.12,9064.39,1542.65,3.12,13700.26,1089.31,3.11,18041.90,418.17,3.05,3880.82
256100,114.13,957.67,1.00,1,1,1,1747.64,-3.14,21281.09,1359.04,-3.14,14525.92,1125.55,3.11,26401.29,864.12,3.10,14265.41,385.41,3.04,2083.88
272100,98.52,957.55,1.00,1,1,1,975.29,-3.13,48272.10,675.05,3.10,42828.72,607.64,3.11,32370.46,483.62,3.08,23789.91,358.68,3.03,1678.43
288600,92.20,958.48,1.00,1,1,1,387.20,2.99,36105.02,115.03,2.80,34331.51,157.24,2.94,27484.82,143.55,2.93,20756.96,293.43,3.03,3954.71
320000,93.34,959.40,1.00,1,1,1,46.54,0.68,13375.72,205.50,0.18,9889.11,222.35,0.11,11943.86,87.11,0.27,7142.28,193.57,2.97,3215.34
336100,101.81,960.22,1.00,2,2,2,528.66,0.10,30473.33,547.63,0.02,21508.29,520.60,0.06,18557.58,297.06,0.11,13146.64,111.67,2.86,5191.50
368300,119.78,959.92,1.00,1,1,1,558.25,-0.02,2106.43,830.37,0.03,8783.37,657.06,0.04,4250.75,428.94,0.08,4102.99,45.04,2.46,2245.59
384700,142.15,961.42,1.00,1,1,1,1366.80,0.07,49504.41,767.61,0.06,4029.79,670.59,0.05,860.26,504.17,0.05,4683.07,41.76,0.56,4305.76
416200,156.49,961.97,1.00,1,1,1,455.78,0.04,28930.51,507.08,0.07,8279.36,677.80,0.07,616.14,616.17,0.05,3555.82,88.53,0.22,1620.16
432100,166.12,963.22,1.00,1,1,1,610.22,0.13,10171.66,543.91,0.11,2597.67,484.35,0.04,12225.11,569.35,0.05,2947.44,156.94,0.15,4330.75
448200,173.79,963.88,1.00,1,1,1,478.67,0.09,8293.72,451.97,-0.02,6921.12,554.91,0.06,4450.01,463.94,0.06,6565.07,220.34,0.11,3974.30
464200,180.62,962.97,1.00,1,1,1,430.55,-0.13,6896.62,567.00,0.02,7283.98,417.73,0.04,8595.47,232.47,0.05,14467.58,259.23,0.09,2451.02
480300,191.99,964.25,1.00,1,1,1,710.57,0.11,19304.81,385.21,0.12,11625.19,197.70,0.01,13681.47,90.87,0.15,8835.74,273.79,0.08,908.95
496200,192.87,964.39,1.00,1,1,1,55.82,0.16,41183.74,172.85,-3.09,35080.62,81.32,3.09,17541.39,39.15,2.79,7962.45,262.20,0.09,763.53
512300,186.47,963.99,1.00,1,1,1,398.37,-3.08,28195.81,547.68,-3.08,23284.01,375.59,-3.12,18296.38,36.77,2.92,344.18,230.20,0.12,2035.55
528100,175.43,963.25,1.00,1,1,1,699.83,-3.07,19080.13,579.03,-3.13,2662.65,487.37,3.12,7161.01,44.77,2.73,709.08,129.45,0.17,6398.74
544200,168.00,963.70,1.00,1,1,1,462.72,3.08,15396.14,432.69,3.02,10035.14,223.88,3.08,16387.67,109.64,3.03,4232.24,95.22,0.27,2229.86
560800,161.39,964.96,1.00,1,1,1,405.32,2.95,4813.19,31.08,1.13,26712.77,30.31,1.87,12964.86,84.41,2.87,1771.81,49.08,0.42,2852.13
592100,168.63,965.04,1.00,1,1,1,231.45,0.01,20249.65,282.27,0.05,8599.25,108.44,0.28,3614.95,28.29,1.74,2448.18,18.01,1.54,1412.65
608100,174.73,965.57,1.00,1,1,1,382.27,0.09,9526.76,242.71,0.13,2851.14,251.79,0.14,9076.97,45.52,0.73,2425.65,30.15,2.52,1565.76
624100,176.33,966.07,1.00,1,1,1,105.09,0.30,17534.89,211.82,0.31,3224.16,267.58,0.17,1147.92,99.60,0.36,3725.48,63.46,3.01,2477.35
640100,181.17,967.67,1.00,1,1,1,318.56,0.32,13343.35,292.03,0.20,5299.97,82.92,0.39,11721.90,113.47,0.23,1216.61,58.91,3.04,300.98
657100,185.77,968.02,1.00,1,1,1,271.21,0.08,5010.68,11.24,2.18,17448.80,91.50,0.45,579.56,42.87,0.68,4542.24,51.01,3.11,511.99
688200,180.86,968.11,1.00,1,1,1,157.77,3.12,13779.04,65.53,2.73,1809.86,32.06,2.58,3597.76,19.73,2.08,1417.50,43.00,-3.14,263.02
704200,182.93,969.25,1.00,1,1,1,147.74,0.50,18454.17,65.14,2.68,212.68,125.00,3.03,6069.79,22.17,2.96,1126.49,22.77,-2.99,1299.59
720100,179.00,969.03,1.00,1,1,1,247.84,-3.09,24300.23,187.21,3.13,8273.30,96.04,3.11,1912.07,39.33,-2.91,1318.78,16.27,-0.51,2325.98
752100,173.97,969.35,1.00,1,1,1,157.56,3.08,2914.37,121.86,-3.02,2136.63,129.36,-2.89,1411.88,95.57,-2.91,1757.56,14.01,0.11,292.77
768200,173.18,968.32,1.00,1,1,1,80.56,-2.22,8155.63,88.43,-1.98,6750.26,60.56,-2.52,4732.81,132.93,-2.88,2326.77,4.98,2.85,1162.40
784800,172.82,966.70,1.00,1,1,1,100.20,-1.79,2618.64,87.08,-0.85,5642.67,88.73,-2.13,2431.05,157.94,-2.85,1542.51,18.34,3.06,813.21
800500,175.03,966.21,1.00,1,1,1,144.21,-0.22,11172.08,91.07,-2.28,7415.11,187.02,-2.70,7811.11,102.60,-2.69,3749.96,39.33,-3.11,1351.95
816200,170.97,964.52,1.00,1,1,1,280.17,-2.75,25904.81,411.80,-2.91,21839.21,194.57,-2.81,1347.93,32.01,-1.90,5302.93,51.12,3.09,791.32
832100,162.36,963.25,1.00,1,1,1,547.36,-2.99,17864.29,311.37,-2.95,6379.53,157.24,-2.77,2383.10,18.40,-1.50,1048.03,39.53,3.02,751.27
848300,161.16,962.64,1.00,1,1,1,83.47,-2.67,28944.71,106.23,-0.20,25406.58,30.04,0.52,11544.42,14.36,-3.06,1433.92,12.96,3.02,1640.14
864200,165.70,962.56,1.00,1,1,1,286.06,-0.02,22769.49,369.87,0.24,17461.59,176.59,0.24,9300.02,41.13,2.96,1728.86,28.71,0.27,2576.86
880300,172.65,965.47,1.00,1,1,1,467.48,0.40,14599.58,261.57,0.42,7550.42,129.67,0.39,3203.65,30.38,1.73,2633.35,64.94,0.13,2284.03
896200,173.35,965.97,1.00,1,1,1,54.35,0.63,26084.23,44.96,2.63,18272.45,73.10,0.93,4842.14,65.94,0.71,3534.81,85.80,0.12,1312.29
928300,170.77,966.53,1.00,1,1,1,82.18,2.93,3901.13,89.98,2.84,1466.07,51.48,2.18,2338.00,134.89,0.37,2363.92,83.72,0.10,79.89
944300,169.21,967.25,1.00,1,1,1,107.19,2.71,2023.96,73.92,1.77,5285.76,64.27,2.40,1125.64,159.50,0.39,1543.69,64.39,0.09,1210.02
960200,170.29,968.84,1.00,1,1,1,120.95,0.97,10959.32,69.66,1.41,1637.63,141.45,0.36,11317.40,137.78,0.31,1533.74,73.17,0.11,563.45
976100,169.56,969.44,1.00,1,1,1,59.60,2.46,8189.02,280.58,0.10,17080.37,284.81,0.22,9183.28,163.69,0.22,1849.14,76.30,0.13,209.79
992200,179.23,969.71,1.00,1,1,1,600.97,0.03,40205.19,545.26,0.10,16440.42,334.89,0.13,3591.63,181.66,0.10,1695.89,28.81,0.33,3005.38
1008200,186.97,971.24,1.00,1,1,1,493.01,0.20,8822.19,389.76,0.15,9810.19,418.79,0.06,5459.39,168.76,0.02,1172.66,12.98,2.45,2328.41
1024000,191.49,971.56,1.00,1,1,1,286.64,0.07,13400.08,293.22,-0.01,7030.17,219.54,-0.03,12739.69,142.85,-0.08,1923.13,49.45,-3.14,2555.66
1040200,196.35,971.12,1.00,1,1,1,301.49,-0.09,3031.71,120.35,-0.43,11692.76,92.13,-0.48,8798.31,100.81,-0.20,2746.53,44.11,3.09,362.00
1072000,196.74,969.16,1.00,1,1,1,62.88,-1.37,9121.48,91.15,-2.28,5350.11,49.87,-1.24,2051.69,66.65,-2.73,5031.85,42.20,3.03,99.97
1088200,193.49,967.81,1.00,1,1,1,217.28,-2.75,13213.39,88.32,-2.62,1849.13,125.43,-2.72,8088.80,156.63,-2.89,5648.49,43.42,0.08,5261.46
1120100,193.06,967.03,1.00,2,2,2,27.79,-2.07,6155.52,172.86,-2.95,2941.99,343.01,-3.01,7064.88,214.94,-2.96,1870.75,29.68,0.15,438.24
1136100,185.36,966.22,1.00,2,2,2,483.89,-3.04,29287.15,735.03,-3.07,35247.38,386.69,-3.05,2933.08,229.20,-3.02,1185.23,67.62,3.07,6046.81
1152300,169.45,965.45,1.00,3,3,3,983.58,-3.09,30938.09,707.71,-3.09,1850.95,554.32,-3.10,10419.84,264.03,-3.11,2532.49,251.75,3.11,11372.09
1168200,162.67,965.09,1.00,1,1,1,426.63,-3.09,35028.74,371.87,-3.14,21179.64,396.45,3.13,10092.28,81.97,3.10,11471.62,372.33,3.13,7597.02
1184100,157.62,965.43,1.00,1,1,1,318.43,3.07,7355.42,97.77,2.62,18301.02,172.50,2.92,14474.23,114.55,2.93,2304.70,421.05,3.13,3064.07
1200200,159.95,966.64,1.00,1,1,1,162.96,0.48,28916.62,82.21,1.15,7531.48,300.20,0.17,28854.46,277.28,3.01,10147.97,383.83,3.13,2311.77
1216200,158.69,967.85,1.00,1,1,1,109.40,2.38,13989.85,676.65,0.08,40118.61,338.03,0.22,2588.47,492.73,3.04,13483.13,232.52,3.09,9484.81
1232400,181.68,968.29,1.00,1,1,1,1419.38,0.02,92525.68,632.55,0.11,3131.01,167.18,2.73,29830.64,650.37,3.06,9755.58,18.97,0.70,15231.57
1248100,178.74,970.15,1.00,1,1,1,221.67,2.58,102492.02,992.49,3.06,103028.31,813.87,3.06,41917.75,685.06,3.06,2214.39,312.70,0.05,18973.99
1264300,150.13,970.91,1.00,1,1,1,1766.62,3.12,97540.83,2242.93,3.12,77375.03,1600.77,3.11,48662.57,580.93,3.07,6433.17,688.03,0.03,23170.66
1280200,106.76,971.90,1.00,1,1,1,2728.23,3.12,60480.99,2212.52,3.13,2302.34,1694.49,3.12,6108.09,203.05,2.99,23829.07,1042.81,0.03,22317.97
1296100,79.78,971.98,1.00,2,2,2,1697.03,3.14,64911.90,1144.38,3.13,67179.18,1007.65,3.12,43198.09,113.15,0.19,19621.72,1421.59,0.02,23825.05
1312200,70.14,972.40,1.00,3,3,3,598.96,3.10,68250.45,189.75,0.01,82862.67,285.50,0.02,80311.67,689.29,0.01,35921.56,1790.43,0.02,22918.12
1328100,85.85,972.03,1.00,1,1,1,988.06,-0.02,99807.94,1230.74,-0.00,65471.64,1471.75,-0.01,74612.50,1545.73,0.01,53864.50,2108.70,0.01,20022.96
1360600,129.71,972.31,1.00,1,1,1,1349.62,0.01,11174.49,2324.65,-0.01,33659.68,2599.03,-0.01,34685.65,2268.37,0.00,22236.26,2265.49,0.01,4829.96
1376200,197.66,971.34,1.00,2,2,2,4356.32,-0.01,192764.17,4694.80,-0.01,151934.33,3581.86,0.00,63027.69,3075.51,0.00,51740.27,2389.83,0.01,7973.98
1392200,278.06,970.92,1.00,2,2,2,5024.91,-0.01,41870.19,5477.73,0.01,49218.21,4273.71,0.00,43240.75,3771.52,0.00,43503.56,2509.44,0.00,7504.62
1408100,372.40,972.62,1.00,2,2,2,5934.13,0.02,57738.53,3996.30,0.01,93180.23,4683.38,0.01,25797.25,4255.94,0.00,30466.99,2694.74,-0.00,11659.56
1440100,469.47,973.15,1.00,1,1,1,3033.56,0.01,90658.11,4155.47,0.01,5013.17,4945.62,0.01,8196.39,4484.16,0.00,7132.91,2870.94,-0.00,5506.15
1456100,571.86,973.97,1.00,1,1,1,6399.32,0.01,210360.91,6366.82,0.00,138222.96,4929.17,0.00,1568.34,4437.72,0.00,2910.39,2963.01,0.00,5755.54
1472100,673.21,973.30,1.00,1,1,1,6334.67,-0.01,7059.57,6086.23,-0.00,17581.72,4690.71,0.00,14916.15,4148.72,0.00,18064.50,3079.80,0.00,7309.18
1488200,767.22,973.48,1.00,1,1,1,5839.44,0.00,30927.77,3596.11,-0.00,154666.86,4192.79,-0.00,30943.30,3727.47,-0.00,26185.20,3167.35,0.00,5439.08
1521100,849.42,973.21,1.00,2,2,2,2498.33,-0.00,101555.36,2926.56,-0.01,20355.71,3353.97,-0.01,25498.40,3539.61,-0.00,5710.16,3344.56,0.00,5390.67
1536200,907.70,972.78,1.00,2,2,2,3859.63,-0.01,90156.37,2972.75,-0.02,3941.35,2522.98,-0.01,55051.07,2838.83,-0.00,46409.63,3233.07,0.01,7443.03
1552200,941.86,971.57,1.00,3,3,3,2136.28,-0.04,107826.58,1916.29,-0.03,66075.70,2062.11,-0.01,28804.81,2311.72,0.00,32967.86,2977.29,0.01,15999.17
1568100,968.79,970.67,1.00,1,1,1,1694.92,-0.03,27759.68,1177.16,-0.00,46578.77,1165.21,-0.01,56410.20,1957.06,0.00,22305.71,2491.48,0.01,30554.03
1584200,979.52,971.44,1.00,1,1,1,668.47,0.07,64130.83,439.98,0.10,46002.60,1006.21,0.04,10481.80,1906.77,0.02,3420.20,2253.81,0.01,14762.77
1601000,983.20,972.06,1.00,1,1,1,221.74,0.17,26679.44,837.75,0.11,23680.63,1253.42,0.05,14720.29,1726.69,0.03,10868.57,1818.47,0.01,25913.48
1616100,1006.09,974.32,1.00,1,1,1,1523.60,0.10,86256.02,2111.80,0.04,84593.77,1755.73,0.05,33265.66,1513.37,0.05,14283.49,1346.51,0.01,31256.19
1632200,1049.04,974.60,1.00,1,1,1,2667.37,0.01,71959.99,2667.01,0.03,34502.25,2304.87,0.05,34113.14,1129.22,0.07,23917.69,855.67,0.00,30493.24
1648300,1091.93,976.99,1.00,1,1,1,2668.24,0.06,8108.77,2494.14,0.07,12136.70,2019.81,0.06,17709.56,970.50,0.08,9863.71,369.12,-0.04,30254.25
1664100,1128.42,979.89,1.00,1,1,1,2317.09,0.08,22533.26,1367.04,0.11,71489.18,1031.22,0.09,62666.11,788.07,0.08,11546.38,162.21,-2.95,33443.76
1680100,1135.16,981.62,1.00,1,1,1,434.26,0.25,118168.02,90.18,0.63,80609.81,344.18,0.19,43094.19,383.30,0.07,25300.78,662.74,-3.08,31395.39
1713000,1131.99,982.49,1.00,1,1,1,99.91,2.87,15906.24,336.36,3.10,12488.22,408.53,3.11,22742.06,246.49,-3.13,19136.44,1272.80,-3.11,18554.98
1728300,1118.96,982.26,1.00,1,1,1,851.83,-3.12,49446.68,1163.90,-3.09,54204.38,922.70,-3.09,33743.32,989.91,-3.09,48605.97,1886.93,-3.12,40159.98
1744200,1095.71,980.77,1.00,1,1,1,1464.74,-3.08,38684.64,1808.42,-3.07,40606.91,1881.35,-3.07,60319.59,1827.50,-3.08,52680.32,788.07,0.08,168188.56
1760300,1061.24,978.00,1.00,1,1,1,2147.94,-3.06,42471.84,2583.50,-3.06,48152.40,2651.45,-3.07,47837.49,2401.17,-3.09,35632.99,383.30,0.07,25143.63
1776100,1013.57,974.09,1.00,2,2,2,3027.34,-3.06,55659.25,3491.86,-3.06,57496.20,3586.33,-3.07,59179.00,3699.42,-3.09,82184.66,246.49,-3.13,39847.40
1792400,949.49,969.38,1.00,2,2,2,3942.18,-3.07,56153.84,4561.86,-3.08,65714.62,3885.23,-3.08,18568.10,4456.18,-3.11,46543.74,989.91,-3.09,45624.00
1808900,864.25,964.44,1.00,3,3,3,5174.28,-3.08,74792.47,4150.08,-3.09,25391.11,5128.61,-3.10,75502.74,3586.33,-3.07,53456.23,1827.50,-3.08,50764.67
1840200,751.33,960.10,1.00,1,1,1,3610.45,-3.10,50035.16,5521.41,-3.12,43922.54,5662.00,-3.12,17369.63,3885.23,-3.08,9669.65,2401.17,-3.09,18328.79
1856400,602.08,957.49,1.00,1,1,1,9214.45,-3.12,346005.89,7160.45,-3.14,101491.41,5521.41,-3.12,8898.90,5128.61,-3.10,76900.94,3699.42,-3.09,80155.40
1888500,405.49,958.06,1.00,1,1,1,6124.41,3.14,96381.60,6124.41,3.14,32326.75,7160.45,-3.14,51219.96,5662.00,-3.12,16936.74,4456.18,-3.11,23634.36
