@RELATION gaze_labels

%@METADATA width_px 1920
%@METADATA height_px 1080
%@METADATA width_mm 540.00
%@METADATA height_mm 254.00
%@METADATA distance_mm 620.00


@ATTRIBUTE time INTEGER
@ATTRIBUTE x NUMERIC
@ATTRIBUTE y NUMERIC
@ATTRIBUTE confidence NUMERIC
@ATTRIBUTE handlabeller1 INTEGER
@ATTRIBUTE handlabeller2 INTEGER
@ATTRIBUTE handlabeller_final INTEGER
@ATTRIBUTE speed_1 numeric
@ATTRIBUTE direction_1 numeric
@ATTRIBUTE acceleration_1 numeric
@ATTRIBUTE speed_2 numeric
@ATTRIBUTE direction_2 numeric
@ATTRIBUTE acceleration_2 numeric
@ATTRIBUTE speed_4 numeric
@ATTRIBUTE direction_4 numeric
@ATTRIBUTE acceleration_4 numeric
@ATTRIBUTE speed_8 numeric
@ATTRIBUTE direction_8 numeric
@ATTRIBUTE acceleration_8 numeric
@ATTRIBUTE speed_16 numeric
@ATTRIBUTE direction_16 numeric
@ATTRIBUTE acceleration_16 numeric

%The number after speed, direction denotes the step size that was used for the calculation.
%Acceleration was calculated between two adjacent samples of the already low pass filtered velocity

@DATA
0,994.09,963.92,1.00,0,0,0,0.00,0.00,0.00,3182.41,-0.11,0.00,1576.03,-0.15,0.00,789.93,-0.35,0.00,1207.44,-2.98,0.00
16000,1044.71,958.42,1.00,0,0,0,3182.41,-0.11,198900.56,1576.03,-0.15,100550.19,629.07,-0.39,61029.34,443.42,-2.55,69374.13,2089.88,-3.07,55913.53
49000,1070.47,952.57,1.00,0,0,0,800.69,-0.22,72388.75,629.07,-0.39,29589.98,789.93,-0.35,4938.67,1701.58,-2.99,39850.97,3184.51,-3.11,33309.25
64000,1072.67,947.02,1.00,0,0,0,397.80,-1.19,44209.26,646.16,-2.60,75998.23,443.42,-2.55,73999.08,2753.57,-3.08,71132.39,3768.45,-3.13,39299.94
79900,1053.37,942.26,1.00,0,0,0,1249.83,-2.90,85633.15,1816.69,-3.00,78369.97,1701.58,-2.99,82709.56,1207.44,-2.98,97876.49,4155.64,3.13,24683.12
95900,1015.32,938.63,1.00,0,0,0,2388.76,-3.05,72914.14,2724.12,-3.08,57800.06,2753.57,-3.08,66686.61,2089.88,-3.07,55913.53,4285.27,3.12,8760.57
113600,961.76,936.31,1.00,0,0,0,3028.95,-3.10,37012.80,3687.17,-3.11,54817.83,3606.51,-3.11,48651.43,3184.51,-3.11,62101.99,4281.97,3.11,2970.50
128200,896.27,935.34,1.00,0,0,0,4485.98,-3.13,100058.68,4591.26,-3.14,62267.50,4228.16,-3.14,43029.92,3768.45,-3.13,40376.65,4071.83,3.10,14585.55
143900,822.65,935.68,1.00,0,0,0,4689.57,3.14,14157.80,4781.07,3.13,13087.34,4736.15,3.13,32707.64,4155.64,3.13,24997.56,2253.63,-3.13,116182.59
159900,744.72,937.21,1.00,0,0,0,4871.11,3.12,12182.36,4873.97,3.12,7071.57,4798.57,3.12,5567.24,4285.27,3.12,8760.57,2515.93,3.14,16500.10
176000,666.24,939.71,1.00,0,0,0,4877.00,3.11,3736.75,4816.64,3.10,4951.15,4708.95,3.11,6390.38,4281.97,3.11,3265.70,2652.17,3.13,8616.42
191900,590.70,942.93,1.00,0,0,0,4755.66,3.10,8306.01,4543.38,3.10,17383.18,4345.02,3.10,23057.59,4071.83,3.10,13393.02,2693.86,3.12,3007.94
207900,521.46,946.37,1.00,1,1,1,4332.48,3.09,26523.79,3875.22,3.09,41831.21,3841.41,3.08,31642.81,3319.01,3.09,47089.68,2632.04,3.11,3989.88
224000,466.49,949.81,1.00,1,1,1,3420.96,3.08,56698.21,3144.60,3.07,45583.89,3350.00,3.08,30549.41,2952.23,3.08,22859.14,2522.88,3.11,6817.13
240000,420.81,953.95,1.00,1,1,1,2867.12,3.05,35046.28,2821.80,3.07,20174.92,2208.01,3.07,71389.58,2235.34,3.07,44833.41,2377.61,3.10,9100.90
255900,376.73,956.58,1.00,1,1,1,2776.87,3.08,7882.18,1580.37,3.07,78082.60,1834.39,3.06,23548.34,1839.07,3.06,24947.92,2209.99,3.10,10548.27
287900,345.29,959.15,1.00,1,1,1,985.99,3.06,55976.15,1177.02,3.04,12672.48,1163.97,3.05,20953.38,1415.93,3.06,13225.57,1995.19,3.10,6714.17
303800,320.63,962.18,1.00,1,1,1,1562.20,3.02,36380.16,749.78,3.00,26983.36,832.55,3.03,20888.83,1111.50,3.06,19149.28,1753.13,3.09,15233.69
335900,309.65,964.21,1.00,1,1,1,347.81,2.96,37857.30,489.96,2.99,8095.75,624.37,3.02,6486.29,881.86,3.08,7172.84,1527.96,3.09,7016.47
351900,297.33,965.69,1.00,1,1,1,775.89,3.02,26835.58,437.30,3.08,4198.66,390.64,3.09,14767.63,729.55,3.10,9569.14,1229.86,3.09,18631.17
367900,295.69,965.04,1.00,1,1,1,110.31,-2.77,42546.79,255.82,-2.89,13025.35,469.43,-3.09,5596.90,671.69,3.13,3801.19,1021.81,3.09,13003.10
383800,289.42,963.68,1.00,1,1,1,403.38,-2.93,18554.77,505.34,-3.00,15868.84,586.55,-3.03,7625.06,556.77,-3.13,7288.39,869.61,3.09,9572.96
400900,279.18,962.65,1.00,1,1,1,601.63,-3.04,12041.05,912.18,-3.07,23955.72,739.38,-3.05,8961.74,646.55,-3.12,5276.14,759.51,3.10,6439.99
416500,259.67,961.49,1.00,1,1,1,1252.96,-3.08,41816.09,989.56,-3.08,4979.29,765.43,-3.10,2851.83,556.89,-3.09,5821.44,643.28,3.10,7452.81
431900,248.57,960.61,1.00,1,1,1,722.83,-3.06,34445.89,613.54,-3.14,24627.48,829.57,-3.13,4592.48,590.65,-3.11,2270.73,576.62,3.10,4328.79
447900,240.41,961.43,1.00,1,1,1,513.10,3.04,14778.26,678.47,3.07,5097.82,534.56,3.13,18450.46,603.16,-3.13,1123.17,503.75,3.11,4563.00
463900,226.92,962.21,1.00,2,2,2,844.14,3.08,20766.28,483.04,3.13,12386.07,476.00,3.10,3823.13,622.03,3.12,1743.55,458.34,3.11,2848.11
496000,217.17,961.81,1.00,1,1,1,303.89,-3.10,16901.10,345.06,3.14,4301.49,474.16,3.11,133.79,556.42,3.10,2075.36,416.55,3.12,1309.00
513200,209.91,962.26,1.00,1,1,1,423.17,3.08,7255.69,461.12,3.08,6890.04,459.15,3.07,1244.46,499.55,3.07,3442.70,420.19,3.11,393.67
528000,202.45,962.74,1.00,1,1,1,505.23,3.08,5545.31,645.08,3.02,12619.57,578.77,3.07,8086.40,461.22,3.06,2594.16,442.42,3.11,1502.66
543800,190.32,964.67,1.00,1,1,1,777.35,2.98,17612.89,657.23,3.06,1917.78,519.99,3.04,3808.99,334.23,3.05,8045.52,427.96,3.11,915.98
576000,171.00,965.25,1.00,1,1,1,600.17,3.11,6127.85,460.98,3.06,6094.81,451.13,3.02,2157.11,304.01,3.03,964.29,399.95,3.10,874.51
608500,160.59,967.11,1.00,1,1,1,325.31,2.97,8686.65,246.27,2.93,6751.21,245.51,3.02,6327.61,281.18,3.00,739.56,460.13,3.11,1853.33
623900,159.48,967.78,1.00,1,1,1,84.57,2.60,16125.43,54.98,0.41,19006.58,77.69,2.77,11111.77,311.71,3.05,2199.67,599.24,3.12,9043.91
656000,162.99,968.14,1.00,1,1,1,109.97,0.10,5751.90,95.34,0.03,1508.46,26.98,1.26,2513.99,283.56,3.10,986.52,737.56,3.13,4313.90
671900,164.05,967.94,1.00,1,1,1,67.90,-0.18,3063.86,63.06,2.62,9591.17,145.63,-3.14,9816.09,258.08,3.11,1624.05,883.79,3.13,9197.34
688000,161.24,969.15,1.00,1,1,1,189.86,2.74,15933.45,505.91,-3.13,28130.56,339.51,-3.10,12053.86,417.60,-3.12,9962.42,924.18,3.14,2510.86
704000,147.81,967.73,1.00,1,1,1,844.08,-3.04,42805.67,531.69,-3.06,2860.29,480.75,-3.10,8828.76,751.91,-3.12,20894.31,861.24,3.13,3938.51
735800,135.92,966.97,1.00,2,2,2,374.68,-3.08,14779.31,464.09,-3.08,2172.96,842.28,-3.09,11373.35,1276.23,-3.12,16488.24,680.62,3.13,5681.69
751900,125.62,966.47,1.00,2,2,2,640.72,-3.09,16530.43,1305.42,-3.11,52267.11,1354.45,-3.12,31878.29,1594.65,-3.12,19779.54,410.49,3.10,16802.74
767900,94.05,965.50,1.00,3,3,3,1974.35,-3.11,83361.89,2659.17,-3.13,84643.28,2433.49,-3.12,67444.00,1709.52,-3.12,7191.13,58.85,2.86,22093.87
784600,38.68,965.19,1.00,1,1,1,3315.66,-3.14,80411.16,3547.98,-3.13,53228.52,2987.17,-3.13,33160.52,1534.95,-3.13,10499.89,328.54,0.06,23033.64
800400,-21.26,964.32,1.00,1,1,1,3793.60,-3.13,30318.80,3329.86,-3.13,13808.38,2794.69,-3.13,12207.07,1275.96,3.14,16461.53,787.67,0.03,29069.52
815900,-65.54,963.98,1.00,1,1,1,2857.17,-3.13,60433.87,2015.03,-3.14,84832.57,1765.04,3.14,66443.98,620.16,3.09,42390.89,1228.58,0.02,28449.42
831800,-84.53,963.94,1.00,1,1,1,1194.08,-3.14,104598.31,238.26,2.97,112020.41,114.23,2.61,104860.76,345.52,0.13,60502.06,1567.58,0.02,21327.95
847900,-73.05,965.30,1.00,1,1,1,717.86,0.12,118567.15,1780.28,0.07,124986.11,1755.00,0.06,114982.22,1539.13,0.04,74259.21,1812.94,0.02,15240.60
863900,-27.52,967.97,1.00,1,1,1,2850.37,0.06,133389.40,3748.47,0.04,123087.07,2843.89,0.04,68134.55,2863.04,0.03,82756.23,1992.23,0.02,11205.69
879800,46.41,970.57,1.00,2,2,2,4652.71,0.04,113481.34,3554.70,0.02,13065.21,4149.62,0.02,82157.09,4051.78,0.02,74772.38,1990.60,0.01,240.32
912000,143.41,971.99,1.00,2,2,2,3012.79,0.01,50984.64,4415.88,0.01,26777.04,5209.97,0.02,32946.10,4840.10,0.02,24484.48,2149.92,0.01,4947.95
928000,259.24,973.30,1.00,3,3,3,7239.64,0.01,264180.12,7698.24,0.01,205147.23,5885.29,0.01,42245.79,5158.49,0.01,19943.11,2226.97,0.01,4821.06
944000,389.73,975.04,1.00,1,1,1,8156.85,0.01,57333.24,8105.53,0.01,25466.79,7350.21,0.01,91560.34,4607.01,0.01,34483.65,2434.81,0.01,12995.85
959900,517.79,976.11,1.00,1,1,1,8053.94,0.01,6941.38,7000.04,0.01,69546.09,6423.60,0.01,58303.93,3885.91,0.01,45367.93,2627.74,0.01,12134.43
975800,612.33,976.70,1.00,1,1,1,5946.15,0.01,132568.81,4747.19,-0.00,141733.57,4003.53,0.00,152210.03,3777.32,0.00,6851.57,2845.37,0.02,13688.45
991900,669.70,975.76,1.00,1,1,1,3563.68,-0.02,148121.09,2026.76,-0.01,168975.19,2217.93,-0.01,110918.77,2787.97,0.00,61454.13,3025.75,0.02,11204.29
1024000,710.02,975.83,1.00,1,1,1,1256.03,0.00,71899.30,953.37,-0.02,33440.58,1408.19,-0.02,25233.14,2085.94,0.00,21869.99,3079.15,0.02,1664.86
1055900,730.70,974.75,1.00,1,1,1,649.44,-0.05,19076.12,787.32,-0.04,5244.68,715.89,-0.03,21704.37,1466.80,-0.00,19408.93,3012.67,0.02,2086.10
1072000,747.78,974.31,1.00,1,1,1,1060.72,-0.03,25581.33,400.21,-0.06,24055.47,489.63,-0.01,14075.99,1214.32,0.01,15690.40,2976.39,0.02,2261.60
1104000,749.92,973.57,1.00,2,2,2,70.80,-0.33,31044.88,194.95,0.13,6637.37,572.45,0.03,2648.86,1280.82,0.02,2173.43,2571.86,0.02,12641.62
1120100,757.07,975.57,1.00,2,2,2,461.09,0.27,25143.99,831.46,0.09,39548.88,982.17,0.05,25461.62,1548.76,0.03,16678.33,2232.10,0.01,21117.70
1136500,776.83,976.07,1.00,2,2,2,1205.06,0.03,46725.22,2174.20,0.03,82012.46,2274.25,0.05,78786.31,1945.12,0.05,24197.65,1870.28,0.01,22077.60
1151900,826.17,977.95,1.00,3,3,3,3206.34,0.04,129963.11,3768.57,0.04,103535.19,3147.32,0.04,56700.43,2086.64,0.05,9197.19,1645.55,-0.00,14641.62
1167900,895.07,980.76,1.00,1,1,1,4309.73,0.04,68964.47,4117.56,0.05,21939.11,3693.07,0.05,34127.18,2309.07,0.04,13913.44,1507.60,-0.02,8705.55
1183800,957.36,984.41,1.00,1,1,1,3924.51,0.06,24666.47,3619.10,0.06,31445.39,3467.68,0.05,14175.60,2411.45,0.03,7043.71,1488.28,-0.04,2200.99
1199800,1010.31,987.61,1.00,1,1,1,3315.61,0.06,38057.57,2819.83,0.05,49989.30,2336.89,0.04,70691.26,2367.24,0.01,3444.90,1582.51,-0.05,6055.97
1215800,1047.48,988.93,1.00,1,1,1,2324.46,0.04,62094.57,1489.36,0.01,83304.24,1827.29,-0.00,32291.14,2172.66,-0.01,12562.89,1581.73,-0.07,1569.67
1248000,1082.09,988.40,1.00,1,1,1,1075.12,-0.02,38879.54,1173.17,-0.08,10520.90,1326.16,-0.07,15939.93,1786.95,-0.05,12216.34,1678.40,-0.08,3077.60
1263900,1103.72,984.36,1.00,1,1,1,1383.83,-0.18,23346.46,1103.04,-0.24,12254.06,1157.85,-0.15,12407.77,1430.59,-0.12,23504.15,1599.49,-0.10,5450.84
1279900,1116.26,980.00,1.00,1,1,1,829.83,-0.33,36053.00,1147.00,-0.27,3335.22,1140.90,-0.28,9377.22,1243.77,-0.20,13483.59,1321.28,-0.13,17566.16
1296000,1139.23,974.62,1.00,1,1,1,1465.07,-0.23,40097.04,1180.67,-0.33,4634.09,989.10,-0.40,12140.57,1117.18,-0.28,9841.47,955.28,-0.20,23199.76
1311900,1152.07,967.94,1.00,2,2,2,910.24,-0.48,39303.30,854.10,-0.58,26076.75,1174.35,-0.38,11702.01,1039.15,-0.40,9101.75,471.05,-0.43,32061.71
1327900,1162.02,959.68,1.00,2,2,2,807.92,-0.69,13041.27,1172.22,-0.44,21625.87,1093.57,-0.45,6947.25,787.63,-0.55,18041.13,221.95,-2.06,33268.30
1344000,1186.05,951.77,1.00,2,2,2,1571.33,-0.32,54098.04,1344.51,-0.37,12143.30,952.76,-0.53,9986.41,448.84,-0.95,25710.05,633.25,-2.83,30874.33
1359800,1202.00,944.16,1.00,2,2,2,1118.72,-0.45,30569.71,742.02,-0.66,42319.78,615.84,-0.80,24969.75,460.15,-2.28,35479.84,1039.79,-2.96,26641.22
1375800,1204.66,937.27,1.00,2,2,2,461.47,-1.20,52794.54,552.52,-2.35,60903.65,507.57,-2.49,52833.27,979.06,-2.82,39390.23,1430.44,-3.02,24791.83
1391900,1189.57,931.50,1.00,2,2,2,1003.41,-2.78,68700.33,1076.20,-2.95,43095.40,1347.92,-2.96,57350.00,1490.81,-3.00,34311.60,787.63,-0.55,130626.65
1424100,1153.67,927.18,1.00,2,2,2,1123.02,-3.02,8882.51,1959.66,-3.07,27975.65,2334.20,-3.07,31228.54,2242.61,-3.07,23776.15,448.84,-0.95,12855.02
1439800,1095.96,924.56,1.00,2,2,2,3679.48,-3.10,163115.22,4262.02,-3.12,146923.09,2740.79,-3.12,26983.29,2908.74,-3.12,42941.87,460.15,-2.28,35705.83
1455900,1018.18,923.77,1.00,2,2,2,4831.38,-3.13,72143.26,3515.83,3.14,46794.68,4064.08,3.14,82377.01,3316.60,-3.14,25822.90,979.06,-2.82,39145.57
1488300,925.44,924.84,1.00,2,2,2,2862.41,3.13,60821.50,3936.24,3.12,13149.49,4488.93,3.12,13348.18,2740.79,-3.12,17920.77,1490.81,-3.00,17049.90
1504500,826.92,927.64,1.00,2,2,2,6084.32,3.11,198930.22,5984.26,3.10,126522.62,4308.26,3.10,12189.02,4064.08,3.14,81868.51,2242.61,-3.07,47258.78
1519900,736.47,931.87,1.00,1,1,1,5879.52,3.09,15082.02,4884.50,3.08,71906.14,5984.26,3.10,108831.71,4488.93,3.12,28083.19,2908.74,-3.12,43778.40
1536000,673.34,937.04,1.00,1,1,1,3934.17,3.06,121280.71,3934.17,3.06,59292.79,4884.50,3.08,68779.79,4308.26,3.10,12264.73,3316.60,-3.14,25822.90
