@RELATION gaze_labels

%@METADATA width_px 1920
%@METADATA height_px 1080
%@METADATA width_mm 540.00
%@METADATA height_mm 254.00
%@METADATA distance_mm 620.00


@ATTRIBUTE time INTEGER
@ATTRIBUTE x NUMERIC
@ATTRIBUTE y NUMERIC
@ATTRIBUTE confidence NUMERIC
@ATTRIBUTE handlabeller1 INTEGER
@ATTRIBUTE handlabeller2 INTEGER
@ATTRIBUTE handlabeller_final INTEGER
@ATTRIBUTE speed_1 numeric
@ATTRIBUTE direction_1 numeric
@ATTRIBUTE acceleration_1 numeric
@ATTRIBUTE speed_2 numeric
@ATTRIBUTE direction_2 numeric
@ATTRIBUTE acceleration_2 numeric
@ATTRIBUTE speed_4 numeric
@ATTRIBUTE direction_4 numeric
@ATTRIBUTE acceleration_4 numeric
@ATTRIBUTE speed_8 numeric
@ATTRIBUTE direction_8 numeric
@ATTRIBUTE acceleration_8 numeric
@ATTRIBUTE speed_16 numeric
@ATTRIBUTE direction_16 numeric
@ATTRIBUTE acceleration_16 numeric

%The number after speed, direction denotes the step size that was used for the calculation.
%Acceleration was calculated between two adjacent samples of the already low pass filtered velocity

@DATA
0,566.10,951.87,1.00,1,1,1,0.00,0.00,0.00,1297.60,0.15,0.00,1437.27,0.10,0.00,1404.46,0.07,0.00,1119.83,-3.11,0.00
32300,607.55,958.09,1.00,1,1,1,1297.60,0.15,40173.45,1437.27,0.10,4746.18,1804.39,0.05,11715.01,661.62,0.00,23080.59,2432.76,-3.10,40652.60
64000,657.60,961.30,1.00,1,1,1,1582.17,0.06,9763.55,1804.39,0.05,11936.75,1404.46,0.07,12658.15,680.61,-3.02,42262.41,4142.64,-3.11,53940.42
80000,693.53,962.02,1.00,1,1,1,2245.90,0.02,41801.78,1344.82,-0.01,29257.77,661.62,0.00,46593.93,2415.06,-3.08,108524.10,5417.42,-3.11,79687.60
96000,700.63,960.80,1.00,1,1,1,450.54,-0.17,112845.33,467.31,-2.97,112894.95,680.61,-3.02,83732.40,1119.83,-3.11,81018.29,6320.17,-3.12,56448.97
128500,671.20,958.15,1.00,2,2,2,909.38,-3.05,41530.76,2020.75,-3.08,47906.51,2415.06,-3.08,53427.25,2432.76,-3.10,40402.43,7668.39,-3.12,41500.71
144200,603.43,954.57,1.00,2,2,2,4322.27,-3.09,217432.11,5409.59,-3.10,215888.07,4148.23,-3.10,110441.37,4142.64,-3.11,108911.56,7645.87,-3.12,2514.53
160100,500.42,950.54,1.00,2,2,2,6483.46,-3.10,135999.04,7373.82,-3.11,123600.29,7112.61,-3.11,186465.37,5417.42,-3.11,80188.78,7138.83,-3.13,32019.07
176000,369.08,946.46,1.00,2,2,2,8264.30,-3.11,112065.93,8794.82,-3.11,89438.65,8505.00,-3.11,87630.73,6320.17,-3.12,56803.99,3066.02,-3.13,256152.81
192100,219.10,942.74,1.00,3,3,3,9318.83,-3.12,65583.87,9632.96,-3.12,52157.13,9135.98,-3.12,39305.87,7668.39,-3.12,83774.72,3302.27,-3.13,14686.43
207900,61.87,939.67,1.00,1,1,1,9953.13,-3.12,40278.16,9470.10,-3.12,10785.61,9015.19,-3.12,8179.24,7645.87,-3.12,2498.62,3549.63,-3.13,15659.42
224800,-90.53,937.52,1.00,1,1,1,9018.57,-3.13,55380.74,8410.94,-3.13,62742.92,8222.70,-3.13,47042.53,7138.83,-3.13,30124.45,3601.13,-3.13,3059.34
240500,-212.31,936.60,1.00,1,1,1,7756.97,-3.13,80434.04,6915.96,3.14,95400.23,6793.21,-3.14,91100.33,5425.39,-3.14,109182.54,3640.08,-3.13,2483.15
256000,-306.31,937.69,1.00,1,1,1,6064.72,3.13,109504.06,5119.73,3.13,115942.81,5096.04,3.13,109621.64,4269.02,3.13,74670.87,3788.54,-3.13,9579.58
272000,-373.57,938.26,1.00,1,1,1,4204.29,3.13,116280.74,3322.62,3.11,112441.99,2559.10,3.10,158681.55,2960.35,3.12,81851.27,3612.86,-3.13,10988.68
288000,-412.58,940.95,1.00,1,1,1,2443.76,3.07,110693.44,925.49,3.00,150276.39,1121.68,3.03,90148.55,1769.24,3.09,74574.25,3071.72,-3.14,33825.88
321200,-418.68,944.50,1.00,1,1,1,212.50,2.61,67926.52,377.56,0.37,38233.96,174.05,0.87,36959.42,949.60,3.04,24752.26,2606.61,-3.14,14013.83
336100,-395.62,947.45,1.00,1,1,1,1559.98,0.13,116336.77,1761.10,0.08,94140.10,871.79,0.14,50414.50,389.62,2.95,37758.99,2062.47,3.14,36524.72
352000,-364.62,948.92,1.00,1,1,1,1952.23,0.05,26169.45,1636.16,0.06,8076.73,1126.73,0.08,16531.65,70.84,2.12,21775.11,1619.42,3.13,27875.06
368000,-343.54,950.79,1.00,1,1,1,1322.73,0.09,39557.74,518.13,0.06,69877.02,518.33,0.02,38111.39,182.10,0.18,13611.20,1194.66,3.13,26549.08
384100,-348.02,949.95,1.00,1,1,1,283.16,-2.96,99676.69,558.12,-3.00,66798.71,224.45,-3.01,46074.53,261.71,0.04,5311.70,813.35,3.12,23696.70
401200,-361.89,948.24,1.00,1,1,1,817.38,-3.02,31289.82,968.70,-3.05,24080.48,508.04,-3.03,16589.01,78.49,-2.93,19837.56,482.26,3.10,19373.83
416100,-378.87,946.99,1.00,1,1,1,1143.00,-3.07,22088.88,472.72,-3.05,33287.70,420.95,-3.02,5849.98,413.16,-3.07,22532.52,200.31,3.01,19015.98
448000,-383.91,946.14,1.00,3,3,3,160.16,-2.98,30834.92,57.19,-2.71,13139.76,486.11,-3.07,2149.31,684.08,-3.06,8494.24,48.45,0.53,7536.37
463900,-381.36,945.84,1.00,1,1,1,161.82,-0.12,20049.39,499.31,-3.08,28085.11,539.73,-3.09,3480.48,695.91,-3.08,978.28,285.79,0.07,15297.67
496100,-407.89,944.76,1.00,1,1,1,824.68,-3.10,30584.92,1023.59,-3.11,16295.40,860.93,-3.09,9975.77,572.85,-3.10,3837.72,385.15,0.03,3108.84
512000,-430.57,944.46,1.00,1,1,1,1426.73,-3.13,37912.17,1407.92,-3.09,24241.98,970.93,-3.11,6998.40,344.15,-3.13,14415.22,414.24,0.03,1831.78
527900,-452.60,942.41,1.00,1,1,1,1391.37,-3.05,7427.80,891.90,-3.09,32454.59,702.39,-3.13,16935.37,111.06,3.00,14773.02,409.42,0.03,304.41
544000,-459.08,943.05,1.00,1,1,1,404.37,3.04,61948.84,56.71,1.66,55356.48,60.89,2.61,40438.26,309.92,0.10,26005.53,492.19,0.03,5142.76
560000,-452.77,944.22,1.00,1,1,1,401.09,0.18,49841.12,790.37,0.13,49379.23,820.96,0.11,54400.38,963.22,0.05,40862.37,644.00,0.05,9499.48
576100,-433.94,946.44,1.00,1,1,1,1177.87,0.12,48329.84,1629.22,0.08,52252.63,1912.12,0.06,67902.21,1448.24,0.04,30132.04,857.73,0.05,13276.41
592600,-399.82,948.36,1.00,2,2,2,2071.01,0.06,54440.11,3043.77,0.04,85892.84,2623.22,0.04,43164.26,1621.49,0.05,10526.59,1146.71,0.05,17514.52
608000,-336.91,950.22,1.00,2,2,2,4086.51,0.03,130973.46,3653.64,0.02,39737.23,2952.45,0.03,21443.30,1811.28,0.05,12338.95,1416.02,0.04,17495.95
624100,-284.76,951.10,1.00,3,3,3,3239.72,0.02,52674.65,2861.58,0.02,49196.06,2274.63,0.03,42101.20,1985.90,0.05,10846.49,1939.92,0.04,32546.80
640000,-245.37,952.42,1.00,1,1,1,2478.88,0.03,47944.92,1369.93,0.05,93865.64,1730.86,0.03,34199.42,2192.89,0.04,13021.91,2424.53,0.03,30489.27
672100,-219.08,954.31,1.00,1,1,1,820.99,0.07,51675.51,977.30,0.05,12231.90,1474.67,0.05,8033.86,2413.15,0.04,6867.06,2787.21,0.03,11298.72
688000,-198.52,954.88,1.00,1,1,1,1293.59,0.03,29860.01,1632.31,0.06,41196.45,1587.34,0.06,7126.94,2522.68,0.03,6929.02,3222.55,0.02,27387.54
704000,-167.10,957.24,1.00,1,1,1,1969.78,0.08,42525.23,2499.60,0.06,54216.10,2585.60,0.05,62416.37,2808.85,0.03,17899.51,3412.45,0.02,11875.68
720100,-118.45,960.06,1.00,1,1,1,3026.31,0.06,65674.11,3536.04,0.04,64514.63,3510.92,0.04,57511.65,3291.92,0.02,30026.82,3664.58,0.02,15669.32
736000,-54.04,961.95,1.00,1,1,1,4052.90,0.03,64870.32,4527.10,0.02,62599.23,4475.12,0.02,60738.18,3955.95,0.02,41780.58,3776.16,0.02,7031.02
752100,26.39,962.76,1.00,1,1,1,4995.84,0.01,58815.85,5415.41,0.01,55271.42,5427.07,0.01,59212.95,4632.41,0.02,42019.64,3722.69,0.02,3324.49
768000,119.25,963.33,1.00,2,2,2,5840.28,0.01,53125.87,6327.26,0.01,57357.69,5051.61,0.01,23639.74,4696.98,0.01,4131.96,3657.10,0.02,4125.97
784100,228.86,963.83,1.00,2,2,2,6808.20,0.00,60122.50,4809.08,0.01,94298.95,5530.59,0.01,29750.03,4989.81,0.01,18207.89,3596.12,0.02,3796.64
816000,350.08,964.97,1.00,3,3,3,3800.15,0.01,94299.53,5000.59,0.01,6011.00,4845.01,0.01,21494.60,4998.44,0.01,390.67,3765.56,0.02,5312.32
832200,469.38,966.01,1.00,1,1,1,7364.44,0.01,220018.00,4880.98,0.01,7443.42,4698.30,0.01,9073.51,4803.90,0.01,12009.17,3733.86,0.02,1967.20
864000,584.35,967.82,1.00,1,1,1,3615.86,0.02,117885.12,4394.79,0.01,15292.42,4945.28,0.01,7766.44,4419.35,0.01,12092.87,3701.10,0.02,1041.38
880100,679.87,969.04,1.00,1,1,1,5933.30,0.01,143942.67,5041.73,0.01,40199.25,4075.45,0.01,54029.96,3869.99,0.01,34140.07,3814.26,0.02,7034.51
896000,745.67,969.51,1.00,1,1,1,4138.99,0.01,112863.66,3597.44,0.01,90837.26,3782.85,0.01,18410.12,3575.31,0.02,18575.45,3897.39,0.02,5228.84
912100,794.98,970.42,1.00,1,1,1,3062.72,0.02,66897.15,2531.80,0.01,66189.03,2629.57,0.02,71666.35,2832.88,0.03,46128.61,3909.80,0.02,827.42
928200,827.19,970.57,1.00,1,1,1,2000.99,0.00,65981.04,1665.36,0.05,53974.25,1863.80,0.05,47690.30,2457.44,0.03,23330.34,3809.79,0.02,6213.29
944200,848.38,972.85,1.00,1,1,1,1331.84,0.11,43109.40,1192.32,0.12,30341.80,1281.11,0.07,36510.85,2345.30,0.03,7040.42,3566.18,0.02,15226.96
960000,864.82,975.22,1.00,2,2,2,1051.40,0.14,17952.19,895.33,0.13,18802.43,1128.77,0.09,9750.33,2521.88,0.04,11196.80,3164.31,0.02,25437.83
976000,876.61,976.54,1.00,2,2,2,741.42,0.11,19451.56,1066.86,0.06,11504.01,2060.58,0.05,58387.18,2792.98,0.04,16943.86,2638.95,0.02,32835.56
992100,899.00,977.33,1.00,3,3,3,1391.69,0.04,40676.46,3218.55,0.03,133700.74,3180.07,0.03,69581.29,3046.99,0.04,15781.39,2157.90,0.01,29882.20
1008100,979.88,979.45,1.00,1,1,1,5056.86,0.03,229078.11,5307.03,0.03,130530.28,4301.19,0.03,70081.31,3185.70,0.03,8961.80,1490.72,0.00,41713.30
1024000,1068.23,982.13,1.00,1,1,1,5558.79,0.03,31598.79,5387.22,0.03,5045.32,4964.45,0.02,41733.28,2753.62,0.01,27265.92,845.40,-0.01,40605.01
1040100,1152.20,984.40,1.00,1,1,1,5217.80,0.03,21208.68,4624.11,0.02,47485.78,4311.75,0.01,40654.57,2445.85,0.00,19169.64,354.74,-0.07,30541.62
1056100,1216.63,985.01,1.00,1,1,1,4027.05,0.01,74589.86,3234.56,-0.01,87172.21,2413.98,-0.01,118691.67,1891.98,-0.01,34654.49,37.26,-1.42,21782.98
1072000,1255.38,983.19,1.00,1,1,1,2439.52,-0.05,100465.22,941.00,-0.10,144565.62,965.61,-0.08,91359.05,735.06,-0.09,72997.06,268.02,-2.96,16945.46
1104100,1261.58,980.56,1.00,1,1,1,209.91,-0.40,69902.14,551.11,-2.95,46030.53,580.84,-2.93,47697.48,504.62,-2.94,38233.64,498.17,-3.03,7207.49
1120200,1229.30,978.16,1.00,1,1,1,2010.77,-3.07,136612.58,2836.48,-3.08,142320.84,2128.94,-3.07,96605.29,1602.72,-3.06,68520.96,692.88,-3.05,12121.63
1136000,1171.25,975.31,1.00,1,1,1,3678.29,-3.09,105628.20,4519.50,-3.09,106523.44,3414.87,-3.09,81475.05,2430.83,-3.08,52467.87,845.68,-3.07,9696.44
1152100,1085.34,970.31,1.00,2,2,2,5345.13,-3.08,103561.18,3799.28,-3.09,44741.29,4170.62,-3.10,46976.57,2771.43,-3.09,21271.98,1103.09,-3.08,16016.24
1184000,989.12,965.96,1.00,3,3,3,3019.21,-3.10,72930.98,3938.48,-3.10,4605.96,4285.52,-3.10,3604.00,3412.49,-3.10,20117.89,1355.23,-3.09,7911.24
1200000,896.83,962.93,1.00,1,1,1,5771.51,-3.11,172049.00,5015.13,-3.10,67292.08,3308.92,-3.10,61062.84,3520.39,-3.10,6807.55,1580.85,-3.10,14111.44
1216000,828.75,959.96,1.00,1,1,1,4258.89,-3.10,94597.80,2680.68,-3.11,145904.26,3410.67,-3.11,6624.46,3303.46,-3.11,13580.57,1744.72,-3.10,10257.17
1248000,768.23,958.47,1.00,1,1,1,1891.76,-3.12,73992.18,2356.72,-3.13,10228.81,2873.01,-3.12,16808.96,2752.04,-3.12,17248.68,1841.62,-3.11,3050.58
1264700,713.99,958.12,1.00,1,1,1,3247.95,-3.14,81253.47,3161.18,-3.13,48183.74,2323.47,-3.13,32960.87,2308.20,-3.13,26620.10,1957.01,-3.11,6934.29
1280100,666.76,957.53,1.00,1,1,1,3067.12,-3.13,11807.09,2271.99,-3.14,57747.67,1920.25,3.13,26303.40,1559.38,-3.14,48652.55,1774.88,-3.12,11830.07
1296100,642.65,957.86,1.00,1,1,1,1507.03,3.13,97568.42,677.85,3.06,99863.51,905.02,3.09,63552.91,986.40,3.11,35879.81,1625.53,-3.12,9336.15
1312100,645.15,959.34,1.00,1,1,1,181.37,0.54,104023.76,453.70,0.22,69943.06,117.02,0.74,61920.54,567.53,3.06,26309.79,1387.95,-3.12,14859.87
1328000,656.78,961.01,1.00,1,1,1,739.00,0.14,36207.82,856.52,0.12,25640.09,693.90,0.13,37830.79,140.63,2.77,27317.82,1146.88,-3.13,15175.23
1344000,672.28,962.58,1.00,1,1,1,973.67,0.10,14832.39,935.02,0.09,5113.34,797.38,0.10,6646.29,169.67,0.27,18414.38,760.61,3.14,24161.06
1360100,686.66,963.80,1.00,1,1,1,896.68,0.08,4874.16,738.72,0.08,12208.74,628.29,0.09,10518.80,243.31,0.16,4803.05,986.40,3.11,14068.04
1376000,695.84,964.50,1.00,1,1,1,578.78,0.08,19997.92,325.37,0.07,25997.60,225.74,0.09,25317.69,130.34,0.18,7108.17,567.53,3.06,26475.26
1392600,697.21,964.59,1.00,1,1,1,82.64,0.07,29888.03,116.27,-3.08,26604.41,118.17,-3.09,20713.94,18.40,0.68,6902.18,140.63,2.77,26165.87
1424000,690.27,964.13,1.00,1,1,1,221.43,-3.08,9683.76,422.25,-3.08,9744.59,403.53,-3.08,9088.03,33.83,0.37,551.21,169.67,0.27,9383.12
1440000,677.23,963.35,1.00,1,1,1,816.36,-3.08,37183.98,834.42,-3.09,25762.09,483.87,-3.09,5025.66,118.17,-3.09,9417.41,243.31,0.16,4833.07
1456000,663.61,962.65,1.00,1,1,1,852.50,-3.09,2306.17,575.24,-3.11,16220.43,205.63,3.13,17437.26,403.53,-3.08,17835.26,130.34,0.18,7063.75
1472000,658.84,962.68,1.00,1,1,1,298.35,3.13,34681.66,402.48,0.13,61046.65,575.24,-3.11,23127.48,483.87,-3.09,5025.66,18.40,0.68,7161.01
1489200,676.87,964.34,1.00,1,1,1,1052.60,0.09,78478.29,1052.60,0.09,37820.86,402.48,0.13,56787.58,205.63,3.13,16220.70,33.83,0.37,1006.28
