@RELATION gaze_labels

%@METADATA width_px 1920
%@METADATA height_px 1080
%@METADATA width_mm 540.00
%@METADATA height_mm 254.00
%@METADATA distance_mm 620.00


@ATTRIBUTE time INTEGER
@ATTRIBUTE x NUMERIC
@ATTRIBUTE y NUMERIC
@ATTRIBUTE confidence NUMERIC
@ATTRIBUTE handlabeller1 INTEGER
@ATTRIBUTE handlabeller2 INTEGER
@ATTRIBUTE handlabeller_final INTEGER
@ATTRIBUTE speed_1 numeric
@ATTRIBUTE direction_1 numeric
@ATTRIBUTE acceleration_1 numeric
@ATTRIBUTE speed_2 numeric
@ATTRIBUTE direction_2 numeric
@ATTRIBUTE acceleration_2 numeric
@ATTRIBUTE speed_4 numeric
@ATTRIBUTE direction_4 numeric
@ATTRIBUTE acceleration_4 numeric
@ATTRIBUTE speed_8 numeric
@ATTRIBUTE direction_8 numeric
@ATTRIBUTE acceleration_8 numeric
@ATTRIBUTE speed_16 numeric
@ATTRIBUTE direction_16 numeric
@ATTRIBUTE acceleration_16 numeric

%The number after speed, direction denotes the step size that was used for the calculation.
%Acceleration was calculated between two adjacent samples of the already low pass filtered velocity

@DATA
0,189.09,954.44,1.00,1,1,1,0.00,0.00,0.00,1373.74,-0.09,0.00,434.85,-0.11,0.00,509.47,3.11,0.00,250.21,-2.98,0.00
16100,211.11,952.41,1.00,1,1,1,1373.74,-0.09,85325.73,434.85,-0.11,58324.62,947.42,3.08,85831.71,1139.66,3.10,39148.08,196.39,-2.88,3625.49
32000,202.92,952.89,1.00,1,1,1,516.34,3.08,118859.40,947.42,3.08,86911.36,509.47,3.11,27575.47,894.54,3.12,15469.44,109.65,-0.87,16530.20
48200,180.76,954.28,1.00,1,1,1,1370.53,3.08,52728.67,1455.75,3.09,31380.86,1139.66,3.10,38906.43,559.08,-3.10,20925.03,446.81,-0.28,22285.63
63900,156.55,955.48,1.00,1,1,1,1543.75,3.09,11105.31,1333.91,3.11,7986.18,894.54,3.12,15666.50,250.21,-2.98,19862.08,741.08,-0.20,18944.58
80000,138.37,955.75,1.00,1,1,1,1129.66,3.13,25873.33,527.40,-3.11,50203.08,559.08,-3.10,21054.99,196.39,-2.88,3625.49,981.92,-0.17,15071.61
112500,130.93,954.73,1.00,1,1,1,230.91,-3.01,27755.02,84.57,-2.15,14888.55,91.95,-2.00,16122.01,109.65,-0.87,8087.08,1224.28,-0.14,7495.52
128100,136.13,952.35,1.00,1,1,1,366.62,-0.43,36863.13,741.35,-0.26,49513.89,457.40,-0.26,30829.86,446.81,-0.28,23142.77,1158.48,-0.13,4379.50
144000,153.51,948.77,1.00,1,1,1,1115.95,-0.20,47994.54,946.77,-0.18,13597.65,1066.87,-0.18,38502.11,741.08,-0.20,18706.28,349.74,-0.23,51015.65
176000,180.77,944.33,1.00,2,2,2,863.01,-0.16,8008.49,1282.97,-0.15,10546.00,1434.06,-0.15,11523.83,981.92,-0.17,7582.90,178.79,-0.33,5408.88
191900,214.26,939.52,1.00,2,2,2,2128.34,-0.14,79596.06,2161.90,-0.14,55298.53,1494.11,-0.14,3937.24,1224.28,-0.14,15321.04,96.77,-0.44,5236.59
208100,249.52,934.87,1.00,3,3,3,2194.90,-0.13,4390.53,1797.11,-0.13,22530.97,1768.31,-0.13,16977.13,1158.48,-0.13,4217.30,51.56,-0.61,2886.74
225300,273.78,931.71,1.00,3,3,3,1422.44,-0.13,44910.93,1377.38,-0.11,24451.87,1421.07,-0.11,20270.24,936.59,-0.13,12901.09,18.34,-2.15,3147.09
240400,293.72,929.82,1.00,3,3,3,1326.51,-0.09,7121.04,1013.41,-0.06,24407.36,814.80,-0.07,40235.39,621.15,-0.11,20902.90,67.40,-3.02,3795.35
256000,304.82,929.70,1.00,3,3,3,711.93,-0.01,39733.93,246.50,0.17,49743.49,214.87,0.01,38526.28,108.55,0.10,33049.29,110.91,3.12,2900.62
271900,301.37,931.16,1.00,3,3,3,235.98,2.74,58780.11,555.97,3.02,49995.49,542.85,2.98,47496.27,450.37,2.95,34918.51,181.60,3.08,4457.24
287900,287.23,931.91,1.00,1,1,1,885.06,3.09,41749.53,1308.52,3.04,47046.58,1211.65,3.00,41813.73,853.41,2.98,25221.01,284.42,3.08,6426.78
303900,259.72,935.53,1.00,1,1,1,1733.79,3.01,53392.62,1863.40,2.99,34981.66,1704.67,3.01,30831.44,1233.46,3.01,23807.22,391.73,3.05,6735.61
320000,228.10,940.94,1.00,1,1,1,1992.89,2.97,16682.09,2099.24,2.99,14648.21,1686.05,3.00,1354.61,1440.08,3.02,12851.57,521.13,3.04,8042.48
336100,192.91,945.75,1.00,1,1,1,2206.18,3.01,13943.50,1567.58,3.01,33100.60,1780.57,3.02,6121.18,1517.27,3.03,4954.45,617.03,3.04,5957.63
368000,153.50,950.81,1.00,1,1,1,1245.30,3.01,30124.56,1567.80,3.04,1562.43,1623.17,3.03,4980.01,1503.01,3.04,632.63,668.90,3.02,1660.89
384100,118.02,953.24,1.00,1,1,1,2208.83,3.07,60154.81,1707.65,3.06,8825.28,1367.61,3.05,16027.80,1284.48,3.04,13574.08,678.75,3.01,807.48
400000,99.05,955.41,1.00,1,1,1,1200.97,3.03,63556.51,1067.87,3.08,40285.97,1278.23,3.11,7048.26,1077.54,3.06,13071.17,718.93,3.01,2527.58
416100,83.92,955.33,1.00,1,1,1,940.14,-3.14,18005.42,854.66,-3.08,15041.55,674.29,3.12,37524.84,752.48,3.08,20220.46,703.32,3.01,970.18
432000,71.75,953.79,1.00,1,1,1,771.19,-3.02,12423.90,295.64,-3.01,35228.06,405.61,-3.08,17085.66,487.57,3.08,16662.17,668.07,3.00,2254.69
449000,74.27,954.08,1.00,1,1,1,149.16,0.11,54137.70,36.57,0.09,19540.56,140.20,-2.97,15699.65,182.11,3.00,18027.92,589.95,2.99,4603.67
464500,72.93,953.91,1.00,2,2,2,86.94,-3.01,15231.69,32.84,-2.67,4397.63,146.44,0.10,18477.77,75.19,2.83,7016.57,487.08,2.99,6636.86
495900,72.90,953.37,1.00,1,1,1,16.96,-1.63,2718.20,221.61,0.10,8038.58,158.82,0.22,720.08,45.59,0.70,3399.22,324.81,2.96,5178.82
512000,83.41,954.91,1.00,1,1,1,659.84,0.14,41214.44,342.47,0.24,7918.19,160.67,0.34,1237.87,101.49,0.48,3594.22,191.86,2.90,8317.53
544600,89.09,957.38,1.00,1,1,1,189.97,0.41,14698.48,120.39,0.80,7619.29,223.52,0.38,1938.84,74.93,0.81,1214.03,84.01,2.67,3423.37
561000,87.53,959.13,1.00,1,1,1,142.74,2.30,16516.59,84.57,1.41,4310.23,86.23,1.16,10545.08,80.53,0.82,342.39,32.03,2.16,3557.06
575900,89.51,959.99,1.00,1,1,1,144.93,0.41,15627.12,80.16,2.14,3954.59,134.63,2.46,9375.49,129.43,0.55,3766.50,29.65,1.31,1697.60
592000,86.19,961.22,1.00,1,1,1,219.79,2.79,21082.62,236.50,2.77,11067.95,113.34,2.52,1396.01,104.45,0.63,1672.79,38.95,1.15,670.61
607900,82.45,962.73,1.00,1,1,1,253.47,2.76,2161.97,153.79,2.71,5254.04,53.71,1.31,6721.52,67.16,0.88,2667.53,32.63,1.69,1263.24
624000,81.72,963.28,1.00,1,1,1,56.90,2.50,12361.38,171.81,0.17,19309.28,140.92,0.32,7462.07,52.73,0.62,1295.63,79.97,2.72,4277.74
656100,90.61,964.16,1.00,1,1,1,278.31,0.10,10048.52,317.46,0.10,4568.79,162.06,0.16,1016.78,36.31,2.26,2052.72,253.19,3.00,5537.47
672000,96.88,964.80,1.00,1,1,1,396.50,0.10,7433.61,147.36,0.13,10706.04,149.18,0.02,1569.71,69.82,2.79,2697.48,472.03,3.08,13866.18
687900,95.26,964.77,1.00,1,1,1,102.26,-3.12,31350.54,107.74,-2.76,15925.19,68.95,-3.12,13719.27,60.04,2.97,929.46,688.58,3.11,13669.57
704100,93.67,963.52,1.00,1,1,1,124.70,-2.48,4649.86,282.19,-3.06,11233.05,306.09,-3.14,14639.32,200.62,3.11,8729.71,751.46,3.12,3924.03
720100,86.20,964.05,1.00,1,1,1,467.95,3.07,24045.21,500.57,3.07,14085.99,277.75,-3.13,1783.15,653.00,3.14,28284.26,700.62,3.12,3179.27
738300,76.59,964.70,1.00,1,1,1,529.25,3.07,3368.74,275.41,3.11,12399.74,551.12,3.12,15040.50,1088.39,-3.14,23923.54,488.42,3.13,11660.02
768100,72.98,964.41,1.00,2,2,2,121.34,-3.06,13745.08,589.68,-3.13,10558.60,1121.43,3.14,19143.24,1409.43,-3.14,10773.21,206.02,-3.14,9478.25
784000,49.64,964.40,1.00,3,3,3,1468.06,-3.14,84724.98,2398.58,-3.14,113769.39,1756.76,-3.14,39962.12,1462.51,-3.14,3366.10,128.58,0.02,21043.61
799900,-3.29,964.28,1.00,1,1,1,3329.10,-3.14,117047.14,3428.76,-3.14,64791.24,2803.62,-3.14,65840.09,1311.54,-3.14,9496.58,517.52,0.01,24461.89
815900,-59.74,964.20,1.00,1,1,1,3527.79,-3.14,12419.03,3190.42,-3.14,14906.85,2374.04,-3.14,26849.62,844.48,-3.13,29196.19,926.38,0.01,25554.32
833200,-109.53,963.79,1.00,1,1,1,2878.44,-3.13,37554.44,1673.11,-3.13,87707.40,1500.97,-3.14,50466.39,352.60,-3.11,28443.44,1385.36,0.01,26530.46
863900,-140.04,963.51,1.00,1,1,1,993.89,-3.13,61385.99,298.87,-3.13,44763.58,108.24,-3.05,45380.98,457.41,-0.01,26379.16,1730.40,0.01,11240.95
880000,-123.52,963.60,1.00,1,1,1,1026.42,0.01,125484.63,1454.30,-0.00,108890.55,1315.14,-0.01,88374.14,1568.18,0.01,68994.59,2146.12,0.01,25821.00
912000,-70.09,963.21,1.00,2,2,2,1669.62,-0.01,20106.29,2859.77,-0.01,43921.43,3278.23,0.00,61351.93,2737.28,0.01,36534.28,2532.90,0.01,12086.81
928900,16.32,962.43,1.00,2,2,2,5113.31,-0.01,203769.26,6011.34,0.00,186507.65,4637.33,0.01,80425.37,3939.33,0.01,71127.47,2959.99,0.01,25274.21
944100,122.87,963.96,1.00,2,2,2,7010.65,0.01,125164.09,7424.03,0.01,93049.11,7009.37,0.01,156057.87,4913.30,0.01,64078.31,3239.11,0.01,18363.73
960100,247.93,965.71,1.00,3,3,3,7816.74,0.01,50380.61,8013.76,0.01,36883.76,7907.07,0.01,56118.10,5601.57,0.01,43021.59,3541.55,0.01,18902.14
976000,378.49,966.85,1.00,1,1,1,8212.07,0.01,25002.24,8376.65,0.01,22904.18,6550.50,0.01,85318.68,6606.86,0.01,63231.64,3806.63,0.01,16672.24
992200,516.81,967.74,1.00,1,1,1,8538.19,0.01,20165.70,5582.09,0.01,172506.91,6568.29,0.01,1299.36,6682.23,0.02,4887.97,4036.40,0.02,14185.77
1024200,647.54,969.53,1.00,1,1,1,4085.61,0.01,139149.53,5354.02,0.02,7237.40,6284.92,0.02,8875.71,6334.09,0.02,10881.44,4406.36,0.02,11561.27
1040000,772.69,972.17,1.00,1,1,1,7923.06,0.02,242891.48,7350.48,0.02,126369.23,5710.81,0.02,36400.41,5737.01,0.02,37791.60,4500.74,0.02,5973.68
1056000,881.23,974.55,1.00,2,2,2,6785.06,0.02,71125.69,6243.89,0.03,69185.50,6062.75,0.02,22040.77,4994.90,0.02,46387.42,4669.93,0.02,10574.74
1072000,972.43,977.32,1.00,2,2,2,5702.84,0.03,67719.93,4783.17,0.03,91306.31,4701.13,0.03,85103.10,4144.12,0.03,53199.24,4377.51,0.02,18284.50
1088000,1034.22,979.13,1.00,1,1,1,3863.51,0.03,114958.82,3163.18,0.03,101250.35,3385.14,0.03,82253.42,3771.56,0.03,23308.01,3743.03,0.02,39655.04
1104100,1073.93,980.17,1.00,1,1,1,2467.21,0.03,86728.05,1991.46,0.03,72777.96,2190.95,0.04,74192.98,3126.22,0.03,40083.34,3275.44,0.02,29045.03
1120100,1098.12,980.99,1.00,1,1,1,1512.76,0.03,59660.66,1213.40,0.07,48793.87,1491.44,0.05,43731.72,2491.11,0.03,39697.22,2786.48,0.02,30573.84
1136000,1112.54,982.90,1.00,1,1,1,914.88,0.13,38286.81,991.03,0.09,14043.51,1548.94,0.04,3719.53,1800.97,0.03,43405.11,2171.24,0.03,38705.75
1152100,1129.71,983.81,1.00,1,1,1,1067.74,0.05,10639.85,1883.32,0.02,55726.26,1594.33,0.02,3358.51,1152.04,0.03,40306.91,1867.64,0.04,18867.52
1168100,1172.98,984.13,1.00,1,1,1,2704.79,0.01,102431.26,2202.82,-0.01,20323.61,1411.54,0.00,11532.16,812.30,0.04,21240.86,1455.42,0.04,25763.40
1184000,1199.97,983.15,1.00,1,1,1,1698.67,-0.04,63548.22,937.53,-0.03,79595.40,880.03,0.00,33429.82,572.58,0.07,15143.14,1067.12,0.03,24430.53
1200000,1202.88,983.30,1.00,1,1,1,181.74,0.05,94854.58,13.90,1.63,58679.21,222.28,0.02,41114.49,398.72,0.08,10872.66,712.70,-0.01,22223.82
1231900,1199.93,983.82,1.00,1,1,1,93.75,2.97,8587.53,254.28,3.04,7911.59,252.00,2.96,14789.47,346.26,0.09,1646.62,415.72,-0.10,9443.42
1248000,1190.74,984.55,1.00,1,1,1,572.98,3.06,29796.96,625.70,2.99,23097.29,283.36,2.96,1948.15,117.82,0.16,14213.84,172.82,-0.48,16322.56
1263800,1180.20,986.78,1.00,1,1,1,682.01,2.93,8567.36,313.80,2.90,19913.83,197.71,2.82,5811.80,72.07,-3.12,11993.50,136.39,-2.07,14108.29
1296000,1176.12,988.17,1.00,1,1,1,133.83,2.81,17061.73,105.75,0.41,12517.51,33.32,1.25,6231.70,163.18,-2.86,2954.80,325.83,-2.62,6879.13
1312100,1184.88,988.81,1.00,1,1,1,545.94,0.07,41687.95,484.74,-0.07,24465.59,113.88,-0.44,7599.32,343.29,-2.80,11223.47,569.77,-2.79,15821.64
1328000,1191.59,987.08,1.00,1,1,1,435.58,-0.25,12102.29,217.18,-1.03,25264.77,189.73,-1.44,10013.06,472.02,-2.76,8177.97,920.45,-2.90,22616.91
1344000,1188.45,982.87,1.00,1,1,1,328.45,-2.21,39826.27,549.71,-2.47,35271.02,598.22,-2.54,33812.52,688.44,-2.75,13528.56,1168.08,-2.96,15872.93
1360100,1177.76,976.12,1.00,2,2,2,785.04,-2.58,30604.32,1203.74,-2.73,42587.07,964.87,-2.73,24398.75,1105.98,-2.79,26041.24,1387.90,-2.99,13851.43
1375900,1153.32,967.35,1.00,2,2,2,1643.14,-2.80,56515.29,1257.61,-2.80,7054.45,1456.73,-2.81,31669.14,1577.94,-2.86,30326.38,1657.28,-3.01,17215.34
1408200,1120.66,956.13,1.00,2,2,2,1069.07,-2.81,17782.85,1628.18,-2.85,11630.55,1967.78,-2.87,16144.73,2073.76,-2.91,15634.47,1798.39,-3.03,4516.55
1424100,1078.21,944.63,1.00,2,2,2,2766.63,-2.88,107003.94,3051.74,-2.91,89942.77,2384.69,-2.92,27026.53,2264.35,-2.95,13417.57,1878.20,-3.05,5365.32
1439900,1026.53,933.85,1.00,2,2,2,3341.30,-2.94,38099.79,3534.11,-2.97,32668.69,3495.90,-2.97,71007.08,2614.71,-3.00,23112.19,2008.79,-3.07,8462.22
1456100,966.87,924.77,1.00,2,2,2,3724.76,-2.99,26492.15,3945.98,-3.02,28173.61,3095.58,-3.02,26773.84,2847.42,-3.04,15851.99,1577.94,-2.86,35129.85
1471900,901.22,918.25,1.00,2,2,2,4175.50,-3.04,31343.78,2810.10,-3.07,72685.81,3283.33,-3.07,15488.68,3299.32,-3.08,29762.71,2073.76,-2.91,31961.60
1504100,832.35,914.93,1.00,2,2,2,2141.47,-3.09,63345.09,2850.43,-3.12,4623.15,3341.13,-3.12,5367.78,3244.96,-3.12,4656.20,2264.35,-2.95,6625.45
1520100,763.87,915.18,1.00,2,2,2,4280.06,3.14,134018.52,4153.92,3.11,82258.21,3172.82,3.11,14854.02,2966.45,3.12,19468.34,2614.71,-3.00,22823.28
1535900,700.31,918.97,1.00,1,1,1,4029.46,3.08,21624.01,3672.65,3.05,33919.25,3471.72,3.05,22651.75,3341.13,-3.12,25387.08,2847.42,-3.04,16253.31
1552000,647.19,925.81,1.00,1,1,1,3326.76,3.01,46357.37,2815.28,2.97,55806.93,2615.87,2.97,55452.11,3172.82,3.11,14761.76,3299.32,-3.08,29208.12
1568100,611.04,934.70,1.00,1,1,1,2312.48,2.90,65927.63,1600.51,2.78,79461.07,2815.28,2.97,12386.43,3471.72,3.05,22229.66,3244.96,-3.12,9312.39
1583900,599.48,943.98,1.00,1,1,1,938.21,2.47,95844.43,938.21,2.47,48372.89,1600.51,2.78,80969.83,2615.87,2.97,56505.00,2966.45,3.12,19714.77
