@RELATION gaze_labels

%@METADATA width_px 1920
%@METADATA height_px 1080
%@METADATA width_mm 540.00
%@METADATA height_mm 254.00
%@METADATA distance_mm 620.00


@ATTRIBUTE time INTEGER
@ATTRIBUTE x NUMERIC
@ATTRIBUTE y NUMERIC
@ATTRIBUTE confidence NUMERIC
@ATTRIBUTE handlabeller1 INTEGER
@ATTRIBUTE handlabeller2 INTEGER
@ATTRIBUTE handlabeller_final INTEGER
@ATTRIBUTE speed_1 numeric
@ATTRIBUTE direction_1 numeric
@ATTRIBUTE acceleration_1 numeric
@ATTRIBUTE speed_2 numeric
@ATTRIBUTE direction_2 numeric
@ATTRIBUTE acceleration_2 numeric
@ATTRIBUTE speed_4 numeric
@ATTRIBUTE direction_4 numeric
@ATTRIBUTE acceleration_4 numeric
@ATTRIBUTE speed_8 numeric
@ATTRIBUTE direction_8 numeric
@ATTRIBUTE acceleration_8 numeric
@ATTRIBUTE speed_16 numeric
@ATTRIBUTE direction_16 numeric
@ATTRIBUTE acceleration_16 numeric

%The number after speed, direction denotes the step size that was used for the calculation.
%Acceleration was calculated between two adjacent samples of the already low pass filtered velocity

@DATA
0,212.03,843.76,1.00,1,1,1,0.00,0.00,0.00,1461.16,0.10,0.00,112.47,-2.04,0.00,114.13,-1.22,0.00,66.37,0.78,0.00
22100,244.17,846.86,1.00,1,1,1,1461.16,0.10,66115.78,112.47,-2.04,68964.03,863.85,-2.60,34878.63,241.06,0.23,11477.34,370.56,3.06,18860.32
36200,210.20,840.13,1.00,1,1,1,2456.34,-2.95,277514.22,863.85,-2.60,54667.92,114.13,-1.22,60240.29,284.34,0.57,7082.02,206.27,0.44,39631.50
51200,222.68,833.82,1.00,1,1,1,932.18,-0.47,216135.37,160.34,-0.78,61083.61,241.06,0.23,16909.95,388.26,2.77,40091.54,178.35,1.45,12481.21
79800,215.17,835.22,1.00,1,1,1,266.94,2.96,41635.12,963.32,0.42,32048.02,284.34,0.57,3491.49,66.37,0.78,14681.77,110.01,2.52,5548.46
95000,261.29,850.85,1.00,1,1,1,3203.36,0.33,226236.03,609.11,0.88,33010.89,388.26,2.77,39564.02,370.56,3.06,27421.92,332.18,3.04,15956.57
116600,229.39,852.54,1.00,1,1,1,1478.59,3.09,213391.32,1857.82,-3.06,107612.66,239.47,1.33,19871.47,206.27,0.44,25870.56,233.72,-0.52,25643.32
131600,193.54,845.02,1.00,1,1,1,2442.25,-2.93,72144.92,365.57,-2.96,99632.96,1044.81,3.14,75005.26,178.35,1.45,12481.21,932.00,-0.16,47906.89
145800,218.90,850.57,1.00,1,1,1,1828.34,0.22,300743.08,210.17,1.63,31229.63,114.91,-0.02,81669.12,110.01,2.52,11175.06,461.60,-0.16,33126.83
160200,193.17,851.02,1.00,1,1,1,1787.54,3.12,249402.82,585.98,0.11,42626.83,531.87,0.43,29954.80,332.18,3.04,16843.05,355.71,-0.18,7385.14
175400,236.15,852.41,1.00,1,1,1,2829.38,0.03,303656.04,884.63,0.27,21040.43,252.69,-2.73,51613.28,233.72,-0.52,36440.50,388.32,-0.22,2326.40
198500,225.86,859.90,1.00,1,1,1,550.87,2.51,142056.57,892.20,-2.88,76918.46,238.44,0.25,21196.41,932.00,-0.16,31108.37,250.95,-0.40,6423.61
213600,203.19,843.76,1.00,2,2,2,1843.54,-2.52,115804.13,315.30,-2.86,38215.85,330.49,-0.64,17219.45,852.48,-0.21,6234.87,449.44,-0.06,15173.02
243200,212.33,855.98,1.00,3,3,3,515.53,0.93,79047.57,1240.27,-0.14,51799.42,1314.17,-0.33,33968.60,908.88,-0.15,2702.58,239.17,-0.66,9689.21
258300,258.08,835.99,1.00,3,3,3,3306.45,-0.41,213773.02,2868.37,-0.26,108912.41,1650.29,-0.15,28240.90,570.28,-0.39,25148.93,497.64,-0.33,18713.58
288600,338.05,822.02,1.00,1,1,1,2679.16,-0.17,31258.98,2052.26,-0.15,28403.87,1494.98,-0.20,5883.59,527.03,-0.68,5412.70,757.74,-0.24,8779.35
303900,350.59,821.90,1.00,1,1,1,820.20,-0.01,122522.57,348.37,0.24,113458.08,785.66,-0.30,46865.08,872.11,-0.11,33646.50,960.35,-0.22,13281.94
341200,355.83,826.45,1.00,1,1,1,185.89,0.72,18556.49,401.39,-2.72,20020.77,551.33,-2.70,33514.63,705.38,-0.44,8330.99,1048.24,-0.17,2705.39
356100,331.49,813.30,1.00,1,1,1,1856.64,-2.65,136808.97,2115.48,-2.76,115067.64,73.53,1.25,40553.02,710.58,-0.28,7962.91,854.78,-0.20,13150.92
371300,296.74,802.71,1.00,2,2,2,2389.79,-2.85,44652.53,855.86,0.60,194545.44,552.86,-2.56,40286.10,597.50,-0.35,8133.13,913.07,-0.21,3863.99
385800,352.49,827.61,1.00,2,2,2,4211.05,0.42,454416.74,573.74,0.05,32615.30,621.27,-0.24,74229.13,1065.05,-0.22,33058.41,1684.93,-0.11,53943.78
415000,321.78,803.96,1.00,3,3,3,1327.51,-2.49,188714.15,744.38,-0.75,18401.08,1651.54,-0.11,35576.66,1227.91,-0.19,5738.74,1937.35,-0.12,8683.66
437700,380.73,801.25,1.00,1,1,1,2599.70,-0.05,163589.37,2921.20,-0.14,103444.70,2135.76,-0.25,24520.20,1243.22,-0.09,5249.45,1902.06,-0.09,3193.43
452400,429.89,788.21,1.00,1,1,1,3459.83,-0.26,72856.76,4819.13,-0.12,129227.43,3050.27,-0.05,71963.15,1488.91,-0.01,18259.59,1679.83,-0.03,16635.03
466800,519.90,784.01,1.00,1,1,1,6257.70,-0.05,206036.45,3252.39,0.07,120593.83,2129.00,-0.03,64050.79,2551.60,-0.11,74944.79,1623.13,-0.07,5595.33
481900,525.63,794.56,1.00,2,2,2,794.91,1.07,394363.72,705.66,2.41,250344.45,1295.46,0.16,59036.93,3425.75,-0.04,59179.14,1787.97,-0.05,11089.56
495900,504.59,797.69,1.00,2,2,2,1519.29,2.99,138634.44,717.34,2.86,22344.32,3010.13,-0.00,124626.02,3456.98,-0.04,2720.07,1785.03,-0.01,4200.85
511400,505.32,800.53,1.00,3,3,3,189.45,1.32,100053.20,5019.78,-0.05,369056.82,3737.80,-0.04,47791.34,2997.90,0.04,34144.46,1815.58,-0.03,2376.74
547300,762.22,783.60,1.00,1,1,1,7171.38,-0.07,198842.40,6303.40,-0.06,35761.71,4410.07,-0.04,18727.44,2266.16,0.02,20484.78,1632.15,-0.07,5478.64
562400,826.24,781.62,1.00,1,1,1,4241.87,-0.03,194423.81,3357.72,-0.01,195737.18,4258.43,0.02,19600.71,2346.88,0.02,5423.39,1717.73,-0.02,7423.65
577000,861.94,782.99,1.00,1,1,1,2447.06,0.04,123877.47,1105.86,0.88,191352.82,1358.08,0.06,198795.90,2255.00,0.02,6295.69,1722.98,-0.01,1455.37
591600,846.80,806.52,1.00,1,1,1,1916.91,2.14,260216.60,339.40,2.61,82587.53,699.09,0.47,52434.09,2098.69,-0.04,13638.27,1493.60,0.03,16467.68
613100,851.40,789.24,1.00,1,1,1,832.06,-1.31,126554.78,573.99,-0.22,42000.58,296.17,1.17,23741.53,588.25,0.13,70774.90,1520.96,0.02,1682.87
627300,866.78,801.99,1.00,1,1,1,1406.99,0.69,134585.33,562.72,0.67,34739.01,225.37,-1.69,36360.01,185.25,0.31,28700.49,2399.42,-0.00,61913.56
658600,871.40,805.23,1.00,1,1,1,180.15,0.61,39217.80,567.10,-2.59,36032.97,119.10,2.53,9604.00,253.52,0.29,2187.82,2463.33,-0.01,2067.01
673200,844.67,788.26,1.00,1,1,1,2168.61,-2.58,160862.49,1009.88,-2.76,31657.27,164.53,-2.39,12453.00,212.68,-0.10,6830.62,2588.27,-0.01,8623.74
687700,844.11,794.32,1.00,1,1,1,419.65,1.66,164793.20,203.73,0.26,83607.19,391.97,-0.33,33851.34,822.98,0.02,42242.12,1716.28,0.00,60179.91
725500,854.98,790.96,1.00,2,2,2,300.80,-0.30,15936.48,1098.21,0.01,23865.75,483.57,0.38,8400.76,2449.21,-0.02,43050.75,1452.54,0.02,7016.70
740000,901.55,794.78,1.00,2,2,2,3222.57,0.08,203139.51,986.87,0.43,30705.32,1664.71,-0.02,85067.60,2706.53,-0.03,17815.04,1377.39,0.01,5222.34
754800,881.32,802.89,1.00,3,3,3,1472.55,2.76,309964.78,2677.16,-0.04,124880.14,6738.76,0.01,342887.68,3123.20,0.01,29076.93,1594.51,-0.03,15226.03
769300,979.93,791.74,1.00,3,3,3,6844.18,-0.11,570565.71,12542.92,-0.03,680416.98,5926.52,-0.00,56190.75,2695.72,-0.02,29929.11,1497.81,-0.00,7099.37
784300,1251.21,793.31,1.00,1,1,1,18085.64,0.01,754551.76,9134.16,0.01,228372.54,6392.19,-0.03,32561.13,2940.91,0.00,16786.69,1377.88,-0.03,8504.52
799000,1251.21,793.31,1.00,1,1,1,0.00,0.00,1230315.78,1527.86,-0.04,517582.64,3735.65,-0.02,180734.76,2694.39,-0.01,17014.36,1452.61,-0.05,5409.29
821600,1308.15,790.87,1.00,1,1,1,2521.65,-0.04,111577.57,621.92,-0.25,41046.57,186.13,-0.15,157130.95,3199.27,-0.02,22349.69,1469.34,-0.02,2360.43
850200,1282.08,785.50,1.00,1,1,1,930.61,-2.94,119990.75,961.81,3.14,54984.07,354.83,-0.14,5898.99,2203.66,-0.01,34819.45,1560.17,0.00,3358.99
865300,1266.12,791.05,1.00,1,1,1,1119.31,2.81,38043.00,143.85,2.12,59214.07,313.18,0.14,6717.94,252.94,-0.14,129347.62,1560.04,-0.02,2621.65
880400,1279.80,789.19,1.00,1,1,1,914.41,-0.13,134017.33,2159.39,0.05,147869.87,396.46,0.09,5630.90,279.21,-0.25,2521.08,1087.55,-0.01,31309.12
895400,1331.05,793.99,1.00,1,1,1,3431.53,0.09,169949.20,766.75,-0.05,93169.35,332.19,-0.14,6898.75,272.82,-2.87,35597.71,1206.59,-0.06,8652.60
918700,1309.13,787.85,1.00,1,1,1,976.66,-2.87,188666.34,1122.57,-3.00,80745.19,195.78,-0.47,6896.41,275.29,0.26,23523.64,764.73,-0.06,18965.31
933600,1288.59,787.95,1.00,1,1,1,1378.65,3.14,34538.10,611.94,-2.88,34926.10,907.88,-2.92,71560.10,211.81,-0.34,10498.27,24.19,3.06,52947.63
948300,1291.64,783.15,1.00,1,1,1,386.64,-1.00,110242.85,645.49,-2.75,5899.04,180.51,0.63,73197.01,288.24,3.09,33666.69,72.01,0.02,6538.48
963300,1270.86,780.67,1.00,1,1,1,1395.34,-3.02,106726.43,697.45,0.42,89521.49,123.04,-0.86,13997.35,506.30,-3.00,15283.47,183.29,-3.12,17019.37
992700,1319.96,795.67,1.00,1,1,1,1746.50,0.30,106450.12,537.03,0.02,9901.70,620.60,3.00,24403.12,500.63,-3.01,236.05,72.77,-2.82,3938.05
1007300,1294.48,781.06,1.00,1,1,1,2011.83,-2.62,255812.29,1692.14,-3.09,152669.13,231.29,3.06,26700.97,266.37,3.01,17315.91,139.09,0.16,14468.19
1044400,1232.58,791.46,1.00,1,1,1,1691.95,2.98,34600.33,875.29,3.11,22179.82,1006.87,-2.95,21220.72,111.75,2.58,4610.31,112.75,-3.08,6779.66
1059700,1248.64,782.60,1.00,1,1,1,1199.27,-0.50,186356.89,372.67,-2.08,50810.91,541.63,2.89,37039.41,129.03,2.75,1748.79,268.70,-3.03,10207.27
1089500,1224.34,776.82,1.00,1,1,1,838.34,-2.91,63924.33,278.37,2.00,19531.89,515.88,0.05,35088.82,376.51,-2.86,9637.55,113.95,-2.90,5254.30
1104400,1243.49,793.92,1.00,1,1,1,1723.20,0.73,167299.12,1445.20,0.32,100666.82,84.11,1.42,33941.98,132.71,0.90,32952.70,314.08,0.14,28694.15
1126300,1274.77,793.70,1.00,1,1,1,1428.54,-0.01,53284.72,211.13,-0.64,60987.47,552.65,0.04,24791.40,97.66,-0.33,6193.62,724.50,0.26,18938.61
1140800,1249.66,789.34,1.00,1,1,1,1757.77,-2.97,218876.21,696.13,-2.30,51452.70,986.88,0.06,29964.36,18.89,1.14,6726.69,793.12,0.24,4912.22
1155900,1261.00,778.37,1.00,1,1,1,1045.09,-0.77,166845.33,2030.22,0.15,172465.87,513.08,-2.92,99044.92,388.63,0.05,25182.05,714.60,0.18,5983.15
1169800,1307.91,797.94,1.00,1,1,1,3656.17,0.40,243290.45,615.41,2.63,183085.26,73.58,-1.55,36218.47,976.26,0.05,42275.86,730.08,0.14,2166.70
1184700,1245.55,787.06,1.00,1,1,1,4247.90,-2.97,527214.16,1985.92,-2.92,106180.72,223.19,0.07,16012.65,1741.02,0.20,52977.11,950.81,0.05,15709.48
1199800,1249.75,785.00,1.00,2,2,2,309.42,-0.46,298137.31,839.12,-0.25,182856.64,967.90,0.05,49323.94,1928.64,0.19,12560.55,915.48,0.16,7142.44
1221700,1275.65,779.43,1.00,2,2,2,1209.73,-0.21,41667.78,2643.12,0.12,86073.40,3342.42,0.21,109202.97,1989.16,0.20,3020.38,930.17,0.12,1947.80
1252400,1387.76,801.78,1.00,1,1,1,3723.68,0.20,86559.75,5469.73,0.26,93706.33,3332.47,0.21,362.40,1428.14,0.07,19597.87,863.25,3.12,58281.15
1266900,1514.46,843.42,1.00,1,1,1,9197.46,0.32,380630.69,4617.38,0.29,59735.57,3567.62,0.21,16263.66,1763.68,0.07,23145.73,1042.50,3.06,12979.97
1281400,1515.98,840.39,1.00,1,1,1,233.93,-1.11,632136.84,718.20,-0.46,284335.26,2008.30,0.09,109818.10,1694.80,0.15,10868.22,1928.64,0.19,203202.66
1295400,1532.79,834.32,1.00,1,1,1,1276.76,-0.35,79908.53,737.07,-1.46,49787.63,586.76,-1.77,160435.97,1391.43,0.13,21779.83,1989.16,0.20,4724.74
1318000,1518.98,813.58,1.00,1,1,1,1102.63,-2.16,82995.94,1030.65,-2.30,34055.34,186.64,-1.14,19896.79,2553.65,-3.14,174245.01,1428.14,0.07,26621.88
1333200,1506.83,805.27,1.00,1,1,1,968.26,-2.54,27383.67,303.22,1.32,86007.90,613.68,-2.59,40737.37,3429.59,-3.10,58098.90,1763.68,0.07,22079.81
1362500,1522.33,826.65,1.00,2,2,2,901.23,0.94,62866.37,383.58,2.99,17469.47,5690.19,-3.12,176445.62,186.64,-1.14,119614.16,1694.80,0.15,5378.47
1377200,1490.14,807.84,1.00,2,2,2,2536.04,-2.61,229968.03,10750.47,-3.09,705782.75,5731.80,3.12,20265.63,613.68,-2.59,42123.00,1391.43,0.13,20742.69
1413300,976.89,799.41,1.00,1,1,1,14219.59,-3.13,334447.29,10321.69,3.12,23975.07,10750.47,-3.09,139985.08,5690.19,-3.12,143209.32,2553.65,-3.14,109084.14
1428500,960.76,819.22,1.00,1,1,1,1680.17,2.25,871473.69,1680.17,2.25,613259.26,10321.69,3.12,56940.79,5731.80,3.12,19599.00,3429.59,-3.10,58098.90
