@RELATION gaze_labels

%@METADATA width_px 1920
%@METADATA height_px 1080
%@METADATA width_mm 540.00
%@METADATA height_mm 254.00
%@METADATA distance_mm 620.00


@ATTRIBUTE time INTEGER
@ATTRIBUTE x NUMERIC
@ATTRIBUTE y NUMERIC
@ATTRIBUTE confidence NUMERIC
@ATTRIBUTE handlabeller1 INTEGER
@ATTRIBUTE handlabeller2 INTEGER
@ATTRIBUTE handlabeller_final INTEGER
@ATTRIBUTE speed_1 numeric
@ATTRIBUTE direction_1 numeric
@ATTRIBUTE acceleration_1 numeric
@ATTRIBUTE speed_2 numeric
@ATTRIBUTE direction_2 numeric
@ATTRIBUTE acceleration_2 numeric
@ATTRIBUTE speed_4 numeric
@ATTRIBUTE direction_4 numeric
@ATTRIBUTE acceleration_4 numeric
@ATTRIBUTE speed_8 numeric
@ATTRIBUTE direction_8 numeric
@ATTRIBUTE acceleration_8 numeric
@ATTRIBUTE speed_16 numeric
@ATTRIBUTE direction_16 numeric
@ATTRIBUTE acceleration_16 numeric

%The number after speed, direction denotes the step size that was used for the calculation.
%Acceleration was calculated between two adjacent samples of the already low pass filtered velocity

@DATA
0,228.91,928.68,1.00,1,1,1,0.00,0.00,0.00,1644.02,-3.13,0.00,222.80,1.35,0.00,396.03,3.13,0.00,177.45,2.88,0.00
21300,193.90,928.32,1.00,1,1,1,1644.02,-3.13,77183.97,222.80,1.35,80216.92,477.83,2.78,23412.26,218.98,0.36,28407.11,60.17,-2.46,7041.31
36100,230.67,936.53,1.00,1,1,1,2545.51,0.22,281597.87,477.83,2.78,33694.67,396.03,3.13,11458.34,51.01,-2.25,17855.52,431.71,-3.14,26129.48
50600,180.78,933.23,1.00,1,1,1,3447.77,-3.08,412141.12,992.18,-2.87,45924.47,218.98,0.36,41729.07,136.50,0.02,11991.35,63.24,-0.44,33776.49
64700,203.29,929.05,1.00,1,1,1,1623.65,-0.18,357243.82,850.70,-0.01,129428.07,51.01,-2.25,18741.96,177.45,2.88,22047.42,506.85,-0.19,31611.50
80200,205.96,932.89,1.00,1,1,1,301.34,0.96,98346.96,697.55,0.19,14151.07,136.50,0.02,11217.72,60.17,-2.46,9676.12,457.36,-0.45,8499.67
101600,228.57,933.93,1.00,1,1,1,1057.42,0.05,42342.13,280.72,3.10,45462.28,77.89,1.47,6933.82,431.71,-3.14,18070.86,327.04,-0.59,6624.55
130900,191.74,933.48,1.00,1,1,1,1256.92,-3.13,78976.51,560.47,3.09,9549.75,217.87,-2.64,9204.44,63.24,-0.44,16715.33,535.13,-0.49,7262.00
145600,203.94,935.32,1.00,1,1,1,839.60,0.15,142296.31,240.94,-2.02,35293.98,704.05,3.10,35953.11,506.85,-0.19,30321.23,311.67,-0.17,17550.77
182700,186.34,922.23,1.00,2,2,2,591.42,-2.50,37457.20,824.96,3.11,20463.99,52.09,-1.73,18858.74,457.36,-0.45,3551.07,605.91,-0.24,7978.34
197900,160.82,936.50,1.00,2,2,2,1923.95,2.63,116217.29,172.41,0.94,61446.50,941.19,-0.26,61661.83,327.04,-0.59,9326.67,1034.18,-0.23,28181.32
227800,190.94,928.49,1.00,1,1,1,1042.54,-0.26,98507.18,3026.94,-0.19,98881.24,1289.89,-0.26,11663.82,535.13,-0.49,7116.27,1381.38,-0.14,12220.44
241800,291.39,911.84,1.00,1,1,1,7272.82,-0.16,445415.36,3206.97,-0.33,35311.16,1598.94,-0.29,22296.41,746.99,-0.19,20209.93,1432.87,-0.08,6924.12
256800,278.79,897.96,1.00,1,1,1,1250.07,-2.31,534626.42,616.56,-2.64,243267.11,1291.43,-0.43,24630.62,1342.77,-0.20,39729.69,1334.20,-0.12,7521.99
272300,274.90,902.80,1.00,1,1,1,400.39,2.25,88457.34,293.18,-2.64,20863.26,483.26,0.02,56910.51,2707.78,-0.19,88077.25,1400.70,-0.08,5277.44
294400,269.13,892.65,1.00,2,2,2,528.36,-2.09,34908.82,1360.08,0.20,74299.80,1405.81,-0.15,42205.96,3039.21,-0.13,16943.80,1512.82,-0.10,5249.90
309000,323.86,912.54,1.00,2,2,2,3988.62,0.35,301674.07,3524.39,-0.08,153930.92,3962.54,-0.15,175118.54,2590.50,-0.05,34237.71,1387.35,-0.13,9099.94
323600,371.70,884.33,1.00,3,3,3,3804.29,-0.53,227969.76,7297.70,-0.22,263118.98,4663.85,-0.06,54868.13,2409.68,-0.05,12419.42,1608.99,-0.08,16052.16
338700,535.22,864.56,1.00,3,3,3,10908.04,-0.12,501851.30,5397.74,-0.05,145925.03,4477.29,-0.06,12365.92,2689.54,-0.01,19217.71,1782.42,-0.09,11492.77
369000,616.51,873.26,1.00,1,1,1,2698.05,0.11,273973.18,2810.26,0.23,92222.61,3234.30,-0.01,41461.68,2703.67,-0.02,530.41,1690.63,-0.10,3078.98
384100,659.55,893.22,1.00,1,1,1,3141.85,0.43,69417.83,610.36,0.39,146377.22,1737.40,0.23,105913.39,2129.63,-0.11,40848.64,1277.94,-0.08,27399.25
405700,637.22,881.78,1.00,1,1,1,1161.23,-2.67,199186.39,406.64,0.25,10007.69,534.01,0.37,56046.93,1890.39,0.00,15264.20,1386.67,-0.05,5367.36
420700,673.99,896.83,1.00,1,1,1,2648.14,0.39,253763.78,439.33,0.32,3098.36,594.20,-2.77,75213.99,953.50,0.20,64829.33,1986.28,-0.07,40036.25
435100,649.47,885.88,1.00,1,1,1,1864.35,-2.72,313329.76,1828.82,-2.80,157507.95,57.08,1.02,44492.44,269.74,0.31,47657.73,3094.45,-0.00,77688.24
450300,622.89,878.94,1.00,1,1,1,1807.25,-2.89,20205.74,352.53,-3.03,97817.76,73.59,-1.64,8350.17,160.79,-2.75,28304.37,3239.11,-0.02,10341.40
465000,639.00,884.66,1.00,1,1,1,1162.87,0.34,201872.32,1439.69,0.25,121743.34,29.49,-1.10,3442.66,297.85,-0.05,30503.96,3120.25,0.00,9589.46
486700,673.65,891.99,1.00,1,1,1,1631.89,0.21,23196.05,317.28,-0.04,52533.08,280.07,0.35,12814.73,1253.62,-0.18,44193.16,2547.90,0.03,26738.89
500800,650.35,884.16,1.00,1,1,1,1743.20,-2.82,238966.96,1195.40,-2.94,106755.94,498.27,-0.13,19927.69,3466.87,0.01,159413.14,2505.43,0.03,3135.34
515400,640.02,885.20,1.00,2,2,2,711.20,3.04,77651.19,644.14,-0.16,124141.22,2363.69,-0.16,127783.96,4215.99,0.01,51367.77,2285.97,-0.02,16987.46
545600,678.83,879.53,1.00,2,2,2,1298.91,-0.15,66544.50,4574.15,-0.10,130182.34,6230.67,0.01,129731.58,4190.42,-0.00,2299.10,2387.57,0.02,4288.15
560800,846.69,864.90,1.00,3,3,3,11085.08,-0.09,643991.46,12952.33,0.02,554366.14,6865.53,0.01,41787.79,4076.92,-0.00,7477.76,2106.49,-0.01,18948.75
582900,1161.87,888.74,1.00,1,1,1,14302.13,0.08,172433.27,8909.05,0.05,183680.29,7828.21,0.01,43563.27,4394.11,0.01,14697.94,2236.72,-0.02,5898.71
612500,1306.65,889.14,1.00,1,1,1,4891.33,0.00,318595.29,3545.71,-0.03,181835.00,5665.41,0.06,73872.76,4322.74,-0.01,3980.76,2178.21,-0.00,2286.61
627500,1319.95,884.35,1.00,1,1,1,941.94,-0.35,267916.71,90.51,0.64,231663.85,2376.04,0.03,219376.88,4362.30,0.02,8099.80,2186.11,-0.01,1759.14
642500,1308.83,890.75,1.00,1,1,1,854.94,2.62,119323.47,720.91,0.47,42120.93,241.57,-0.64,146127.99,2936.09,0.06,95462.14,1933.15,-0.01,16864.06
657600,1339.27,894.22,1.00,1,1,1,2028.95,0.11,183036.65,466.63,-0.83,49437.06,138.50,1.02,19112.68,1072.76,-0.08,124429.21,1801.78,0.00,8925.39
672300,1318.24,880.51,1.00,1,1,1,1707.75,-2.56,247433.46,405.90,-3.00,52557.41,412.06,-3.08,34365.55,177.90,-2.72,83771.25,1769.52,-0.00,2257.69
693700,1324.77,892.15,1.00,1,1,1,623.57,1.06,106477.88,1025.83,2.92,30990.16,269.13,-2.09,16186.91,132.06,-2.73,2143.43,1765.28,0.01,598.52
709100,1281.45,888.96,1.00,1,1,1,2820.53,-3.07,208250.94,384.27,-1.36,80488.76,424.10,-3.09,23360.58,429.76,-3.04,19926.64,975.11,0.04,51384.37
738700,1328.46,875.26,1.00,2,2,2,1654.30,-0.28,148937.35,233.95,-1.35,5079.12,356.14,-2.53,7614.93,936.60,-3.08,17146.12,77.92,-2.63,35310.72
753700,1283.76,878.79,1.00,2,2,2,2989.08,3.06,308071.02,854.35,3.08,63148.10,445.91,-3.01,13992.25,922.99,3.11,5602.58,540.84,-3.09,31467.22
768700,1302.88,876.85,1.00,3,3,3,1280.95,-0.10,284654.06,1185.27,2.98,23096.28,1906.20,3.06,98227.40,929.78,-3.07,6360.39,412.17,3.10,9093.76
784000,1248.33,884.65,1.00,1,1,1,3601.53,3.00,319065.57,2750.13,3.05,102657.76,1527.68,3.08,24918.84,895.93,-3.05,2476.79,423.70,-3.09,2554.75
806100,1200.43,886.00,1.00,1,1,1,2168.20,3.11,66432.85,1815.81,-3.14,43226.07,1632.42,3.09,4756.49,1265.46,3.13,17425.48,530.41,-3.10,4829.34
821100,1180.96,884.64,1.00,1,1,1,1301.03,-3.07,58835.37,289.68,-2.73,103603.84,1314.52,-3.06,24725.66,903.37,3.13,24140.06,398.54,3.10,9195.34
836500,1192.34,882.51,1.00,1,1,1,751.99,-0.19,132310.34,900.23,-2.93,40148.79,743.11,-2.99,37357.58,669.81,3.02,16034.84,478.21,-3.05,6513.43
864600,1142.71,876.25,1.00,1,1,1,1780.27,-3.02,89210.46,1024.60,-3.04,5874.47,379.45,-3.01,12943.73,419.36,-3.14,9186.13,257.79,3.02,8303.16
886700,1141.18,877.23,1.00,1,1,1,82.11,2.57,77733.33,261.63,0.48,57535.99,79.38,1.20,19160.90,188.55,3.12,10447.44,453.75,3.00,8871.54
900600,1151.07,880.60,1.00,1,1,1,751.46,0.33,57935.79,1252.54,0.22,72056.42,483.93,0.22,32025.65,45.62,0.20,16782.80,396.62,-3.13,6179.16
930800,1195.04,889.49,1.00,1,1,1,1485.50,0.20,24719.27,673.39,0.13,19376.19,289.69,0.35,6639.43,111.08,-2.89,5187.16,503.17,3.11,3576.89
945100,1180.77,884.56,1.00,1,1,1,1055.68,-2.81,177323.89,543.05,-3.04,85054.39,394.94,0.15,8743.47,383.96,0.38,34572.21,288.28,-3.08,15216.43
982300,1167.22,886.67,1.00,1,1,1,368.78,2.99,20158.57,157.88,0.20,18824.66,304.55,-2.64,18513.77,354.34,0.33,938.12,40.50,0.80,8584.95
997300,1188.84,886.24,1.00,1,1,1,1441.99,-0.02,120542.01,378.14,-0.96,23155.71,300.66,0.63,40260.50,62.42,-0.29,20376.74,61.20,0.30,2142.79
1011400,1173.53,877.66,1.00,1,1,1,1244.43,-2.63,183894.37,598.51,0.84,55012.52,460.59,0.30,14309.26,329.38,-2.98,27403.76,34.39,1.95,5143.89
1026000,1200.37,898.97,1.00,1,1,1,2347.06,0.67,245274.08,881.25,0.72,20174.64,441.46,-2.84,61783.89,161.07,-2.93,11551.44,107.33,0.36,7757.94
1040600,1192.85,894.66,1.00,1,1,1,593.46,-2.62,201040.75,1191.91,-2.65,141104.23,399.04,2.99,13009.04,306.53,0.20,32026.64,323.54,3.14,29141.82
1063700,1160.81,877.65,1.00,1,1,1,1570.32,-2.65,42310.98,1252.11,-2.86,11764.27,603.30,-2.73,14711.35,81.21,0.37,9823.99,1120.14,3.13,34485.52
1078700,1146.97,881.61,1.00,1,1,1,960.12,2.86,73508.98,133.06,2.89,75953.81,201.53,0.03,52926.42,148.73,0.79,5441.49,1514.17,3.12,26283.54
1107900,1155.12,879.12,1.00,1,1,1,291.91,-0.30,42876.60,1454.74,0.21,53927.22,548.00,0.32,12300.73,206.69,-2.75,11935.14,1490.01,-3.14,1459.05
1122600,1209.37,895.18,1.00,1,1,1,3848.89,0.29,245506.79,1520.78,0.25,5667.95,577.50,0.26,2984.10,1005.85,-3.03,55039.84,1659.99,3.13,11600.23
1138000,1199.49,890.37,1.00,1,1,1,713.55,-2.69,295729.88,702.20,-3.02,144097.93,332.32,0.45,16784.88,2481.43,3.12,96780.55,1630.74,-3.12,3525.47
1152800,1188.32,892.62,1.00,2,2,2,769.81,2.94,32260.45,875.16,-3.04,11752.24,2458.96,-3.04,187445.53,2643.41,3.10,11698.52,1590.96,3.13,4132.42
1168200,1173.19,887.79,1.00,2,2,2,1031.43,-2.83,33623.84,3858.90,-3.04,193750.03,5805.03,-3.13,218401.11,3021.09,3.13,25237.13,1570.52,-3.11,4321.69
1190700,1042.83,877.73,1.00,3,3,3,5811.00,-3.06,213910.85,9842.47,-3.13,267175.13,5535.75,3.13,14193.01,3605.26,-3.13,26151.87,1005.85,-3.03,25503.34
1205100,810.01,884.84,1.00,1,1,1,16175.27,3.11,723370.36,7014.18,3.07,201761.46,5480.84,-3.13,9958.33,3106.10,-3.11,34921.21,2481.43,3.12,103501.42
1234700,735.00,899.90,1.00,1,1,1,2584.75,2.94,460593.57,1864.11,-3.13,174258.03,4685.55,3.10,27940.21,3069.65,-3.12,1396.06,2643.41,3.10,5849.26
1249600,727.06,884.23,1.00,1,1,1,1179.17,-2.04,170334.22,1250.99,-2.88,48754.08,1215.36,-3.07,233558.34,2781.47,-3.13,19513.31,3021.09,3.13,26084.01
1264000,699.61,890.37,1.00,1,1,1,1953.48,2.92,140126.26,663.45,-2.91,40845.86,597.02,-2.76,46671.57,4685.55,3.10,132707.85,3605.26,-3.13,40862.29
1300800,694.01,876.39,1.00,1,1,1,409.22,-1.95,52462.59,242.24,-2.40,12710.83,48.54,-3.11,14992.37,1215.36,-3.07,94565.74,3106.10,-3.11,13664.82
1315000,690.54,881.98,1.00,1,1,1,463.81,2.13,54889.22,1032.74,0.26,88166.70,242.24,-2.40,14651.85,597.02,-2.76,47328.92,3069.65,-3.12,2910.09
1330000,723.16,884.11,1.00,1,1,1,2179.61,0.07,162184.88,2179.61,0.07,78870.73,1032.74,0.26,83464.48,48.54,-3.11,36781.29,2781.47,-3.13,19383.22
