%@metadata width_px 1920.0
%@metadata height_px 1080.0
%@metadata width_mm 540.0
%@metadata height_mm 254.0
%@metadata distance_mm 620.0
% The number after speed, direction denotes the step size that was used for the calculation.
% Acceleration was calculated between two adjacent samples of the already low pass filtered velocity
@RELATION gaze_labels

@ATTRIBUTE time INTEGER
@ATTRIBUTE x NUMERIC
@ATTRIBUTE y NUMERIC
@ATTRIBUTE confidence NUMERIC
@ATTRIBUTE handlabeller_final INTEGER
@ATTRIBUTE EYE_MOVEMENT_TYPE {UNKNOWN, FIX, SACCADE, SP, NOISE, BLINK, NOISE_CLUSTER, PSO}

@DATA
0,137.49,896.56,1.0,1,FIX
14600,138.05,891.73,1.0,1,FIX
29300,171.31,883.39,1.0,1,FIX
43300,138.69,893.8,1.0,1,FIX
64500,131.48,879.91,1.0,1,FIX
79400,93.51,886.27,1.0,1,FIX
93600,152.44,885.26,1.0,1,FIX
122600,164.88,883.51,1.0,1,FIX
144100,131.96,881.29,1.0,1,FIX
158400,185.54,885.47,1.0,2,SACCADE
172100,151.74,887.04,1.0,2,SACCADE
186500,160.0,881.93,1.0,3,SP
208300,252.54,891.92,1.0,1,FIX
222300,460.74,890.74,1.0,1,FIX
251200,489.75,891.45,1.0,1,FIX
272600,523.99,884.3,1.0,1,FIX
287200,597.33,892.19,1.0,1,FIX
315600,518.94,895.23,1.0,2,SACCADE
336900,492.42,895.38,1.0,2,SACCADE
365500,683.2,886.77,1.0,1,SP
380400,730.02,886.27,1.0,1,FIX
394800,850.2,882.82,1.0,1,FIX
416500,834.16,886.89,1.0,1,FIX
431700,885.28,888.03,1.0,1,FIX
446400,903.95,881.91,1.0,4,FIX
460500,818.98,893.69,1.0,4,SACCADE
475100,888.84,895.44,1.0,4,SACCADE
496600,892.59,922.63,1.0,4,NOISE
511300,1079.84,1000.57,1.0,4,NOISE
539500,1086.02,1004.63,1.0,4,NOISE
554400,1134.94,1008.5,1.0,4,NOISE
575900,970.83,938.21,1.0,4,NOISE
589900,861.67,902.19,1.0,4,NOISE
603900,861.4,904.77,1.0,4,SACCADE
618400,794.98,900.95,1.0,4,FIX
639500,653.01,895.32,1.0,1,FIX
653400,641.4,888.78,1.0,1,FIX
688600,665.3,892.68,1.0,1,FIX
702600,560.92,887.05,1.0,1,FIX
716700,614.74,882.53,1.0,1,FIX
752300,667.93,889.11,1.0,1,FIX
766400,609.72,887.8,1.0,1,FIX
781200,703.3,895.27,1.0,1,FIX
796000,617.5,890.33,1.0,1,FIX
810500,698.75,892.89,1.0,2,FIX
831400,596.77,885.26,1.0,2,SACCADE
845400,743.29,891.62,1.0,3,SACCADE
859600,704.93,887.59,1.0,1,SP
881300,843.7,884.0,1.0,1,FIX
909300,876.13,891.97,1.0,1,FIX
923300,981.2,890.35,1.0,1,FIX
944600,927.79,880.99,1.0,1,FIX
958500,913.74,877.96,1.0,1,FIX
973100,906.52,883.48,1.0,1,FIX
987200,878.36,888.33,1.0,1,FIX
1008400,947.67,883.6,1.0,1,FIX
1036300,911.51,880.24,1.0,1,FIX
