%@metadata width_px 1920.0
%@metadata height_px 1080.0
%@metadata width_mm 540.0
%@metadata height_mm 254.0
%@metadata distance_mm 620.0
% The number after speed, direction denotes the step size that was used for the calculation.
% Acceleration was calculated between two adjacent samples of the already low pass filtered velocity
@RELATION gaze_labels

@ATTRIBUTE time INTEGER
@ATTRIBUTE x NUMERIC
@ATTRIBUTE y NUMERIC
@ATTRIBUTE confidence NUMERIC
@ATTRIBUTE handlabeller_final INTEGER
@ATTRIBUTE EYE_MOVEMENT_TYPE {UNKNOWN, FIX, SACCADE, SP, NOISE, BLINK, NOISE_CLUSTER, PSO}

@DATA
0,522.31,887.83,1.0,1,FIX
14000,544.91,890.78,1.0,1,FIX
28200,577.1,897.17,1.0,2,FIX
42100,579.71,892.35,1.0,2,FIX
63600,526.83,891.11,1.0,1,FIX
78200,428.67,890.04,1.0,1,FIX
106600,448.75,889.54,1.0,1,FIX
128000,391.9,885.52,1.0,1,FIX
142100,462.92,896.31,1.0,1,FIX
156100,513.95,896.09,1.0,1,FIX
170700,416.23,891.41,1.0,1,FIX
192100,416.67,890.49,1.0,1,NOISE
206100,460.58,882.25,1.0,2,NOISE
234800,432.49,897.08,1.0,2,NOISE
256000,622.02,897.09,1.0,1,FIX
284400,837.55,908.78,1.0,1,FIX
298400,893.27,903.51,1.0,4,FIX
335100,867.8,900.0,1.0,4,NOISE
350100,799.34,907.13,1.0,4,NOISE
364500,812.5,930.49,1.0,4,NOISE
378400,833.47,969.06,1.0,4,NOISE
399700,1110.82,1024.76,1.0,4,NOISE
413900,1230.07,1036.9,1.0,4,NOISE
428200,1114.9,1027.37,1.0,4,NOISE
442200,1036.93,1007.42,1.0,4,NOISE
463300,971.19,952.63,1.0,4,FIX
492500,1003.28,957.09,1.0,4,SACCADE
507100,1030.26,950.13,1.0,4,SACCADE
521900,983.75,934.8,1.0,4,SACCADE
544000,944.44,933.37,1.0,4,SP
558700,643.2,918.0,1.0,1,FIX
572700,415.28,912.47,1.0,1,FIX
602300,390.12,906.02,1.0,1,FIX
623000,436.93,912.97,1.0,1,FIX
652200,442.68,917.0,1.0,4,FIX
666200,502.85,913.3,1.0,4,SACCADE
687900,430.32,908.7,1.0,4,SACCADE
716300,476.67,887.27,1.0,4,SP
730700,606.98,914.29,1.0,4,FIX
752100,784.78,949.01,1.0,4,FIX
766500,651.01,917.62,1.0,4,FIX
780900,552.24,914.33,1.0,1,FIX
795000,590.21,904.88,1.0,1,FIX
816100,619.92,919.67,1.0,1,FIX
845100,518.31,911.58,1.0,1,FIX
860100,635.63,911.95,1.0,1,FIX
874300,573.3,903.85,1.0,1,FIX
895700,585.89,906.82,1.0,1,FIX
910000,659.89,909.04,1.0,1,FIX
924000,593.41,910.54,1.0,1,SACCADE
938700,640.15,912.38,1.0,2,SACCADE
973500,700.59,913.33,1.0,3,SP
987500,819.78,912.39,1.0,3,FIX
1002200,948.33,919.81,1.0,1,FIX
1038000,1027.93,908.78,1.0,1,FIX
1052100,939.87,901.85,1.0,1,FIX
1087500,1038.18,908.73,1.0,1,FIX
1101800,934.56,904.0,1.0,1,FIX
1115800,988.43,900.55,1.0,1,FIX
1129800,988.07,905.87,1.0,1,FIX
1151000,995.37,899.38,1.0,1,FIX
1165000,1041.05,900.94,1.0,1,FIX
1179100,1053.04,900.73,1.0,1,FIX
1200600,1003.46,900.93,1.0,1,FIX
1229000,994.96,905.92,1.0,1,FIX
1242900,1005.96,902.49,1.0,1,FIX
1264300,1016.42,899.01,1.0,1,FIX
1279200,998.54,898.3,1.0,1,FIX
1293600,946.81,904.43,1.0,1,FIX
1308700,1004.61,901.61,1.0,1,FIX
1322700,999.56,905.78,1.0,1,FIX
1344000,1013.99,899.24,1.0,2,FIX
1372500,937.37,900.71,1.0,2,FIX
